25
Coordinates from ORCA-job input
  Co  0.77950142683902      0.88991785651316      1.18637758349020
  H   3.47894674885129      0.93293928034379      1.28373164394470
  H   2.18051737135449     -1.45452467801755      1.43730000285167
  H   1.60404439445773      1.98526970490899      3.54024005012796
  O   -1.18958189136294      0.43065060014660      1.49077928881972
  O   -2.40925105344384     -0.95958522290362     -0.11041726176357
  H   -0.71353600387841      2.46322629847494      0.00379844266576
  O   0.88953050705565      1.40297194089124      3.24123529356538
  H   1.77470879390642     -0.92797478562948      2.83490774261829
  O   1.49048830615254     -0.96550922372787      1.90926481509309
  H   3.08950510704836      1.86761054786686      0.11163215786795
  O   2.76511544163795      1.49324740665515      0.94431970739916
  H   0.64347578284943      3.21649622579900     -0.18154631345197
  O   0.09824057339232      2.77491501680706      0.48524194872140
  H   -3.12343515026561     -1.43239996988440      0.32936087707999
  H   -1.33458727898508     -0.25126728341462      2.15895586408893
  H   1.23090619651304      0.59364316350971     -1.45931324690023
  O   0.62144450231097      0.21187650884104     -0.81198877218065
  H   -0.28208029349626      0.55258954243277     -1.03863771120649
  B   -2.29538902523119      0.35982152115733      0.44859299834626
  O   -3.54925495730396      0.78535440451551      1.00544845162086
  H   -3.42186688973771      1.59478521166476      1.51233707963018
  O   -1.76168177591210      1.29325526472613     -0.59589900337201
  H   -2.44257866082875      1.47068099226078     -1.25641146413587
  H   0.07735451597661      1.77846128976267      3.61288328117923
