LAMMPS data file via write_data, version 10 Mar 2021, timestep = 6000605

3108 atoms
5 atom types
2072 bonds
2 bond types
1108 angles
2 angle types

0.004077617134907746 30.99002238286682 xlo xhi
0.004077617134907746 30.99002238286682 ylo yhi
0.004077617134907746 30.99002238286682 zlo zhi

Masses

1 15.9994
2 1.008
3 58.693
4 32.06
5 15.9994

Pair Coeffs # lj/cut/coul/long

1 0.1553 3.166
2 0 0
3 0.0366 1.9495
4 0.25 3.55
5 0.2 3.15

Bond Coeffs # harmonic

1 1000 1
2 250 1.49

Angle Coeffs # harmonic

1 100 109.47
2 100 109.47

Atoms # full

588 196 2 0.4238 3.139521787932906 4.681834404176147 3.636348310871105 -1 -2 0
2601 867 2 0.4238 3.754324343240513 2.2649887661196346 3.970713655886699 1 2 1
675 225 2 0.4238 3.3326875838005487 6.992727215502743 4.67743622643506 4 -3 -2
2138 713 2 0.4238 1.1668345554927102 6.313851470355873 4.612494030810828 2 3 -1
2600 867 2 0.4238 4.68048553845929 2.5720189777404308 2.661291947949033 1 2 1
2599 867 1 -0.8476 4.031926819893289 2.9652516421451884 3.3130130149390626 1 2 1
751 251 1 -0.8476 5.536979586850695 0.8343664350843345 6.012912677110476 0 -1 -2
2818 940 1 -0.8476 2.898338577514899 1.3538528737133837 5.115539917075418 1 1 1
2161 721 1 -0.8476 1.1666136389601371 1.5623943937699318 2.54056500796664 -3 3 1
587 196 2 0.4238 3.600566073143949 6.191060546402226 3.216466681793027 -1 -2 0
1524 508 2 0.4238 1.087115505635711 3.32467085013216 1.7390386430839548 0 -2 0
650 217 2 0.4238 4.230216309868625 5.439510294520179 1.0814748494333795 -4 -2 0
649 217 1 -0.8476 4.48879282779104 6.351701929195352 1.399350029703949 -4 -2 0
586 196 1 -0.8476 3.015710136272046 5.655853577676915 3.8259721130775515 -1 -2 0
478 160 1 -0.8476 6.923672958355723 3.666497977999139 6.706369527344684 -2 2 1
651 217 2 0.4238 5.455179770627372 6.353573465335777 1.6564353002643477 -4 -2 0
753 251 2 0.4238 4.829879382360923 0.6040188160033041 6.681455628999146 0 -1 -2
480 160 2 0.4238 5.949264122823269 3.812739820063523 6.877078740004103 -2 2 1
781 261 1 -0.8476 6.071777093035087 1.8540668637001516 1.914834440390701 1 0 2
479 160 2 0.4238 7.270149755543432 4.391180308565003 6.110727461350391 -2 2 1
752 251 2 0.4238 5.829021642895068 1.7809843376204226 6.149390159197236 0 -1 -2
459 153 2 0.4238 2.4859451400781256 6.893387014990846 0.5623085601441967 -1 -1 2
2820 940 2 0.4238 3.1488503943468595 0.5222690825635696 5.611234053375944 1 1 1
2679 893 2 0.4238 8.625625134173033 15.18100207483858 7.742602162910911 -1 1 -1
457 153 1 -0.8476 1.7341581119189118 6.472870654178977 0.054389255098115534 -1 -1 2
576 192 2 0.4238 15.000299804649714 14.006611683837313 4.842635042627759 -2 -5 1
164 55 2 0.4238 6.760251668176337 0.4848400651491459 4.63027151274571 2 -2 0
783 261 2 0.4238 6.767312991798757 1.6052067885509498 2.5888518480982725 1 0 2
782 261 2 0.4238 5.671455823565654 1.0238594951511897 1.5268918317916054 1 0 2
648 216 2 0.4238 0.8445468380038432 4.5678018559579865 5.899251351986925 2 0 -2
2137 713 1 -0.8476 0.6608894999166862 6.498357687432465 5.455095461471142 2 3 -1
1522 508 1 -0.8476 0.8918012314299057 4.123619275083543 1.1702385366186367 0 -2 0
1613 538 2 0.4238 5.573018878882882 3.151829182697979 0.39252732679824615 3 0 3
646 216 1 -0.8476 0.4996196110600496 3.6703707681044992 5.624218286147886 2 0 -2
458 153 2 0.4238 1.533725771199217 5.572391296364182 0.44034730707841796 -1 -1 2
90 30 2 0.4238 0.283429394026265 8.713862082098142 1.294341380587615 -3 0 1
2139 713 2 0.4238 1.2412392813952353 7.01263588473307 6.08653314822277 2 3 -1
2163 721 2 0.4238 1.8742841984900038 1.0455077103919956 2.0588683057490256 -3 3 1
590 197 2 0.4238 4.788959336544397 8.383214191938983 6.319918718209921 2 0 0
864 288 2 0.4238 4.927450737244455 7.810790377071497 0.7473440856385068 0 0 1
862 288 1 -0.8476 4.9135397402194 8.67624164418703 0.24654299336841198 0 0 1
1576 526 1 -0.8476 4.153391090281689 3.596793464528626 6.561997526485529 0 1 -1
2162 721 2 0.4238 0.6774687977128379 0.954590057070703 3.1661143712948068 -3 3 1
2300 767 2 0.4238 7.649253887151469 5.409213505381543 2.3630093024794347 2 0 3
2301 767 2 0.4238 7.61832606312137 6.960743510503677 1.8546546553039212 2 0 3
2299 767 1 -0.8476 7.1855533045991775 6.063634681280131 1.765753198736559 2 0 3
1577 526 2 0.4238 4.087439837346345 2.9242256465198753 5.82490633907881 0 1 -1
2222 741 2 0.4238 15.107798181071477 8.371637001967793 2.097919254223747 0 1 -3
1187 396 2 0.4238 14.75051637990729 11.197798288312214 2.4594515362842446 4 0 0
2819 940 2 0.4238 1.9229995411003398 1.330055065837271 4.896113251069917 1 1 1
2223 741 2 0.4238 14.903134882368898 8.95944590232693 0.5882108300216932 0 1 -3
1186 396 1 -0.8476 14.53003863400053 11.167245445504015 3.434364772385399 4 0 0
2532 844 2 0.4238 0.21512391440694323 14.409382063655064 3.386043789550824 0 -1 0
2411 804 2 0.4238 9.65935178214807 8.206262012802938 0.1637651694285636 2 1 -1
2952 984 2 0.4238 14.139496310863903 5.591055132874382 2.363292342057028 2 -1 0
939 313 2 0.4238 9.83452508734395 2.854686892190926 1.2791653172230963 0 3 0
937 313 1 -0.8476 9.842855447516378 2.901188046061327 0.2802818115044493 0 3 0
1962 654 2 0.4238 7.276915234433928 1.5807502874963761 0.17324928958806574 0 -1 2
985 329 1 -0.8476 8.681779997007478 5.303654250341589 4.703498853373382 -1 -1 -1
53 18 2 0.4238 14.706071696830586 0.25830823830675476 4.177549686477148 -1 -1 1
2112 704 2 0.4238 13.040326486074846 4.720712596382907 5.450399898485527 -1 0 1
2110 704 1 -0.8476 12.557266657903051 5.496330261351502 5.04411166072861 -1 0 1
240 80 2 0.4238 12.370685747434385 4.650737444695013 1.5756601460568544 -3 2 -1
560 187 2 0.4238 11.154329414592345 0.8943429356066321 4.216656482752344 -1 3 2
559 187 1 -0.8476 11.435677908099962 1.4825080023783266 4.974881267574188 -1 3 2
239 80 2 0.4238 11.533795384467176 5.888363422045594 2.2348436169108528 -3 2 -1
238 80 1 -0.8476 11.786542540914883 4.926458468016326 2.3390438390603356 -3 2 -1
2813 938 2 0.4238 14.250490762582494 0.8490266484560899 2.004382522373951 0 2 1
2111 704 2 0.4238 12.163024466897907 5.221211336944984 4.167252110949846 -1 0 1
2812 938 1 -0.8476 13.537610102565232 0.20339640976876183 2.2781775976681353 0 2 1
2464 822 1 -0.8476 9.857061412772039 3.2329807506496078 3.1205931362257124 3 -2 0
2465 822 2 0.4238 10.296230071654652 2.478406204714825 3.6081873855202153 3 -2 0
2466 822 2 0.4238 10.553709406509267 3.880294954422534 2.811294233308996 3 -2 0
561 187 2 0.4238 11.112080448481178 1.0926042033747292 5.837006310784931 -1 3 2
1795 599 1 -0.8476 13.125189649698637 7.488778423575714 6.798337821553082 1 -2 3
1796 599 2 0.4238 12.664547534791184 6.8561752498498985 6.175744822018764 1 -2 3
987 329 2 0.4238 9.19768469035106 4.542058805789156 4.311306645027068 -1 -1 -1
1552 518 1 -0.8476 13.250988007817684 3.1744122880917103 6.110108232902149 2 -2 -2
1554 518 2 0.4238 14.170644769541829 2.788871318513451 6.184875748999286 2 -2 -2
2564 855 2 0.4238 13.950991789944531 13.048122042539566 1.6005797867196714 1 2 0
1553 518 2 0.4238 12.632202765334556 2.4886149093880503 5.726978366525366 2 -2 -2
986 329 2 0.4238 9.057167091657046 5.533154524903825 5.601504526158205 -1 -1 -1
2814 938 2 0.4238 12.84174025299868 0.15172307930739087 1.5618709262036732 0 2 1
2040 680 2 0.4238 12.052554840409368 10.555583394191045 7.352993254144452 0 -2 1
1120 374 1 -0.8476 10.581183748876956 0.4049538211302564 7.310832350535106 -1 2 1
127 43 1 -0.8476 8.478120745829328 12.019405176648503 2.7130651161459767 0 1 0
2215 739 1 -0.8476 4.660956106844583 15.416240217624548 4.608521132986615 0 1 0
595 199 1 -0.8476 11.997133013547984 10.487701654517382 4.131879103183461 4 1 0
188 63 2 0.4238 9.756688999687503 10.701518046589308 0.01855305820269263 1 1 1
1188 396 2 0.4238 14.791579093322715 12.032281081807726 3.862511769759488 4 0 0
334 112 1 -0.8476 7.585757776234599 9.352542710236264 2.8937534901037756 0 1 0
1517 506 2 0.4238 11.474527322792841 7.556223425295958 0.2149893545488637 1 0 -2
444 148 2 0.4238 2.349283564571404 15.40333483074224 2.4540026238104944 1 1 -1
456 152 2 0.4238 15.149276014480334 9.433707634772508 7.399431619931644 0 1 -1
290 97 2 0.4238 10.015054020064824 8.215100543569083 4.981069040939158 -2 -2 1
289 97 1 -0.8476 9.634209003283516 9.066378009045575 5.342017464437377 -2 -2 1
335 112 2 0.4238 8.095117235271202 9.11282704379715 2.067261358215514 0 1 0
2364 788 2 0.4238 0.3174024876608491 3.287740998732131 7.498437241574329 0 -2 3
2391 797 2 0.4238 13.411130652456192 15.244878779310291 6.439401992419628 1 -2 1
2278 760 1 -0.8476 15.293684667081456 2.3905181677746667 1.9207753600258113 -3 0 0
2951 984 2 0.4238 14.970384354703379 5.423897961063717 3.759110997243935 2 -1 0
336 112 2 0.4238 7.518700753508927 8.551167065431963 3.488144295728521 0 1 0
3058 1026 5 -1 7.294386231301673 15.451201817299513 4.038007573613211 0 1 0
1460 487 2 0.4238 15.449817791641312 6.878799863057682 0.4456892809651586 2 0 3
3013 1013 3 2 4.0677079487366345 15.159022361002814 6.395194496836353 0 1 0
589 197 1 -0.8476 5.40626865115747 8.55976372677889 7.086573389250356 2 0 0
2173 725 1 -0.8476 2.1486826934284675 15.31089279170878 5.643151930094133 0 1 0
674 225 2 0.4238 2.8275288493261166 8.531532550134893 4.8860468518899 4 -3 -2
2946 982 2 0.4238 6.801329087773076 14.965666954801359 6.670278149961415 0 1 0
1580 527 2 0.4238 11.80983091055003 12.771164001957597 7.728057542673269 -1 4 2
2944 982 1 -0.8476 5.902178379131047 14.806990110884058 7.078138221306242 0 1 0
1589 530 2 0.4238 1.6720998697056815 10.483999385806738 5.715110962504203 2 2 2
1588 530 1 -0.8476 1.5307444933779555 9.858596781038486 4.947718926418922 2 2 2
673 225 1 -0.8476 3.6051406314712864 7.908692868905192 4.972014011678651 4 -3 -2
49 17 1 -0.8476 4.925423958927076 15.04688492816561 1.540755576861574 0 -2 2
2104 702 1 -0.8476 2.3296290380806197 8.837038942200468 1.6646948362714613 -2 1 3
2078 693 2 0.4238 5.637699473478153 10.410353554164057 0.8493252553539317 0 1 0
1590 530 2 0.4238 1.3690492374071526 10.385798617310206 4.113504194762672 2 2 2
50 17 2 0.4238 5.7093273835680485 14.591120009559726 1.119123441769298 0 -2 2
570 190 2 0.4238 4.004378782276889 12.45327552503617 6.852962361587188 0 1 0
51 17 2 0.4238 4.161433601492327 14.404851245246743 1.6048755185539538 0 -2 2
568 190 1 -0.8476 3.906874269621917 13.185204415378962 6.178593726137571 0 1 0
569 190 2 0.4238 3.693526285289924 12.78926377448285 5.285445565863677 0 1 0
1430 477 2 0.4238 6.29085411916766 13.773681598178632 3.668669591964601 0 1 0
1509 503 2 0.4238 4.391312717976848 10.863459789963551 3.850201978985283 0 1 0
3071 1029 5 -1 1.4744183356152343 13.314339009312326 3.861300772016428 1 1 1
1507 503 1 -0.8476 5.129717564419843 10.18917078173387 3.859829003424502 0 1 0
1508 503 2 0.4238 4.801430940667 9.341294640442525 4.276162791652196 0 1 0
3072 1029 5 -1 2.615311867798855 13.35506961827337 1.9084741875993811 1 1 1
3069 1029 4 2 2.251885749960727 12.53785167078479 2.9776813408865186 1 1 1
2077 693 1 -0.8476 6.008711235985298 11.120837099899289 1.4472913323160286 0 1 0
3073 1029 5 -1 3.4365571670844295 12.108082304309422 3.7069684276075665 1 1 1
3070 1029 5 -1 1.4789966518848838 11.378708227467575 2.581029630734551 1 1 1
1429 477 1 -0.8476 5.958265250164353 12.830620193482167 3.6642171845952562 0 1 0
1431 477 2 0.4238 4.958533437280701 12.829866776869029 3.6410730618015084 0 1 0
3002 1002 3 2 6.788290879792799 11.118911547806665 3.3039368354920717 0 1 0
2079 693 2 0.4238 6.253580853162717 11.92185728506285 0.9010262166224615 0 1 0
1160 387 2 0.4238 1.749833856621452 13.618289162670818 0.5196524145239758 1 1 0
2105 702 2 0.4238 2.091638041304987 9.658384765050455 2.1831086534385644 -2 1 3
2106 702 2 0.4238 3.2706091207686505 8.912180463877482 1.3346785464109396 -2 1 3
2174 725 2 0.4238 1.8166288834876383 14.627919157440939 4.9925465433289045 0 1 0
580 194 1 -0.8476 6.975868381361334 7.495976515302108 4.836196261553454 -2 0 -1
1815 605 2 0.4238 0.736580565974512 13.016147907887028 5.229841908820555 0 -1 2
2334 778 2 0.4238 4.991971400555159 10.170108625708389 7.326379199393157 1 2 1
582 194 2 0.4238 6.712897733395663 7.728035621321929 5.772676449461371 -2 0 -1
1753 585 1 -0.8476 10.934113976268112 14.763071028208806 1.723190824123065 0 0 0
2825 942 2 0.4238 8.893499104137618 0.021181146465604428 3.5790274372856166 -2 1 -4
417 139 2 0.4238 7.869110567713995 14.547506262689376 0.9607126369898564 0 0 0
2519 840 2 0.4238 7.725108480879892 11.358722273207773 5.9382474989429666 0 1 0
1219 407 1 -0.8476 1.3096890832979728 11.078023530729407 7.659402695563397 3 -1 0
2520 840 2 0.4238 8.396227773635724 10.1161205614734 5.11839025573603 0 1 0
291 97 2 0.4238 10.354946800538029 9.585646222694264 5.8012535465868025 -2 -2 1
1755 585 2 0.4238 10.473374713724652 14.532654497611817 2.580295067614135 0 0 0
2389 797 1 -0.8476 14.009519863114251 15.4283733474786 5.659491648588109 1 -2 1
1813 605 1 -0.8476 0.2036096900157689 12.833835730794185 6.056101148377874 0 -1 2
597 199 2 0.4238 11.5091572890783 11.358785227546313 4.187494804646066 4 1 0
717 239 2 0.4238 13.024532751982761 8.255863195745642 1.7198036239769865 1 -3 3
1814 605 2 0.4238 0.6403854789482897 12.10246841161618 6.57986515917313 0 -1 2
328 110 1 -0.8476 14.636838139116007 12.591485300091433 7.291531519930033 0 0 1
2280 760 2 0.4238 15.197881795338377 3.28844078570333 2.3503772315459517 -3 0 0
2039 680 2 0.4238 12.083363263452132 10.169840855287013 5.766525481265413 0 -2 1
2410 804 1 -0.8476 8.784220357176864 8.605481759488544 0.43720352562286835 2 1 -1
415 139 1 -0.8476 8.33354673290249 15.416976545248469 1.1289997868000057 0 0 0
581 194 2 0.4238 7.094233945025168 6.506025533435653 4.7588221062098865 -2 0 -1
3054 1026 4 2 8.645794803959616 15.258296627489214 4.781597077938872 0 1 0
836 279 2 0.4238 14.66085626404756 6.972351479455547 6.078125028203504 1 -1 2
492 164 2 0.4238 12.229923125920523 13.75419497684302 5.104022501495409 -1 1 2
1415 472 2 0.4238 8.6191677812743 13.112441698544457 6.759332886389798 0 1 1
128 43 2 0.4238 9.115044016250177 11.827201975267691 1.9664817271337125 0 1 0
490 164 1 -0.8476 11.486890768657785 13.08717043152981 5.158622625880291 -1 1 2
1797 599 2 0.4238 12.68856320236047 8.38679647107194 6.744294164086434 1 -2 3
491 164 2 0.4238 10.657223550531558 13.479138487402595 4.761113654929293 -1 1 2
3056 1026 5 -1 9.384837308197616 14.260085342400124 3.9839535054313138 0 1 0
1121 374 2 0.4238 9.72160525993406 0.8352291553522544 7.586491501982606 -1 2 1
596 199 2 0.4238 12.943270472834778 10.65285950911693 3.8534068719551673 4 1 0
1754 585 2 0.4238 11.835298537971529 14.330136295535691 1.7023563418382106 0 0 0
2518 840 1 -0.8476 7.727462759832948 10.858179122500376 5.072539179042488 0 1 0
716 239 2 0.4238 11.699433843938223 8.850699051690286 2.4660673537775004 1 -3 3
129 43 2 0.4238 8.778858413142059 12.835919659035829 3.205874478543767 0 1 0
2221 741 1 -0.8476 14.575910395419648 8.289936589493564 1.2550549327546385 0 1 -3
187 63 1 -0.8476 9.6262980066496 11.664744126576911 0.25348636061731716 1 1 1
2563 855 1 -0.8476 13.325625550359621 13.740979284836856 1.9595593548748236 1 2 0
2038 680 1 -0.8476 11.990089973015596 9.806479155197936 6.693492716107072 0 -2 1
715 239 1 -0.8476 12.07732922037799 8.064514570267727 1.9770795953097715 1 -3 3
3055 1026 5 -1 8.334987233561455 14.773995415510019 6.168160881675079 0 1 0
2565 855 2 0.4238 13.84727556894424 14.43793802095648 2.451626932377712 1 2 0
2509 837 1 -0.8476 9.628157475925153 5.806911522720717 7.118686096319605 0 2 -1
1414 472 1 -0.8476 8.392134864971005 12.315778873326336 7.3194975317939 0 1 1
330 110 2 0.4238 14.86612623644976 11.69528697708887 6.911722067734417 0 0 1
2950 984 1 -0.8476 14.90445250846382 5.124452038104024 2.80727843452065 2 -1 0
647 216 2 0.4238 0.586000607210043 3.569515673247889 4.633074017701026 2 0 -2
1578 526 2 0.4238 3.2440121690540953 3.7642411894962655 6.942774881293078 0 1 -1
2192 731 2 0.4238 7.508657424318292 2.162177580617129 7.622351453790269 -2 0 3
1523 508 2 0.4238 0.7741411957431583 3.8354714277956163 0.21990858279794356 0 -2 0
2332 778 1 -0.8476 4.514603312237851 10.997153186424102 7.623224282471625 1 2 1
537 179 2 0.4238 0.490411914563661 13.760935158147044 7.711903512931216 0 -1 2
1161 387 2 0.4238 0.676712666700233 14.748886437707574 0.03304554425447635 1 1 0
2510 837 2 0.4238 9.762978775571137 4.935305625512009 7.589989246620577 0 2 -1
1835 612 2 0.4238 14.413829397660843 4.971512344662915 0.14033316062160212 1 -1 1
3106 1036 5 -1 6.7397424743123935 13.420838746975015 0.1414180103634551 1 1 1
2252 751 2 0.4238 1.875901004959361 10.075460963678491 0.16988458254541938 2 2 2
1834 612 1 -0.8476 13.434920183931782 4.828936552264762 0.28665163086022427 1 -1 1
805 269 1 -0.8476 0.44040287069150796 0.0073822393643609985 4.703362884630263 0 3 1
163 55 1 -0.8476 7.081839721944892 0.06885188696459466 3.7796630600528895 2 -2 0
1765 589 1 -0.8476 6.139663851674652 4.38710667755713 10.495747721679034 1 1 0
1766 589 2 0.4238 6.813691652561914 3.687936955830971 10.734176319635015 1 1 0
1767 589 2 0.4238 6.592020567524566 5.276234091252992 10.426279414172745 1 1 0
295 99 1 -0.8476 1.3048755959279859 5.3701119397165105 9.683398874118998 -1 2 -1
296 99 2 0.4238 2.052101151067542 5.076853149966488 10.27976555708206 -1 2 -1
473 158 2 0.4238 4.472140213240627 6.046413560368363 9.705783750893314 -1 0 0
1175 392 2 0.4238 1.699201971291558 6.345074508904369 8.388386164074708 -1 -3 0
297 99 2 0.4238 0.47563652871744183 4.860516231345973 9.912908677602728 -1 2 -1
278 93 2 0.4238 3.2690349104000602 4.9196227478239845 12.06029721728579 -3 0 -1
277 93 1 -0.8476 3.5551518623706313 4.469267264310906 11.214533119474966 -3 0 -1
1236 412 2 0.4238 4.6095749800537815 0.9203717239619145 12.26727098294329 -1 0 1
472 158 1 -0.8476 4.637962821460523 7.029831700665867 9.63235327780893 -1 0 0
279 93 2 0.4238 4.550484116675897 4.372952550471442 11.208436991991197 -3 0 -1
970 324 1 -0.8476 2.880498323125972 5.1044848083037335 13.929493900420436 0 1 3
972 324 2 0.4238 2.8533486446223324 6.0769790967001915 14.160832888032445 0 1 3
665 222 2 0.4238 2.4623676477711482 0.6290038307501812 10.57724721395947 0 2 2
1140 380 2 0.4238 5.978593115475094 4.735961908942348 14.358043227355084 1 1 3
664 222 1 -0.8476 1.7940179597863424 0.35023649268645973 9.887611914380614 0 2 2
852 284 2 0.4238 5.2114929366290355 1.3912470453022654 10.519586003416325 0 1 -1
971 324 2 0.4238 1.9635393171051019 4.715271749932492 14.017239942662723 0 1 3
2171 724 2 0.4238 3.2525483307961314 2.5589710812870123 11.573925557421296 1 2 -1
474 158 2 0.4238 5.286688230220187 7.312147342456362 10.33907359865341 -1 0 0
666 222 2 0.4238 1.3702699108238299 1.1624362823636332 9.486651765934647 0 2 2
1220 407 2 0.4238 2.169778359298937 11.074648438245388 8.169535160432732 3 -1 0
1947 649 2 0.4238 6.717515023107813 1.6811437998186303 12.134182740209162 3 0 -1
2172 724 2 0.4238 2.587337322252824 1.526165212646908 12.649766005061247 1 2 -1
850 284 1 -0.8476 5.325832681084134 1.45672774533638 9.5283047945967 0 1 -1
851 284 2 0.4238 5.3786638245599505 2.419091452926252 9.261724733611327 0 1 -1
2170 724 1 -0.8476 3.159332223543041 1.5975197721901795 11.832618327982638 1 2 -1
1277 426 2 0.4238 1.2778052169788598 2.735156043849509 14.178927044187486 1 -1 -1
220 74 1 -0.8476 1.7029017166889293 1.0189448525631881 13.978825594837122 -1 3 -1
1138 380 1 -0.8476 5.271732807160629 4.216741963652181 14.838417014589162 1 1 3
1139 380 2 0.4238 4.3753339851050566 4.441905441969853 14.456617936532512 1 1 3
434 145 2 0.4238 4.316088136645315 0.2834622605847824 8.564287862976526 2 0 1
222 74 2 0.4238 2.207746197309802 0.7182384803756506 14.787966172473897 -1 3 -1
2549 850 2 0.4238 7.424813474109258 6.21915828689192 13.017929483380467 -2 3 1
2548 850 1 -0.8476 7.216060132095312 5.415367258389514 13.57501305011405 -2 3 1
1355 452 2 0.4238 15.476862996313386 8.612819230338163 13.836636256081476 -1 1 -1
2550 850 2 0.4238 7.8263165400175465 4.665372450454203 13.319874813547035 -2 3 1
2088 696 2 0.4238 12.592052431315155 3.7512889234437763 7.8334307683455195 1 -2 -1
1948 650 1 -0.8476 10.573076676598552 15.030080017221826 10.340080412342319 3 0 0
2362 788 1 -0.8476 0.2159281680015819 2.758329169076558 8.340711565077429 0 -2 3
1024 342 1 -0.8476 10.20380414105172 0.030946077984504817 14.756352867974503 0 2 1
536 179 2 0.4238 0.6108129150871766 13.485848237392034 9.317038225651494 0 -1 2
1276 426 1 -0.8476 0.8057094958358453 3.6119656834539255 14.087647508747574 1 -1 -1
63 21 2 0.4238 12.339782291174942 14.978475643704947 8.813225025343785 1 -3 0
221 74 2 0.4238 0.8143021789373108 0.5610948166312804 13.951158710507233 -1 3 -1
2981 994 2 0.4238 14.899191541258435 4.191128269758942 10.21232793220526 -1 1 1
1949 650 2 0.4238 9.742579476467487 15.00062210119349 9.783837117962207 3 0 0
1945 649 1 -0.8476 7.476803188290959 2.1137745784488575 11.648061521206676 3 0 -1
85 29 1 -0.8476 0.48882080317326504 11.967177129822867 12.436567427863574 1 1 1
1625 542 2 0.4238 4.285266805395267 10.829625076875583 15.266447148254896 1 -2 0
2702 901 2 0.4238 0.3909444823331665 6.5364776695916 11.590782453653107 0 -1 2
1488 496 2 0.4238 10.742411780098355 0.3519147738743237 10.701913735830503 1 1 -1
1946 649 2 0.4238 8.129355915456582 2.4826677455759705 12.309947616817144 3 0 -1
857 286 2 0.4238 9.925543472423794 3.3356585535358465 14.007568501258344 2 1 -1
858 286 2 0.4238 10.118228949789726 3.856815480474514 12.472024884179786 2 1 -1
856 286 1 -0.8476 9.455251823939191 3.5345916361537695 13.147771215053536 2 1 -1
1379 460 2 0.4238 10.669623735551044 4.29812205719879 10.396332372133799 2 1 -3
2193 731 2 0.4238 7.486119325696802 0.5924944834013267 8.072033318313245 -2 0 3
668 223 2 0.4238 10.5102436497139 10.153578782407486 14.955945064205027 2 3 2
2330 777 2 0.4238 9.30956265515553 2.50162605807011 8.785475522286546 -1 -1 0
2945 982 2 0.4238 6.009376642082457 14.305236688235901 7.936480907130689 0 1 0
1380 460 2 0.4238 11.221373900544819 5.335808648594279 11.53008971498812 2 1 -3
2783 928 2 0.4238 10.93798957721521 6.902632910389824 14.715102281628994 0 -2 2
1378 460 1 -0.8476 11.107566634378285 4.371166060145485 11.292363544383631 2 1 -3
2352 784 2 0.4238 12.851269049713192 3.4957258755489597 13.385348397359797 0 1 2
2351 784 2 0.4238 12.284801889315254 3.5323162737179716 14.916492513740772 0 1 2
2350 784 1 -0.8476 12.776482354006006 4.048580000287698 14.215263539577942 0 1 2
2086 696 1 -0.8476 12.502331579804627 3.815134298580629 8.827349467573475 1 -2 -1
810 270 2 0.4238 12.585536518467109 1.532546705839876 11.553656755831463 2 -1 2
809 270 2 0.4238 12.364721486540105 3.150295652290757 11.581130015704666 2 -1 2
808 270 1 -0.8476 13.024155280729369 2.4135854250631135 11.73081279008973 2 -1 2
219 73 2 0.4238 12.071054977202262 7.655306356732981 11.748356410479238 -2 -2 -3
218 73 2 0.4238 12.421326837701189 6.651643750699157 10.508760747611557 -2 -2 -3
217 73 1 -0.8476 11.685301546476586 7.029501666481036 11.070445850878823 -2 -2 -3
2405 802 2 0.4238 13.990704942750606 6.736581997467459 8.578002982469737 1 -2 0
2329 777 1 -0.8476 9.846776060454399 3.304154456859064 9.044994239579987 -1 -1 0
2404 802 1 -0.8476 13.891262360367756 6.448387058032091 9.530397307242227 1 -2 0
2782 928 1 -0.8476 9.939203320900067 6.878056149544259 14.67241845927774 0 -2 2
2331 777 2 0.4238 10.790460395007015 3.1879521721624773 8.735224246273088 -1 -1 0
1143 381 2 0.4238 10.68864595349111 1.7702822429531062 15.05621828077298 0 1 -2
2896 966 1 -0.8476 12.852210975378535 6.631521637012588 15.148411953527743 0 2 2
1278 426 2 0.4238 0.06689396128923332 3.5247453145206333 13.419407736924246 1 -1 -1
2897 966 2 0.4238 13.008178756610125 5.717893613975679 14.772968361184692 0 2 2
532 178 1 -0.8476 15.204818270467385 1.6372365042358474 15.426723714759067 -1 2 -2
2087 696 2 0.4238 12.97353147141526 4.635013413586879 9.152571047538418 1 -2 -1
1141 381 1 -0.8476 11.010183584527544 2.6220951651739757 15.469773778642072 0 1 -2
1994 665 2 0.4238 0.11817151116321838 10.729733953054811 14.460898865178567 1 -2 1
2980 994 1 -0.8476 15.14625263684979 3.4141090355477166 10.7912941818786 -1 1 1
2982 994 2 0.4238 14.315024000562673 2.971156691687278 11.127229078137074 -1 1 1
2406 802 2 0.4238 14.790662180958861 6.423772064771809 9.966831816161932 1 -2 0
1234 412 1 -0.8476 5.545528424498003 0.6121769623757115 12.437589563655155 -1 0 1
1271 424 2 0.4238 6.520096678401888 14.16233649150479 14.969789191100663 -3 0 0
518 173 2 0.4238 8.847533676229615 7.777905898646195 13.546969707832458 2 0 1
533 178 2 0.4238 14.393468156577688 1.2184453951279588 15.018894226107024 -1 2 -2
2989 997 1 -0.8476 14.917644253325712 12.255261459794061 13.313443820103368 -3 2 1
3000 1000 2 0.4238 0.9116313964466327 12.864704515858508 14.092321703014903 -2 -2 2
249 83 2 0.4238 2.8580411491743294 14.816711595520749 11.327850026213735 3 0 3
247 83 1 -0.8476 2.780146034512603 13.848492561425902 11.565514352842635 3 0 3
1640 547 2 0.4238 0.46810565303129903 8.52463070347003 11.630950228416237 0 0 -2
2701 901 1 -0.8476 0.6957649574584347 7.0005255905676895 12.42249396445069 0 -1 2
87 29 2 0.4238 0.7013572961997864 11.138137276721324 11.91934342583449 1 1 1
2256 752 2 0.4238 13.685484696418815 9.599686376602843 11.623272491967754 1 1 -1
1272 424 2 0.4238 5.849913519974722 12.68505743428121 15.15721276103308 -3 0 0
1270 424 1 -0.8476 6.006952960721821 13.434806677262724 14.51439500171591 -3 0 0
476 159 2 0.4238 3.981297828542236 15.17802420155218 9.068530369720861 0 1 0
2999 1000 2 0.4238 0.36090684461472683 14.00794062708164 15.120105729890394 -2 -2 2
1521 507 2 0.4238 12.8159715169913 14.365776235753607 15.113953369361939 1 0 3
2703 901 2 0.4238 0.2380459957393249 6.598315661794439 13.21541310457164 0 -1 2
652 218 1 -0.8476 3.001425510247952 9.118992906975683 10.047619829800047 1 2 1
477 159 2 0.4238 2.4651361121654416 14.829157744762933 8.572373527812186 0 1 0
1486 496 1 -0.8476 11.68897051551655 0.29183954069085283 11.018800920540674 1 1 -1
515 172 2 0.4238 6.977041438857777 13.279595231376982 13.064230357470556 2 2 1
1639 547 1 -0.8476 0.5959018922027899 9.460148805772281 11.301596443756852 0 0 -2
514 172 1 -0.8476 7.6267928257897095 13.459427209436509 12.325661809786151 2 2 1
1641 547 2 0.4238 1.2726641602191737 9.464808867457926 10.56540961142187 0 0 -2
924 308 2 0.4238 3.736929277727892 12.705781391399904 12.366868143499596 -2 0 1
1921 641 1 -0.8476 6.703937282149354 13.190956546806863 9.070012581854105 -1 -1 1
1295 432 2 0.4238 4.987503832765734 11.315019472805254 11.101682055366169 0 -2 -2
654 218 2 0.4238 3.6666379351557095 9.86243299688131 10.116823389353625 1 2 1
653 218 2 0.4238 3.482617156553852 8.242893033975623 10.017560407896307 1 2 1
1154 385 2 0.4238 3.458357643281971 9.2687631383112 13.611943277957897 -1 0 0
1153 385 1 -0.8476 3.442815568711593 8.308312838302907 13.333925938334776 -1 0 0
1155 385 2 0.4238 2.6033903088860137 8.12271785327667 12.82312298197361 -1 0 0
1296 432 2 0.4238 6.211072583387411 10.469605891381724 10.427306983987494 0 -2 -2
1294 432 1 -0.8476 5.36111969627672 10.963310762051561 10.243362661184932 0 -2 -2
2333 778 2 0.4238 4.9303964061714085 11.337452111588993 8.46661786055799 1 2 1
1923 641 2 0.4238 6.298583182248831 12.619329768506752 9.783406866272225 -1 -1 1
1626 542 2 0.4238 3.8565142851818837 11.225764257138968 13.741366332008546 1 -2 0
1624 542 1 -0.8476 3.7035801941281714 10.582416360974026 14.491509402826722 1 -2 0
922 308 1 -0.8476 4.569172014287566 12.209458033307413 12.613920786351706 -2 0 1
923 308 2 0.4238 5.067118340031582 12.721312784682553 13.313959460460612 -2 0 1
545 182 2 0.4238 7.82102358389534 11.854567453948874 11.62807917582125 1 0 0
535 179 1 -0.8476 0.7453165327241233 14.161363151991107 8.592063413463567 0 -1 2
475 159 1 -0.8476 3.407996498549813 14.977595844579087 8.27407837152725 0 1 0
248 83 2 0.4238 1.8439155040047126 13.650881745663384 11.856069543898782 3 0 3
2379 793 2 0.4238 7.58680090922926 7.2257180949117865 11.503115833027545 -2 0 4
2377 793 1 -0.8476 7.351644441092942 6.763265812416904 10.648224468715853 -2 0 4
1922 641 2 0.4238 6.987944428139313 14.064896951930997 9.464434680201455 -1 -1 1
1579 527 1 -0.8476 12.042787836838093 12.055383839364783 8.386380898997569 -1 4 2
1221 407 2 0.4238 0.559948491192568 10.81909948603851 8.26837537480452 3 -1 0
2255 752 2 0.4238 13.043422012999137 10.387780486516148 10.345270192206218 1 1 -1
2998 1000 1 -0.8476 1.020133132011458 13.265309331256159 15.002125500334936 -2 -2 2
2254 752 1 -0.8476 13.848572995337758 10.304025537520772 10.932396481316411 1 1 -1
1895 632 2 0.4238 12.495446933917354 0.10785278461042921 7.95970772112587 0 0 -1
2191 731 1 -0.8476 8.07271862163817 1.356563410971333 7.803518785615268 -2 0 3
1176 392 2 0.4238 2.2288222408774363 7.886540924070359 8.288337616563217 -1 -3 0
1751 584 2 0.4238 9.042444645329418 10.886090605554324 10.054568575868016 -3 1 1
1752 584 2 0.4238 9.388413729786638 11.323835509673607 8.519866505413784 -3 1 1
1519 507 1 -0.8476 13.300166899039285 14.18785140860329 14.257274851366175 1 0 3
1071 357 2 0.4238 10.041782299380575 7.632708946692597 9.80993145687399 1 -2 -3
598 200 1 -0.8476 12.804607143451474 8.726908213773566 12.939301406068251 -3 1 -3
1520 507 2 0.4238 12.644965172747174 13.905743619714874 13.556470240068515 1 0 3
527 176 2 0.4238 8.379909815721435 13.219174054619359 15.337203633684926 -2 1 -1
1070 357 2 0.4238 9.483031050601982 8.928883943564125 8.988740840056813 1 -2 -3
1480 494 1 -0.8476 14.703656415831814 9.790243797573682 14.674580350180946 2 2 -1
516 172 2 0.4238 7.885220511183196 14.42539215660541 12.336915901769366 2 2 1
2453 818 2 0.4238 12.113700783450705 11.388694789765172 14.988330219696563 -3 -1 0
546 182 2 0.4238 7.805567306938704 10.235080380590842 11.837005512408847 1 0 0
1750 584 1 -0.8476 9.757216837589779 10.917642543260657 9.355923605986652 -3 1 1
519 173 2 0.4238 7.31336229350649 8.333237145022336 13.479515400072131 2 0 1
544 182 1 -0.8476 7.874207363310882 10.970792214253862 11.163197897575966 1 0 0
591 197 2 0.4238 5.224813798197194 7.9031544104106874 7.818651448570033 2 0 0
105 35 2 0.4238 8.72192019756836 0.5065183208212836 10.85616198923533 -1 0 1
1794 598 2 0.4238 3.8779962304796034 7.675122005902757 15.3124799405505 2 0 0
599 200 2 0.4238 12.462991799734507 9.581247948104341 13.33096782137662 -3 1 -3
2990 997 2 0.4238 14.427025890839817 11.897285790192505 12.518996187092906 -3 2 1
600 200 2 0.4238 13.032642201088988 8.09023733086361 13.675949352803512 -3 1 -3
1069 357 1 -0.8476 9.355111694411693 7.951396764217334 9.156538560236747 1 -2 -3
2027 676 2 0.4238 10.168245204877364 13.531425559327644 13.222380506506617 -1 -1 2
1416 472 2 0.4238 7.687552162836534 12.565286926410694 7.983808415205307 0 1 1
2991 997 2 0.4238 14.337315131655792 12.911513271823424 13.795679785168717 -3 2 1
517 173 1 -0.8476 8.118256639659238 8.0901694735517 12.93816267522842 2 0 1
2378 793 2 0.4238 7.77282675070831 7.246817968235968 9.880902664669902 -2 0 4
2026 676 1 -0.8476 11.021889877744588 13.47666113402018 12.704411783105199 -1 -1 2
1482 494 2 0.4238 14.974817819905052 10.498783498206244 14.023087269563629 2 2 -1
2454 818 2 0.4238 11.610841447850829 11.903167743906732 13.522356921151069 -3 -1 0
1581 527 2 0.4238 11.207066987964287 11.71154160358802 8.814566823847077 -1 4 2
2452 818 1 -0.8476 11.955774804000074 11.119118696880122 14.038388715307553 -3 -1 0
669 223 2 0.4238 10.044062395032828 8.604329317737031 15.177593675816995 2 3 2
2028 676 2 0.4238 10.881754962206303 13.85604806455463 11.789847619632875 -1 -1 2
1901 634 2 0.4238 8.121755071254213 9.511133622642687 15.45369438674217 2 0 -1
2784 928 2 0.4238 9.585504729339478 6.349630054658988 15.444210628792398 0 -2 2
2511 837 2 0.4238 9.573591959958833 6.544699505824859 7.791510036276556 0 2 -1
1174 392 1 -0.8476 1.901614954367224 7.100006393092017 7.76460217218308 -1 -3 0
488 163 2 0.4238 15.469224711993414 11.098301285771921 9.780803966074597 1 -2 2
61 21 1 -0.8476 12.632652304086305 15.465030701668006 7.990126249698187 1 -3 0
542 181 2 0.4238 14.456762908649164 0.007035221683363346 9.902150717514647 2 -1 1
667 223 1 -0.8476 9.895808739667313 9.550651501056418 15.464815178590444 2 3 2
1481 494 2 0.4238 14.028610657651653 10.163381336907495 15.311040530495442 2 2 -1
1900 634 1 -0.8476 7.155199063603858 9.25500411989817 15.440740865457338 2 0 -1
329 110 2 0.4238 13.77180133132876 12.531014520846865 7.789582326091615 0 0 1
2590 864 1 -0.8476 4.538309031257341 6.31705190681959 20.585690928848802 0 2 0
2592 864 2 0.4238 5.369747709016751 5.8112876807550276 20.815717633658746 0 2 0
2312 771 2 0.4238 5.638476033259849 6.699102962013234 16.347099617250137 2 2 2
2705 902 2 0.4238 2.8913148551884875 5.975872677581414 17.210641282110043 -1 0 1
700 234 1 -0.8476 6.371927957841893 0.9665936858606302 20.609098012926932 2 1 2
2704 902 1 -0.8476 2.454248729318182 5.145340175715868 17.55588065766735 -1 0 1
1604 535 2 0.4238 3.047312682071172 5.623492698347613 20.890331979749575 -1 -3 -1
1502 501 2 0.4238 6.592026445034582 4.3529712349667875 20.14276880987884 5 2 -3
1603 535 1 -0.8476 2.1084292952487815 5.42414490157203 21.17097141344435 -1 -3 -1
2706 902 2 0.4238 1.7233305495288211 4.869225684277803 16.93176542097124 -1 0 1
2577 859 2 0.4238 0.6584481839514651 5.479968039883616 20.321682734783263 1 1 2
1776 592 2 0.4238 5.581470093980675 2.837775784519316 18.611229696568554 -1 2 4
823 275 1 -0.8476 2.3132486800418794 2.5328783255741354 20.79280224287578 0 2 2
1775 592 2 0.4238 7.126078244472997 3.2492531124482857 18.277315827473686 -1 2 4
1774 592 1 -0.8476 6.5099981155140725 2.890760278273264 18.978691702078827 -1 2 4
825 275 2 0.4238 2.8979958817634737 2.295333012269343 21.56845913712953 0 2 2
824 275 2 0.4238 2.4511501973821277 3.4939709929915512 20.553460217752733 0 2 2
1501 501 1 -0.8476 6.810230745500813 4.917475244787355 20.93883542473069 5 2 -3
2591 864 2 0.4238 4.666328978737247 6.790079334323639 19.713993784376633 0 2 0
1503 501 2 0.4238 7.301180669546034 4.3665037756706715 21.613667695356572 5 2 -3
1605 535 2 0.4238 1.9432187796311444 5.808750530173393 22.07914760928774 -1 -3 -1
2003 668 2 0.4238 14.79572178008551 15.319296374113076 22.437275129703476 3 2 0
343 115 1 -0.8476 4.333844120692271 3.121913390994595 17.15881730268258 -2 0 2
1526 509 2 0.4238 1.718294121783293 1.4794083643804914 19.611637194693976 -3 -1 2
345 115 2 0.4238 3.742153165867104 3.859731467927821 17.48366539252545 -2 0 2
1525 509 1 -0.8476 1.1900344093699189 0.9423129902567559 18.954012538798672 -3 -1 2
2313 771 2 0.4238 6.8532403098133114 7.7688270511702395 16.131080694806663 2 2 2
1833 611 2 0.4238 4.277010187535529 14.539744765210182 15.577879780877828 -1 0 0
2576 859 2 0.4238 0.14638411148446157 5.8742426510275685 18.822028087261295 1 1 2
888 296 2 0.4238 1.9184776715214682 1.0364079954442025 17.575875075322415 -4 0 2
886 296 1 -0.8476 2.48143803013632 1.0461907218247402 16.74944905357825 -4 0 2
344 115 2 0.4238 4.724787490199854 3.373485176665283 16.27345027994963 -2 0 2
887 296 2 0.4238 3.200852908858947 1.7342589482429094 16.844339690420803 -4 0 2
2197 733 1 -0.8476 11.104851019226448 0.011120981319427188 22.47069984786274 -2 3 1
2311 771 1 -0.8476 6.614715478035927 6.86504740938441 16.48645109138314 2 2 2
1769 590 2 0.4238 13.627967841438732 14.683911548018031 20.777148290206625 -3 -2 0
1544 515 2 0.4238 15.231082403935824 11.918922206225478 18.725145256587023 1 -1 0
740 247 2 0.4238 15.288789981819498 2.5966402455339823 16.78651574224113 0 4 3
1301 434 2 0.4238 8.482191637040149 0.2852347870679683 17.07301339655728 1 2 1
702 234 2 0.4238 6.429888677755817 1.7352467040145776 19.972063370718573 2 1 2
1792 598 1 -0.8476 3.26468971078116 7.291685143337001 16.00300987910152 2 0 0
1793 598 2 0.4238 2.7967308584051715 8.034146833426014 16.48234844257297 2 0 0
504 168 2 0.4238 5.6184692014031805 7.563115687045007 21.80025593694791 1 0 0
2847 949 2 0.4238 6.8130845050760565 3.68484533831938 15.767085539322235 -1 2 1
1084 362 1 -0.8476 11.268352650571456 10.864274850296164 19.29074809512973 1 1 2
2096 699 2 0.4238 6.767343570109814 2.154303976833981 21.749808874098385 1 -4 -2
1445 482 2 0.4238 0.36229413908455144 3.0203013061552926 21.537321482099692 1 3 2
1045 349 1 -0.8476 7.205616128565255 15.388997869147383 16.09315587798997 0 -1 0
2912 971 2 0.4238 12.599327157492521 0.5236045100230728 21.798015860440756 0 -3 -1
2064 688 2 0.4238 14.932204255440768 4.592357805731682 17.30382585797932 1 -2 -3
2846 949 2 0.4238 8.36842655985258 3.5102026254300696 16.232958728862144 -1 2 1
2845 949 1 -0.8476 7.456784863618423 3.100163636503243 16.26084464863959 -1 2 1
1514 505 2 0.4238 13.84302698292292 2.2372914572260667 18.24233874010504 0 5 1
2879 960 2 0.4238 15.087762380099901 4.081254044784525 20.79132408788298 -2 -1 2
1369 457 1 -0.8476 13.982794990778235 3.63510392156644 22.185125619876093 -2 1 1
66 22 2 0.4238 10.28804374800938 3.3926056142498666 22.295159929966506 -1 0 0
1302 434 2 0.4238 7.581527012120064 1.2550003674685628 16.116465540874785 1 2 1
1082 361 2 0.4238 8.486034672501459 6.193250507823391 16.956619779613032 1 -1 1
1081 361 1 -0.8476 9.413509123493004 5.8321239113540635 17.053462485726776 1 -1 1
314 105 2 0.4238 10.151513285040775 3.3142721589748056 19.05558099675789 0 0 0
315 105 2 0.4238 10.00476825642347 1.7425351540484617 18.637566696519805 0 0 0
1911 637 2 0.4238 11.088235761123109 5.3341257310292605 22.284318752041926 1 5 -3
313 105 1 -0.8476 10.557704708236269 2.5684682688933016 18.527579364407554 0 0 0
75 25 2 0.4238 11.526228717151785 5.338803893447031 17.5828546531994 2 1 0
339 113 2 0.4238 8.57733745243097 5.507852852328778 19.792957570642372 1 2 1
2629 877 1 -0.8476 9.210297754216242 0.2495285277312545 18.81368149808216 1 1 1
2631 877 2 0.4238 8.426676471111017 0.04360620800874735 19.399799396969325 1 1 1
1513 505 1 -0.8476 13.172179907975934 1.813440918060215 18.850873852973844 0 5 1
338 113 2 0.4238 9.912151982855809 4.742676850928852 20.34013425051155 1 2 1
337 113 1 -0.8476 9.366952893334162 4.953977379253436 19.528894442014888 1 2 1
1083 361 2 0.4238 9.544148047500906 5.49465339138359 17.985689476464312 1 -1 1
1370 457 2 0.4238 14.242077872623563 3.7307967928426997 23.146174661505462 -2 1 1
1515 505 2 0.4238 12.26199524629181 2.1733863856946134 18.64592528325613 0 5 1
1910 637 2 0.4238 12.062936842140013 4.4127287438008755 21.352862345661947 1 5 -3
1909 637 1 -0.8476 11.114186187081833 4.595575731689479 21.610619791593216 1 5 -3
701 234 2 0.4238 6.027434307031608 0.16035294874916342 20.12816141490129 2 1 2
1300 434 1 -0.8476 7.852852346947067 0.30945517060661604 16.296260262600175 1 2 1
1142 381 2 0.4238 10.757422714351575 2.639141987803207 16.437152364281054 0 1 -2
2095 699 1 -0.8476 6.995150141855794 2.790202855467643 22.4871939210425 1 -4 -2
74 25 2 0.4238 13.074835006268085 5.301922076625008 18.09965686135175 2 1 0
2913 971 2 0.4238 13.355113814163511 1.13855541837493 20.48757703796789 0 -3 -1
1182 394 2 0.4238 8.615208172337754 8.554662818188662 19.09561927643522 -2 0 0
1422 474 2 0.4238 15.269358909659859 6.226859514777438 22.007105716219773 -2 -3 -1
1371 457 2 0.4238 13.702283653075478 2.6917540419098667 22.007913447003393 -2 1 1
894 298 2 0.4238 11.24690758280321 12.999995506920587 23.018459417646557 -1 3 2
64 22 1 -0.8476 9.805669787343803 2.7633602210558554 22.904557623269067 -1 0 0
1768 590 1 -0.8476 12.782936737514508 15.124664640931059 20.47439580898128 -3 -2 0
2911 971 1 -0.8476 13.417391468658131 1.0001240612250086 21.47598970845302 0 -3 -1
2081 694 2 0.4238 10.120772244624419 8.734886762765061 23.07646963967659 -1 0 0
2063 688 2 0.4238 15.323990254927494 6.129726030160751 17.690645881197085 1 -2 -3
1427 476 2 0.4238 0.15326690480275848 2.211478247216457 18.40894558122114 -1 2 -2
73 25 1 -0.8476 12.165992366746204 5.682580396386361 18.270255772108637 2 1 0
65 22 2 0.4238 8.821929489977329 2.824101285529573 22.735544149502225 -1 0 0
768 256 2 0.4238 4.594169197588243 15.199369361457522 21.792755020350594 2 1 0
2810 937 2 0.4238 0.1698224127491021 8.455655211233683 21.11715396510381 0 -1 2
1031 344 2 0.4238 5.930343902210842 14.667420759843912 20.463944511186778 1 1 -1
2002 668 1 -0.8476 15.345372938595927 14.887002948398969 21.722427542397927 3 2 0
2062 688 1 -0.8476 14.861892700037215 5.548819214364751 17.020561407975055 1 -2 -3
1527 509 2 0.4238 0.47436584691459827 0.4362404694989905 19.435373850207245 -3 -1 2
1420 474 1 -0.8476 15.347221865993212 6.995105515728471 22.642507684182615 -2 -3 -1
1030 344 1 -0.8476 6.582396844642707 14.193723395820369 19.871966890830564 1 1 -1
1635 545 2 0.4238 9.109844820156276 9.611023686116178 17.004982435482773 -2 -3 -2
1800 600 2 0.4238 13.308588863748755 9.75847726563069 21.87613390046249 0 1 1
526 176 1 -0.8476 9.08736643766714 13.010833869963733 16.012555051187665 -2 1 -1
1533 511 2 0.4238 1.8411325264570493 9.94103201726387 16.194246817373266 -1 0 -1
3004 1004 3 2 0.9783180345129711 13.308163217507774 19.45775621761468 0 0 -1
2285 762 2 0.4238 0.7679871046971947 13.577212563577381 21.97119334322074 0 0 -1
1902 634 2 0.4238 6.591680704739456 10.07523468825948 15.539074166393492 2 0 -1
2284 762 1 -0.8476 0.4339540169550822 13.004915350556583 21.222262029888807 0 0 -1
2259 753 2 0.4238 0.8357624691720171 10.4889607226139 19.99069339991817 0 0 -1
1032 344 2 0.4238 6.086514723305201 13.6033983662347 19.235086180052278 1 1 -1
1928 643 2 0.4238 0.7077063690223871 10.397495854648815 22.352341263446508 3 0 0
2686 896 1 -0.8476 4.876052976179972 7.916408150470124 18.587266087569894 2 1 -2
2688 896 2 0.4238 5.778745208828345 7.721766189917706 18.2035210657246 2 1 -2
3016 1016 3 2 5.977942736636057 10.291737344317125 22.31706112266141 1 0 0
2385 795 2 0.4238 5.213626236770517 12.957064946079882 22.41355690401914 1 0 0
1531 511 1 -0.8476 2.0561294472529448 9.7085464053047 17.142786377560583 -1 0 -1
566 189 2 0.4238 3.410221090438122 10.042458282394636 21.14608393104449 1 0 0
2384 795 2 0.4238 6.842937094099684 12.89797908953421 22.32146182389816 1 0 0
565 189 1 -0.8476 4.336832038638248 10.412076458824837 21.076986966114074 1 0 0
895 299 1 -0.8476 7.124726973700905 10.303966884124597 20.70219394195122 1 0 0
2306 769 2 0.4238 3.3506395987460467 13.476281997809444 20.878831202162488 0 0 -1
2257 753 1 -0.8476 1.1410395350947964 11.18419976994122 19.339964185000397 0 0 -1
3068 1028 5 -1 5.356319063981132 11.408368927572624 16.478433609896218 1 0 0
3067 1028 5 -1 4.591112675869646 10.596189984023441 18.453623371873185 1 0 0
3065 1028 5 -1 6.834110298996833 11.588368214038754 18.287338269951583 1 0 0
643 215 1 -0.8476 1.660451665116158 13.304026894970812 17.641792430800265 0 0 -1
644 215 2 0.4238 2.5015734437117776 13.814117968076582 17.462010981474833 0 0 -1
3066 1028 5 -1 4.876609181294523 12.937930322412642 18.234995306819155 1 0 0
3064 1028 4 2 5.398487310771239 11.641301856401723 17.861235116759897 1 0 0
2305 769 1 -0.8476 2.959526099193811 13.437157106794412 19.95932089696204 0 0 -1
2258 753 2 0.4238 1.6840791281071474 10.75157005490021 18.620284088544242 0 0 -1
2307 769 2 0.4238 3.677121755002259 13.208944529415074 19.301312127605836 0 0 -1
2687 896 2 0.4238 4.729141488492814 8.905326220153004 18.60866672134756 2 1 -2
567 189 2 0.4238 4.528865768231852 10.654667658227604 20.12605442629174 1 0 0
1832 611 2 0.4238 4.491724154585533 14.253100881485176 17.17110282712568 -1 0 0
2383 795 1 -0.8476 6.002186498140566 12.358948369124851 22.270625462483327 1 0 0
896 299 2 0.4238 7.079943630635325 10.883272988068438 19.888315001252632 1 0 0
3047 1024 5 -1 3.862422330797861 13.859369648509379 22.794644584412104 0 1 -1
1532 511 2 0.4238 2.9684043564311424 10.04879091329545 17.37079839939962 -1 0 -1
1927 643 1 -0.8476 1.6836729047274974 10.203165810692907 22.45095718709212 3 0 0
502 168 1 -0.8476 6.001669076266298 8.340915091853077 22.29843850442069 1 0 0
1634 545 2 0.4238 7.906022400723586 10.249874169531306 17.904598975496977 -2 -3 -2
1772 591 2 0.4238 0.5637796809912407 8.766385844214328 17.432549208139896 0 2 0
1831 611 1 -0.8476 3.932020020066394 14.733940281992973 16.496177052337316 -1 0 0
645 215 2 0.4238 1.1884008537122372 13.124765223086634 16.778639238046896 0 0 -1
1417 473 1 -0.8476 0.7442137242837882 15.23330758276191 19.456027392368785 0 0 -1
2361 787 2 0.4238 7.997864263164605 15.185236041203204 19.59119384732238 0 -2 -2
1929 643 2 0.4238 2.0971736840205266 10.875976655303 23.064424845185826 3 0 0
1638 546 2 0.4238 14.516903087221607 14.167726481224665 17.85384129572612 -3 -2 2
1545 515 2 0.4238 14.210785887743315 11.479739472336938 17.528173633239668 1 -1 0
2617 873 1 -0.8476 13.242358090187237 11.53287030418077 21.292647603346545 -2 -1 1
1421 474 2 0.4238 14.672580176058208 7.6939345675588235 22.404815185739718 -2 -3 -1
1085 362 2 0.4238 11.733108693209502 10.799865874742956 20.17384112132189 1 1 2
2844 948 2 0.4238 12.027135318004959 10.888716742075818 17.36055002032587 0 -1 0
1047 349 2 0.4238 7.42289650136802 15.357857696763764 17.068768489181995 0 -1 0
1086 362 2 0.4238 10.447425320519224 11.427237660304819 19.386409045549858 1 1 2
2619 873 2 0.4238 14.160245849336638 11.752576008387933 20.96217616900499 -2 -1 1
2898 966 2 0.4238 13.16004396708092 6.658066625467447 16.099481845846146 0 2 2
1637 546 2 0.4238 13.440895081919507 14.925727741188656 18.820416044319924 -3 -2 2
893 298 2 0.4238 11.60097596444071 14.581914382776826 22.821495922844647 -1 3 2
261 87 2 0.4238 11.273688788588224 14.824094267238745 17.13408137702148 1 1 0
168 56 2 0.4238 8.357501806703429 12.585872568776102 19.297825924377364 0 1 0
897 299 2 0.4238 7.905873689731157 9.684099352195298 20.62753641138266 1 0 0
2843 948 2 0.4238 12.185400992392942 12.404758911679533 16.77472212427855 0 -1 0
2618 873 2 0.4238 12.887434519565378 12.300741186108327 21.82594242870369 -2 -1 1
166 56 1 -0.8476 9.190471194878672 12.652007964072805 19.847178755137122 0 1 0
1181 394 2 0.4238 9.841952024259816 7.895054614750667 19.948052726049948 -2 0 0
252 84 2 0.4238 11.89613916865701 7.192107926494053 19.3676532336035 -2 1 -1
251 84 2 0.4238 11.502841117635569 8.774645954680176 19.280950436453768 -2 1 -1
1770 590 2 0.4238 12.048968244150442 14.918142735684398 21.121418893351475 -3 -2 0
2842 948 1 -0.8476 12.552960723362265 11.475249424096233 16.744524847531366 0 -1 0
892 298 1 -0.8476 11.80306831432523 13.654608418658512 22.50643680757339 -1 3 2
1798 600 1 -0.8476 13.232936402135714 8.772564602333114 22.02530807183784 0 1 1
260 87 2 0.4238 10.597641006374094 13.448354476532504 16.571119632551316 1 1 0
1636 546 1 -0.8476 14.063640581229915 15.038121320039824 18.046106496643763 -3 -2 2
2199 733 2 0.4238 10.442638408813641 0.7597240318367919 22.438014265230084 -2 3 1
528 176 2 0.4238 8.657043306049294 12.76767844713254 16.88186380700644 -2 1 -1
1543 515 1 -0.8476 15.029146028855322 12.009916886414914 17.749982443488634 1 -1 0
1633 545 1 -0.8476 8.574478837168419 9.508645846345441 17.843375363894964 -2 -3 -2
1180 394 1 -0.8476 8.878896645598138 8.162793158007732 19.97704227726289 -2 0 0
259 87 1 -0.8476 11.443883965677035 13.86660157980682 16.901183638659205 1 1 0
250 84 1 -0.8476 11.601554645605274 7.990209087176727 19.89325327631935 -2 1 -1
1799 600 2 0.4238 12.66636709912673 8.369241315673454 21.30674735121957 0 1 1
167 56 2 0.4238 9.46992535135863 13.609777010392106 19.914883572448307 0 1 0
1446 482 2 0.4238 0.42926424776318967 2.9937219372171864 23.168712006024126 1 3 2
503 168 2 0.4238 6.340412729000487 8.033089270864576 23.18753684447366 1 0 0
3046 1024 5 -1 1.5936353934399474 14.15904173705031 23.23879581831767 0 1 -1
2097 699 2 0.4238 6.310794884945205 2.718150577588402 23.212773931893246 1 -4 -2
78 26 2 0.4238 5.304489076789404 0.6676896091381139 28.275521297261317 -3 -1 -2
1119 373 2 0.4238 3.0747379365633596 5.110786956977115 27.328821875080546 0 2 -1
76 26 1 -0.8476 5.750008034042832 0.03457036429001249 27.64253424734648 -3 -1 -2
1117 373 1 -0.8476 2.6572571474940703 5.120759985143841 26.42019085699687 0 2 -1
1118 373 2 0.4238 1.8118688932176978 5.654206610912162 26.44763895105338 0 2 -1
2057 686 2 0.4238 5.842848232027273 6.141328999642156 28.468933687257042 -2 -3 1
1990 664 1 -0.8476 3.8607000238310882 5.500660746972197 29.19893157026695 1 2 0
1808 603 2 0.4238 0.5249542094669687 2.9284879342933627 25.408169269367196 -2 3 2
1991 664 2 0.4238 4.2674624983343294 4.774659125466561 29.75342884813275 1 2 0
1807 603 1 -0.8476 1.309800858546061 3.150978171623688 24.82979759094596 -2 3 2
1680 560 2 0.4238 2.7713103956645146 5.526168006679753 24.41311628576031 -1 0 1
1992 664 2 0.4238 3.103335596757532 5.91862095645268 29.700637405452472 1 2 0
2130 710 2 0.4238 5.518582826520598 1.2545492661623143 25.64574951832665 0 1 1
1246 416 1 -0.8476 2.045555495420568 2.1678074458950207 27.890613003468427 -3 1 -1
1247 416 2 0.4238 1.819663036174742 1.2708805407903836 27.510487783459997 -3 1 -1
2456 819 2 0.4238 6.099075580793583 5.00372421659173 26.325979686963137 -3 1 0
1248 416 2 0.4238 2.869529964563281 2.093819151693955 28.452389079856992 -3 1 -1
2876 959 2 0.4238 6.577276421415379 7.583838777011949 25.377182258892898 2 0 0
1809 603 2 0.4238 2.025603479685325 3.5720895731769184 25.386836020071332 -2 3 2
350 117 2 0.4238 4.109514640449112 1.7043846560062854 24.10266163903304 -2 1 0
2742 914 2 0.4238 1.1005732023462502 3.0437222487076787 29.272666835793473 -1 0 2
950 317 2 0.4238 3.3332086046061487 7.538306859717071 28.600809316245087 4 1 -1
351 117 2 0.4238 2.572631875834165 2.1269173998487254 23.747577967576774 -2 1 0
2875 959 1 -0.8476 7.1853151069619745 7.348512105152634 24.618953655085168 2 0 0
2988 996 2 0.4238 3.8720668453495555 7.349398430165111 25.06997439768922 1 0 -3
197 66 2 0.4238 4.39902433356344 0.9166073803402596 29.90976208659944 0 0 0
2128 710 1 -0.8476 5.658130525063601 1.8753273197837628 24.874282557095675 0 1 1
2129 710 2 0.4238 6.059301418942198 2.7303803944638223 25.202835596000202 0 1 1
2958 986 2 0.4238 7.303180658177306 1.6201630357737247 27.555279707101327 -1 -1 -1
1883 628 2 0.4238 0.6161367199191855 6.906322899766225 27.846545429875935 0 1 -2
957 319 2 0.4238 0.28057607084310754 15.475919044523472 28.26560641281788 1 1 -1
2056 686 1 -0.8476 6.456490497501785 6.5454012221610505 27.79057612873836 -2 -3 1
2058 686 2 0.4238 7.398957227158043 6.493411917671019 28.12081042587562 -2 -3 1
2455 819 1 -0.8476 6.493296640558055 4.635463062588635 25.483974065486798 -3 1 0
2457 819 2 0.4238 6.591193263423094 5.3701240207960295 24.81263996118138 -3 1 0
196 66 1 -0.8476 4.460580770594419 1.7233050211930436 29.322012370315782 0 0 0
2859 953 2 0.4238 0.5278287785105488 6.964816712354069 30.11417390891446 4 0 0
1960 654 1 -0.8476 7.936180495121565 1.265693559878787 30.47647260177888 0 -1 1
3052 1025 5 -1 10.979722650546488 15.409840087826584 26.656086004267273 1 1 0
1177 393 1 -0.8476 7.954193091275887 4.682529891682851 29.95477798818856 0 2 0
2080 694 1 -0.8476 9.943315907442445 9.377890346471224 23.82149019332991 -1 0 0
198 66 2 0.4238 4.659306216185962 2.5284513668501285 29.880803429684473 0 0 0
1882 628 1 -0.8476 0.786489153176966 6.902081737986119 26.86117137874899 0 1 -2
1387 463 1 -0.8476 3.375022001201188 15.345477214417555 30.124815787956237 1 1 -1
1884 628 2 0.4238 0.7677410054455523 7.8402984478889675 26.51563141242685 0 1 -2
945 315 2 0.4238 14.470531168529295 1.2071681745728071 24.674942063513033 -1 0 0
1179 393 2 0.4238 8.69336520580772 4.298421947122481 30.50802804417855 0 2 0
2194 732 1 -0.8476 11.299364775009128 6.620313452018889 23.399899528276652 -2 0 -1
1756 586 1 -0.8476 0.09072741353170614 9.647993495009239 26.44155376827257 1 2 1
2956 986 1 -0.8476 8.072719139914492 2.2582791286545683 27.530407152937943 -1 -1 -1
2195 732 2 0.4238 12.265604118651623 6.713965581276503 23.63992210177487 -2 0 -1
1062 354 2 0.4238 13.749659922650695 2.0657900688346458 26.53952029771967 0 2 -2
2196 732 2 0.4238 10.744536782058603 6.6552204858735236 24.231132546702376 -2 0 -1
1061 354 2 0.4238 12.280759769118522 2.22791146662021 25.84477187765436 0 2 -2
2926 976 1 -0.8476 11.65358571251774 0.2628376759633661 30.394324088053494 1 -3 0
2978 993 2 0.4238 12.09972208627827 5.605017046125897 27.845472584995218 -1 2 0
905 302 2 0.4238 10.721101727817604 3.777950791823982 26.974251155409576 1 -4 3
190 64 1 -0.8476 10.392609765901158 0.8399928672662517 27.583449010731414 1 4 1
904 302 1 -0.8476 11.029909815564748 4.350421761571076 27.733800050734715 1 -4 3
906 302 2 0.4238 11.495085538759014 3.7816960618523052 28.41215287514545 1 -4 3
657 219 2 0.4238 9.096596646766 2.666573995617059 26.054375060432655 1 1 -1
1210 404 1 -0.8476 9.888240990906946 6.464321018136823 25.82781219500939 1 1 -2
1211 404 2 0.4238 9.935893303415288 7.3079689737790545 26.362590343338393 1 1 -2
655 219 1 -0.8476 9.933235681958454 3.001064965704279 25.620610287090546 1 1 -1
656 219 2 0.4238 9.904775033069354 2.7991764347632224 24.641614588651493 1 1 -1
2957 986 2 0.4238 7.98965984326695 2.910163700228805 28.284163061569522 -1 -1 -1
396 132 2 0.4238 14.36726714742939 5.721653464845578 28.29199508508714 0 0 3
191 64 2 0.4238 9.828763695620864 1.664018204712727 27.52812762511285 1 4 1
2979 993 2 0.4238 12.423499416999924 6.895439520183717 28.792364545648898 -1 2 0
1212 404 2 0.4238 10.269591735062306 5.709447764703 26.36142074732954 1 1 -2
2977 993 1 -0.8476 12.655470953188924 6.431253250063347 27.93754275246853 -1 2 0
1145 382 2 0.4238 14.862853547476824 5.172962751001235 24.91739847046878 1 -2 -2
1146 382 2 0.4238 14.71212654351368 3.716937316155231 25.641206176311115 1 -2 -2
2928 976 2 0.4238 11.113465382996644 0.32853677119184344 29.555304721934597 1 -3 0
1144 382 1 -0.8476 14.842074211515982 4.184572651190961 24.76688893126781 1 -2 -2
1678 560 1 -0.8476 2.846934293330316 6.255391271375553 23.733031995019406 -1 0 1
1060 354 1 -0.8476 13.12618928218381 1.6938706987155656 25.851799181257768 0 2 -2
1609 537 1 -0.8476 12.130081858661434 2.9345046094185263 29.72899978771966 1 0 -2
1836 612 2 0.4238 13.070220098150212 4.248196063607216 30.544767404942323 1 -1 0
1610 537 2 0.4238 11.242725702855369 3.0607456464380682 30.17246581744581 1 0 -2
1611 537 2 0.4238 12.466717039014751 2.0111861337924597 29.913822495330486 1 0 -2
349 117 1 -0.8476 3.386734243951214 1.6518544527152188 23.4135826171742 -2 1 0
2877 959 2 0.4238 8.032757317119106 6.959109196849908 24.979796711605086 2 0 0
394 132 1 -0.8476 15.252837607733872 5.257548653184341 28.31129230669954 0 0 3
2667 889 2 0.4238 15.196243873500634 2.161616734665612 27.972711984382038 -2 0 -4
1739 580 2 0.4238 13.154287209993823 9.017347592072012 24.21800629331478 1 -1 3
2480 827 2 0.4238 5.914549601758445 15.32874885953984 27.697164403979034 1 1 -1
1178 393 2 0.4238 8.318039341268301 5.406733989136041 29.368992845549037 0 2 0
1961 654 2 0.4238 7.749318178998077 0.3100486226407997 30.248820957971244 0 -1 1
1679 560 2 0.4238 2.01334808822617 6.8077020684144385 23.742451255697755 -1 0 1
1316 439 2 0.4238 15.148813038354822 6.9586447017762865 24.548862994673346 0 -3 -1
1317 439 2 0.4238 14.777776496955008 7.382711406345479 26.08154925344628 0 -3 -1
1028 343 2 0.4238 9.147401721114173 15.339850308697171 23.643328895128814 1 1 -1
944 315 2 0.4238 14.843138396705735 0.3201210344039616 23.355496015105313 -1 0 0
1698 566 2 0.4238 0.16887296290276538 12.833178937494688 27.965751342843863 1 1 -1
943 315 1 -0.8476 15.148506409879955 0.5956736503008415 24.266990027805875 -1 0 0
2740 914 1 -0.8476 0.33624863710398567 3.3990168580789666 29.810787291860184 -1 0 2
1395 465 2 0.4238 8.391168131337984 10.15828361794347 23.603138414262066 1 0 0
2459 820 2 0.4238 7.558299127572065 11.381967337476055 26.74464825303843 -1 -1 -1
1393 465 1 -0.8476 7.481990294690129 10.574602597684745 23.59452270151197 1 0 0
1159 387 1 -0.8476 1.1653756860151998 13.918366431818404 30.751699069871634 1 1 -1
831 277 2 0.4238 2.885968427394661 11.580485571107875 30.12974467959012 1 1 -1
949 317 1 -0.8476 3.2383128890820148 8.462795367656192 28.23159941518948 4 1 -1
404 135 2 0.4238 11.459213889020273 12.45624780542344 30.614396846964656 2 0 0
951 317 2 0.4238 2.821366215061104 9.05567708297054 28.920546252210958 4 1 -1
1124 375 2 0.4238 13.66918713816993 15.175441951201025 24.722075654833837 -1 -1 1
70 24 1 -0.8476 7.219363878615146 8.790896512182725 29.34641904224909 3 0 -1
921 307 2 0.4238 3.199061349006447 11.03439094234125 26.774310794003128 -1 0 -1
1758 586 2 0.4238 0.8869703301929035 10.22924033162512 26.60933129395408 1 2 1
2560 854 1 -0.8476 4.715935125802355 10.452828558522704 23.812477241747768 1 0 0
2251 751 1 -0.8476 2.059010930925757 10.168184039480687 30.177119454650125 2 2 1
3105 1036 5 -1 6.077584696478288 14.133064891644013 28.927045443797592 1 1 0
2253 751 2 0.4238 1.2052411944021089 10.064161458451522 29.666966144126743 2 2 1
2986 996 1 -0.8476 4.237234499040691 8.220862758360617 25.397393208673268 1 0 -3
1697 566 2 0.4238 1.6067605619192002 12.385422413852591 27.334387877600246 1 1 -1
2458 820 1 -0.8476 6.82310782470989 11.382703075766315 26.066787852981914 -1 -1 -1
830 277 2 0.4238 4.292005107427496 12.292006949967552 29.70146381356446 1 1 -1
2275 759 1 -0.8476 5.993946765938803 13.984628400697655 25.159146805693055 1 1 -1
2277 759 2 0.4238 5.059697803301274 14.052222719783638 24.80899000323421 1 1 -1
2276 759 2 0.4238 6.197914423366005 13.031554277317985 25.382858329216447 1 1 -1
736 246 1 -0.8476 4.586189405692292 10.719828735171339 27.601132359492876 1 2 0
738 246 2 0.4238 4.981275150890916 11.225933700014133 28.36779071358256 1 2 0
3048 1024 5 -1 3.2429179224713294 14.330318147480334 25.042953124413252 0 1 -1
3003 1003 3 2 2.36736574741545 14.07904708799398 29.140175147082367 1 1 -1
363 121 2 0.4238 3.441645682661482 14.338948029349742 26.667027160360657 1 1 -1
361 121 1 -0.8476 3.614414900601889 14.159583779416419 27.635520525019732 1 1 -1
362 121 2 0.4238 4.571405700673672 13.897750974855901 27.760468472329983 1 1 -1
3045 1024 5 -1 2.783179749932093 12.30128023953868 23.995414768657508 0 1 -1
3044 1024 4 2 2.827004980480229 13.695835044821786 23.75560145434394 0 1 -1
2562 854 2 0.4238 4.3782286236526655 9.639120160556239 24.285587203539873 1 0 0
2561 854 2 0.4238 4.022765137452545 11.172568625140908 23.85106725447766 1 0 0
3104 1036 4 2 6.696593065956065 13.079222460984413 29.753934193231487 1 1 0
3108 1036 5 -1 5.8966705475037084 11.885449571051199 29.566219838116094 1 1 0
737 246 2 0.4238 4.320093915291463 9.805684992745869 27.90696618729466 1 2 0
919 307 1 -0.8476 2.2769044184201515 11.142758970141193 26.402984793213502 -1 0 -1
920 307 2 0.4238 2.3289424675771544 11.572530721580446 25.50154796514236 -1 0 -1
72 24 2 0.4238 7.294252311793637 9.704963779189454 28.9478304468932 3 0 -1
2460 820 2 0.4238 6.046581686664234 10.85871451084525 26.416707857012558 -1 -1 -1
1696 566 1 -0.8476 1.1542363759428982 13.003244677738724 27.97744123363697 1 1 -1
829 277 1 -0.8476 3.3069429967171837 12.428157898351566 29.806894549838223 1 1 -1
2987 996 2 0.4238 3.7681014672764714 8.483079166510553 26.240694601436246 1 0 -3
71 24 2 0.4238 6.817391368316056 8.166951944642419 28.676260928930112 3 0 -1
1394 465 2 0.4238 7.273608559715556 10.938931885707852 24.502179732572326 1 0 0
2666 889 2 0.4238 15.20430060179457 3.7481524007068283 27.58610359726451 -2 0 -4
2412 804 2 0.4238 8.187163767469881 8.678738823556401 30.624301080871714 2 1 -2
1055 352 2 0.4238 8.434234310060548 8.831068864542337 26.039241357918858 -3 1 -5
1315 439 1 -0.8476 15.192281121017377 6.6767098797494855 25.50731174923454 0 -3 -1
1454 485 2 0.4238 10.34801715708825 11.266755414094481 23.849724001833255 1 1 -1
1918 640 1 -0.8476 0.7073271389110134 7.754588245878024 23.527985045950885 -3 0 1
1738 580 1 -0.8476 12.564312474512201 9.491456915101928 24.871573193500826 1 -1 3
1157 386 2 0.4238 15.366312376407565 10.409968107027474 29.6376180495614 -1 1 1
403 135 1 -0.8476 12.12493154068912 12.279463279511871 29.889437028322682 2 0 0
1027 343 1 -0.8476 8.460209016222507 14.845204888522993 24.17539290956605 1 1 -1
1740 580 2 0.4238 13.060495614657915 10.262955533752057 25.269808959876407 1 -1 3
1516 506 1 -0.8476 11.328641884047741 7.415989147454674 30.221622310564342 1 0 -3
1790 597 2 0.4238 9.846377654532445 11.87816839454932 26.991287990736218 1 0 0
234 78 2 0.4238 13.44105887125378 11.551867554475603 28.869943985164145 1 1 -3
3050 1025 5 -1 12.881290550592794 14.230676969906487 25.84223256134103 1 1 0
1407 469 2 0.4238 13.652975138910845 14.40590434794842 28.954812372189604 0 0 0
1051 351 1 -0.8476 11.515951731595786 9.66583304272702 28.91779502376766 0 -1 -2
863 288 2 0.4238 5.7344941960824665 8.746682560225276 30.66585559424809 0 0 0
2049 683 2 0.4238 13.17250110629715 12.464086183623449 25.75917351597344 1 0 1
1406 469 2 0.4238 14.679456168972797 13.898988877704745 30.119286346443154 0 0 0
2739 913 2 0.4238 9.102204655096838 7.678204885741357 28.421245823497035 1 2 1
1518 506 2 0.4238 11.474374936441128 8.277993480398036 29.736122183023664 1 0 -3
2082 694 2 0.4238 10.684962517428797 9.326047642774116 24.490274630537787 -1 0 0
1455 485 2 0.4238 10.366116641941762 12.48602874649902 24.935850577635684 1 1 -1
3051 1025 5 -1 10.924692009017381 13.077625118198478 26.581105745849488 1 1 0
1931 644 2 0.4238 14.54563918322679 14.661875013864323 26.685601577000867 0 0 0
189 63 2 0.4238 9.193093044572654 12.139064495115313 30.473041148539426 1 1 0
1029 343 2 0.4238 8.631394768104462 13.862200927181462 24.109070867282572 1 1 -1
468 156 2 0.4238 10.956199245282173 14.975045062370292 29.1636404836313 0 0 -1
3053 1025 5 -1 12.276162911860208 14.272936643205798 28.161458672179133 1 1 0
1405 469 1 -0.8476 14.609935753617446 14.376773405255257 29.243564496295278 0 0 0
3049 1025 4 2 11.766407993436 14.263243254887554 26.826512472852016 1 1 0
2055 685 2 0.4238 14.020340370115774 9.192247909300521 27.902257858006774 -2 -1 1
466 156 1 -0.8476 10.151002408503787 14.952987883759615 29.756237766642283 0 0 -1
2204 735 2 0.4238 9.198807959315264 14.23945219825524 26.53876922740353 1 1 -1
2203 735 1 -0.8476 8.251893277060653 14.371448417015154 26.831906858181608 1 1 -1
2047 683 1 -0.8476 13.63690997687588 11.58090436482324 25.824856520814073 1 0 1
232 78 1 -0.8476 14.16333130996118 10.943549447928275 28.54089748871127 1 1 -3
2738 913 2 0.4238 9.905702761893638 6.38763007877304 29.0174288630477 1 2 1
405 135 2 0.4238 12.174669848576762 13.072280920396972 29.282011049380777 2 0 0
1053 351 2 0.4238 11.285270954090812 10.022232366456993 28.01238556357592 0 -1 -2
1056 352 2 0.4238 9.008390113647877 9.829229956694153 27.19710395768624 -3 1 -5
2048 683 2 0.4238 14.51423227103378 11.629323025024714 25.34740366279173 1 0 1
1054 352 1 -0.8476 8.924209331433858 8.875076922388422 26.909866233822576 -3 1 -5
233 78 2 0.4238 14.25637194422421 11.042018553052355 27.550116373418682 1 1 -3
2054 685 2 0.4238 13.725165694551716 7.703204585214946 27.30038715454035 -2 -1 1
1052 351 2 0.4238 11.908349021331972 10.398218220374702 29.474245515203343 0 -1 -2
2737 913 1 -0.8476 9.0128205619367 6.729424467739719 28.724275854737254 1 2 1
1791 597 2 0.4238 8.770344509816075 11.983146857668379 28.215117493790917 1 0 0
2205 735 2 0.4238 8.117287280289741 13.944809778039058 27.726256223618158 1 1 -1
1453 485 1 -0.8476 10.09838293910747 12.221859936127991 24.009279878355162 1 1 -1
3107 1036 5 -1 8.070023400211456 12.849699804393417 29.27361330084581 1 1 0
2053 685 1 -0.8476 14.365185413030119 8.47156293029267 27.30084696723664 -2 -1 1
467 156 2 0.4238 9.525323235610223 14.239009084862161 29.441977025352006 0 0 -1
1789 597 1 -0.8476 9.097494306672225 11.411983390419605 27.462292465006566 1 0 0
1149 383 2 0.4238 12.340839701303778 0.15036042398587213 25.42244880945248 0 2 -1
192 64 2 0.4238 10.719649275181935 0.5979512228457905 26.669960514600795 1 4 1
1612 538 1 -0.8476 5.398269144949034 3.875687635246573 30.711020648147656 3 0 2
1614 538 2 0.4238 6.267699287098745 4.261588551706959 30.40252151047611 3 0 2
2665 889 1 -0.8476 14.93605186987068 2.8346137007572643 27.280342761353833 -2 0 -4
938 313 2 0.4238 9.237311764664971 2.1974086684720264 30.894727621412972 0 3 -1
1388 463 2 0.4238 3.8990431910178542 15.194253635277109 30.962988361167124 1 1 -1
1620 540 2 0.4238 0.0821937141816278 14.135066564251117 23.80186806003382 2 0 2
1919 640 2 0.4238 1.114993637504434 8.634124145872455 23.28257619748455 -3 0 1
442 148 1 -0.8476 2.3517008864621562 16.245287473802456 2.9935489158385895 1 1 -1
1671 557 2 0.4238 5.878679489420966 17.005656970009543 2.054555073359009 -1 -2 -2
1810 604 1 -0.8476 15.426516677994274 24.763485589045555 7.454465737728449 -1 -1 1
2749 917 1 -0.8476 14.375822349555984 16.112232605325282 2.976995381704937 0 2 0
1892 631 2 0.4238 0.5857992314323839 22.887681371521982 2.462931127618072 1 -1 -1
1669 557 1 -0.8476 6.539549454674611 17.73544352003635 1.8794481550891031 -1 -2 -2
391 131 1 -0.8476 4.301104151773437 17.07550839824373 6.878947733262373 0 1 0
68 23 2 0.4238 7.329769830052847 18.630039287928085 3.0934392531246258 1 -1 -1
443 148 2 0.4238 1.455457169796993 16.68430985954115 2.9302429842193156 1 1 -1
1823 608 2 0.4238 3.7000372075085504 19.01460482933245 2.2372134320552015 1 4 -1
1824 608 2 0.4238 2.7098491641347 17.916468645278176 2.9302149282637457 1 4 -1
1822 608 1 -0.8476 3.0170483970182294 18.867847652385276 2.9527475650305406 1 4 -1
1670 557 2 0.4238 6.103210434987063 18.458953825787912 1.3445265674430147 -1 -2 -2
2831 944 2 0.4238 2.6339477315586772 20.42812589995003 3.8999185448535796 -1 -2 2
2830 944 1 -0.8476 2.5735329682778074 21.393182541763423 4.154899652209928 -1 -2 2
2832 944 2 0.4238 3.492501382487861 21.785450797475256 4.195182016583337 -1 -2 2
988 330 1 -0.8476 4.950958156076241 22.512983161297083 4.5985719622245105 0 0 2
122 41 2 0.4238 7.911219212567133 21.940140716037284 3.683888134282997 0 1 2
2884 962 1 -0.8476 5.022110302647217 21.726682009121713 7.154506658406915 2 1 2
2865 955 2 0.4238 2.6662781250914906 22.485141035325796 1.3165890434664003 -1 1 1
2009 670 2 0.4238 1.328237094638767 20.15277223773798 5.628192311107902 2 0 1
990 330 2 0.4238 5.697584044493949 22.109855021402232 4.069386402767945 0 0 2
2863 955 1 -0.8476 2.4240755287096225 22.98129352594925 2.150357808130338 -1 1 1
2837 946 2 0.4238 4.048445865567413 30.833412792590327 1.1825944020662222 -1 1 1
1202 401 2 0.4238 6.331861759626429 19.159830405171704 5.702082620042744 -4 -1 1
2886 962 2 0.4238 5.100553248643757 22.099440590415224 6.229898998751014 2 1 2
1201 401 1 -0.8476 5.967016776952029 19.108059416608782 6.6317106834681105 -4 -1 1
1203 401 2 0.4238 5.629147051482788 20.007859589373584 6.9077631455113355 -4 -1 1
572 191 2 0.4238 2.7173333340785595 26.900842573000862 7.309813647928284 0 -2 2
1597 533 1 -0.8476 0.18255233965664652 17.102461040115134 5.8039264670996005 0 1 0
123 41 2 0.4238 7.35468686026612 20.40891584363771 3.79456122920598 0 1 2
121 41 1 -0.8476 7.100670405218199 21.358832491746288 3.6125340713651624 0 1 2
2662 888 1 -0.8476 4.8543849905830445 19.477925951373585 0.6021122848312676 3 -1 -1
2673 891 2 0.4238 0.41650006081658353 21.350581352406756 0.25043290825005987 1 -1 -1
67 23 1 -0.8476 7.786607357169939 18.834412417081875 3.95919391486178 1 -1 -1
431 144 2 0.4238 14.870981708910698 27.584652869688632 2.863614866021929 2 -1 3
2626 876 1 -0.8476 14.162065286831856 23.55300613112202 1.3781062886179003 1 3 -3
2142 714 2 0.4238 1.8158833809782646 22.38970790267776 5.367024776727048 -3 1 0
2390 797 2 0.4238 14.540303071634874 16.25762171040124 5.834466076642905 1 -2 1
416 139 2 0.4238 7.754321852744341 15.999322968444078 1.6994128778318782 0 0 0
2671 891 1 -0.8476 0.8331276219615761 20.4808367654155 0.5149435300222558 1 -1 -1
548 183 2 0.4238 6.675395326260809 22.158920490549892 2.0664461499678377 -1 -1 1
2175 725 2 0.4238 1.4217173043301445 15.970490356792656 5.8340772177759135 0 1 0
989 330 2 0.4238 4.940145779341548 23.503121859405294 4.458900500786756 0 0 2
2342 781 2 0.4238 12.253903422051842 20.26480784242777 0.5342167256264093 -1 -3 2
2140 714 1 -0.8476 1.414919451747167 22.751470036890158 6.208664487086528 -3 1 0
2864 955 2 0.4238 2.4726310521032135 22.36109067713828 2.933295089158244 -1 1 1
2141 714 2 0.4238 1.9378703565133588 22.422788867844538 6.995107020439466 -3 1 0
2216 739 2 0.4238 4.082595594112726 15.681314931737948 3.8370066610879836 0 1 0
2975 992 2 0.4238 14.593019369064702 18.638874160590664 5.5927910233691005 1 -1 0
2663 888 2 0.4238 4.4443627554124365 20.37965113889075 0.7391320682986301 3 -1 -1
1763 588 2 0.4238 11.01672747829417 16.89577560846373 4.66511174291135 1 1 1
547 183 1 -0.8476 6.801276531876037 22.60684918911042 1.1812824561743807 -1 -1 1
69 23 2 0.4238 8.193675036322567 17.998244872473318 4.326780263320183 1 -1 -1
697 233 1 -0.8476 10.796598315958168 20.282367754008245 5.107042291456186 0 0 4
699 233 2 0.4238 10.04539006033658 19.941961456888862 5.672559712748567 0 0 4
2418 806 2 0.4238 12.889488123624716 18.420921699031847 3.9567541577303342 3 1 0
235 79 1 -0.8476 14.400479223089603 17.48269328084236 0.8382935683845916 0 1 1
1764 588 2 0.4238 12.483751565673439 16.943818825749652 5.3807643654343575 1 1 1
237 79 2 0.4238 14.392434062498634 16.84971638730541 1.6124224064845882 0 1 1
1232 411 2 0.4238 8.533676578457444 18.351223608305958 7.467684910205934 4 0 0
1231 411 1 -0.8476 9.450973185176405 18.396346122883756 7.072045097373641 4 0 0
374 125 2 0.4238 9.97959135441431 17.143454816433813 3.0975546644506022 0 0 0
375 125 2 0.4238 10.100453996534066 18.47334764061032 2.1576591024786613 0 0 0
373 125 1 -0.8476 10.008289652241425 17.47760623377792 2.15547226203096 0 0 0
1233 411 2 0.4238 9.514919653132829 17.7579155376008 6.305026892693575 4 0 0
109 37 1 -0.8476 10.798777216034424 20.52561160831889 2.0181985947284744 -2 -1 1
3057 1026 5 -1 9.403420128821981 16.568436019419092 4.945452294396347 0 1 0
549 183 2 0.4238 7.702793038439642 23.038561543978947 1.1513984664705843 -1 -1 1
2416 806 1 -0.8476 13.394492598780614 19.2745395407592 4.084453061865082 3 1 0
2417 806 2 0.4238 13.028681524831061 19.762905919980046 4.876715812460768 3 1 0
236 79 2 0.4238 14.6738724901664 18.391442426616262 1.1536203239449976 0 1 1
1746 582 2 0.4238 14.13288953879685 20.84531522497077 3.8774987100783442 4 -3 -1
698 233 2 0.4238 11.475644408343571 20.72982470547238 5.689003371552718 0 0 4
2470 824 1 -0.8476 13.72353705264268 20.25010845800525 6.7679635673377545 -2 0 1
2974 992 1 -0.8476 15.081619812259673 17.863609781103158 5.993084023292237 1 -1 0
110 37 2 0.4238 11.270595520765488 20.417980548314546 2.8933005356919352 -2 -1 1
1941 647 2 0.4238 14.916196723944342 20.877850820519004 2.1196451269416356 1 5 1
2775 925 2 0.4238 12.552761749860828 17.239938194051454 0.30333039611419405 0 0 0
3011 1011 3 2 9.966801802661879 16.22197080716721 0.6020699569880575 0 0 0
111 37 2 0.4238 10.294394692470942 21.389087708775914 2.015456999050533 -2 -1 1
2750 917 2 0.4238 15.334148457718129 15.83487641212988 2.908551283750893 0 2 0
2472 824 2 0.4238 14.716599527827768 20.35549773727557 6.820116989778126 -2 0 1
2471 824 2 0.4238 13.284454775376288 21.126162887484483 6.9673005816150395 -2 0 1
1762 588 1 -0.8476 11.990740561281495 17.06957308096537 4.519877631051958 1 1 1
815 272 2 0.4238 0.7799451932815249 25.710812830163988 6.771075988539487 3 2 -1
392 131 2 0.4238 5.035969948436855 17.715326144461198 6.653990846816538 0 1 0
2628 876 2 0.4238 15.057469888091575 23.86773680442254 1.063153674649246 1 3 -3
2800 934 1 -0.8476 9.26035642023631 23.184046920389346 3.879195359193744 -3 0 -1
2801 934 2 0.4238 9.590484501935737 23.719284374467072 3.101675776535472 -3 0 -1
2802 934 2 0.4238 9.51993848627957 23.63879766831238 4.731145666934115 -3 0 -1
2627 876 2 0.4238 14.259237010322453 23.108758642921455 2.2687252384854792 1 3 -3
1396 466 1 -0.8476 9.652875032659916 29.782507014230468 0.8127307071656572 1 0 3
2043 681 2 0.4238 12.026437663437411 26.351545552810837 3.616982518179932 0 1 3
3021 1019 5 -1 5.940441294565842 28.532716703141556 0.8271923611718623 0 -1 0
724 242 1 -0.8476 0.3413859532894534 27.758670631646194 1.4928868836825269 -1 -2 2
1381 461 1 -0.8476 13.245660120825171 29.567220994233587 4.277011824814555 0 1 -2
1274 425 2 0.4238 7.464235287678813 26.283492381520063 0.05964612444689368 1 -2 1
1338 446 2 0.4238 3.092259506991843 24.644377518944804 2.1075885051225987 2 4 -1
2751 917 2 0.4238 14.068709619014728 16.01912210214194 3.92410262874027 0 2 0
1383 461 2 0.4238 13.410906277598125 29.994831763278867 3.388280894456633 0 1 -2
1736 579 2 0.4238 4.772470374984685 29.401812778772594 7.436690755610146 -2 1 2
855 285 2 0.4238 12.954368909089018 18.60851799474223 7.492726230003741 -2 3 3
393 131 2 0.4238 3.5337872968382964 17.576572143074436 7.279147682983452 0 1 0
2001 667 2 0.4238 2.2795628533024272 30.2697180080665 0.610445857248886 6 0 -3
1440 480 2 0.4238 3.958453201018221 25.419968696143435 4.174883695916056 -2 -1 0
1438 480 1 -0.8476 4.486878056135183 25.250216060162384 5.006720068150404 -2 -1 0
1439 480 2 0.4238 4.001015042131544 25.63053770868325 5.793672424859782 -2 -1 0
82 28 1 -0.8476 6.739208030721222 28.10829418853201 5.132562075994871 3 0 1
1290 430 2 0.4238 7.118641513601387 27.576096335908545 1.4552005901524345 1 -1 0
288 96 2 0.4238 6.022210180232529 25.211786299878163 5.73942362172149 0 1 1
2131 711 1 -0.8476 1.620951796638322 26.98725123421275 3.8791086601670246 0 0 -2
814 272 1 -0.8476 0.7722237553061057 25.35128331123465 5.8379743618982705 3 2 -1
816 272 2 0.4238 0.8012877878759784 24.35208540479766 5.865520676338355 3 2 -1
1737 579 2 0.4238 4.646222316752245 27.81467818621337 7.073797847859076 -2 1 2
2929 977 1 -0.8476 2.607798888830978 29.209525684622555 5.130981594123671 2 -3 -1
2931 977 2 0.4238 3.321750734105186 29.39404639196083 4.455537443935512 2 -3 -1
2930 977 2 0.4238 2.136577550051515 28.359871915026286 4.894256169849448 2 -3 -1
1658 553 2 0.4238 5.556644747267043 28.675336133567424 3.8510223341886363 0 -3 2
1657 553 1 -0.8476 4.953402339651004 29.202553735932536 3.2525741707525904 0 -3 2
1659 553 2 0.4238 5.032093312717463 28.86149935840775 2.315830010455189 0 -3 2
1336 446 1 -0.8476 3.4438463860810673 25.542785415303705 2.3707421163388065 2 4 -1
1337 446 2 0.4238 3.6654452557230353 26.067769962224947 1.5489848097462873 2 4 -1
2838 946 2 0.4238 3.4713421890910334 30.629878727932937 2.6965797494127264 -1 1 1
500 167 2 0.4238 12.705649818844014 24.09806913009405 0.42273356916603283 -2 1 1
83 28 2 0.4238 6.362350188787774 28.521315218542053 5.961652801387421 3 0 1
807 269 2 0.4238 1.1003828291489488 30.288249525890457 4.962770033294936 0 2 1
2133 711 2 0.4238 1.2120419691336435 26.479637476944525 4.637475970014848 0 0 -2
286 96 1 -0.8476 6.910987860037782 25.534232780875588 6.065157328470728 0 1 1
430 144 1 -0.8476 14.876209815880761 27.226892022346444 3.7974134810908904 2 -1 3
2132 711 2 0.4238 2.3356035048683137 26.43221738659205 3.4534206026003544 0 0 -2
165 55 2 0.4238 6.4586299712508 30.320168841961006 3.511462710526021 2 -3 0
1288 430 1 -0.8476 7.779591893053597 26.852332084036103 1.65346795884256 1 -1 0
84 28 2 0.4238 6.919026601949488 27.13818988772725 5.295543500800269 3 0 1
1735 579 1 -0.8476 5.2838684242788085 28.57279953311244 7.210396744224939 -2 1 2
1122 374 2 0.4238 10.505820017174585 30.399164034487033 7.414673142881528 -1 1 1
725 242 2 0.4238 0.6475508455585842 27.69663203487915 2.4428421424990976 -1 -2 2
2436 812 2 0.4238 8.955778340907617 25.513196567423204 5.82793722939716 1 0 -1
1361 454 2 0.4238 1.106380248617249 17.696362047616585 7.325218801788531 2 1 1
2349 783 2 0.4238 9.215385053015718 24.55702114216942 7.598827805874711 -1 0 0
287 96 2 0.4238 6.933765997226161 25.495956876662973 7.064164881143069 0 1 1
2584 862 1 -0.8476 10.444855115122632 28.69103216462325 4.9073840753597935 0 0 7
1599 533 2 0.4238 0.36407954220695915 18.082116269820375 5.718348425788759 0 1 0
1382 461 2 0.4238 12.261034696963526 29.470361408311224 4.422375934557449 0 1 -2
2586 862 2 0.4238 9.897602446590124 28.589611991873976 5.738184225249562 0 0 7
2585 862 2 0.4238 10.030874622048968 29.384926873152686 4.318205444950779 0 0 7
2689 897 1 -0.8476 4.416666248204006 26.589199283965808 0.05491119527716371 -2 -1 0
2042 681 2 0.4238 11.211757799692919 27.18748188404235 4.758969218127681 0 1 3
1744 582 1 -0.8476 14.355462027346556 21.765865524046216 3.5564851999320575 4 -3 -1
1373 458 2 0.4238 5.792460885774314 23.658423109953805 0.3401070755180059 -1 2 4
2836 946 1 -0.8476 3.2575307590499003 30.96707088960401 1.7797449828380802 -1 1 1
2927 976 2 0.4238 11.144909688421476 30.725597198962554 0.09213787829174694 1 -4 1
1745 582 2 0.4238 14.196093777906427 22.42329822581635 4.292952868398603 4 -3 -1
1289 430 2 0.4238 7.652174709937547 26.53265270005814 2.5923874860923064 1 -1 0
308 103 2 0.4238 14.298286262100516 29.157783692043818 0.8799140950941975 0 0 0
432 144 2 0.4238 14.219136464574959 27.73620102035145 4.3531641938054175 2 -1 3
2885 962 2 0.4238 4.11516369025896 21.933556544336604 7.521455242298293 2 1 2
2824 942 1 -0.8476 9.84003599744177 30.81821089173954 3.3175335870391196 -2 0 -4
507 169 2 0.4238 13.306068838068303 24.69140045225541 5.362445495838688 -1 -2 -2
1073 358 2 0.4238 10.42234209417454 24.16031750124253 0.8339725114489845 2 -3 3
2233 745 1 -0.8476 14.192929007927669 28.712060728491682 6.967640594102665 3 0 1
506 169 2 0.4238 12.945412722330722 23.418493340566894 6.319660809627592 -1 -2 -2
309 103 2 0.4238 14.972615280032239 27.71379990950662 0.5237993626883014 0 0 0
1397 466 2 0.4238 9.584062322940373 28.82900802732725 1.1061664172580397 1 0 3
1398 466 2 0.4238 8.938556831999867 29.976719013566058 0.14039815393019237 1 0 3
2234 745 2 0.4238 13.463713350164321 28.704779564983625 6.283395473107377 3 0 1
2826 942 2 0.4238 9.853510323273897 30.326571262151045 2.4468391838437267 -2 0 -4
307 103 1 -0.8476 14.672312863629854 28.314113308916323 1.2650430999002085 0 0 0
1072 358 1 -0.8476 9.524359160561323 24.269515143129574 1.260238302421129 2 -3 3
1811 604 2 0.4238 14.958788151457288 24.69081624195168 6.573585519318242 -1 -1 1
1971 657 2 0.4238 11.933601025465434 25.969477472574724 1.3550461633525137 2 0 3
1969 657 1 -0.8476 12.170195494733736 26.764949490603236 1.9129421853168753 2 0 3
1970 657 2 0.4238 13.088483282307958 27.07947966002169 1.6724871812584654 2 0 3
505 169 1 -0.8476 13.644766262421436 23.826427784749676 5.7327244661403265 -1 -2 -2
1074 358 2 0.4238 9.194039887200734 25.20097716980299 1.1077012835888633 2 -3 3
2235 745 2 0.4238 15.070926814181059 28.874375750264463 6.517336707245294 3 0 1
2435 812 2 0.4238 10.544959582964623 25.457318898033947 5.4564426528062 1 0 -1
2434 812 1 -0.8476 9.807334449419116 25.005339063698308 5.958065057218173 1 0 -1
2041 681 1 -0.8476 11.728780482821797 26.35225680669267 4.571655058673037 0 1 3
571 191 1 -0.8476 3.623383430888298 26.48026056722261 7.263080788107117 0 -2 2
854 285 2 0.4238 11.350934139478502 18.299383485053877 7.500474129168728 -2 3 3
499 167 1 -0.8476 11.867286456079535 24.579907796232582 0.16782230036254295 -2 1 1
726 242 2 0.4238 1.1156427166807936 28.001155652756328 0.9083121999224415 -1 -2 2
2008 670 1 -0.8476 0.4696793750794082 19.644174738852396 5.563329191209163 2 0 1
1952 651 2 0.4238 0.27308394640065964 16.954391167544962 1.167858297784585 2 2 1
2691 897 2 0.4238 5.040146116111697 27.28269376586721 0.41593498496623493 -2 -1 0
1002 334 2 0.4238 0.13144951532590968 18.740366416241585 2.738522456342926 2 1 -2
2672 891 2 0.4238 1.8069397677770336 20.49507569276809 0.28803533369615514 1 -1 -1
1000 334 1 -0.8476 0.06566437978753943 17.742554160316686 2.731987039650589 2 1 -2
1951 651 1 -0.8476 0.32796007847772246 16.246355050213786 0.46381756699379 2 2 1
2217 739 2 0.4238 5.622609189722514 15.527918141782012 4.358018933280144 0 1 0
1584 528 2 0.4238 2.591493652235696 19.20144640140593 13.044564564237254 1 0 -2
1313 438 2 0.4238 12.781281577754557 30.97113781631987 12.86742086044379 0 -2 1
1583 528 2 0.4238 1.4689371492969918 18.029128157539557 12.865223211180975 1 0 -2
2855 952 2 0.4238 1.1165983419896015 17.251408673585154 14.357663509058977 2 -1 -1
1582 528 1 -0.8476 2.250641121579629 18.483316227255667 12.437845028830843 1 0 -2
2743 915 1 -0.8476 1.1203437850621598 19.994094149169797 9.958871246526954 -1 -1 0
2310 770 2 0.4238 0.6014969355512043 28.149166100915153 7.975007736062442 1 0 -3
1837 613 1 -0.8476 6.894116087840144 17.775370751474547 9.141221110223842 0 3 1
1692 564 2 0.4238 5.1673919544886635 17.830495626010055 14.086824523855132 -1 -1 -2
1471 491 1 -0.8476 2.9540978176863764 20.31159629102525 14.20115472576123 -1 -2 -3
1472 491 2 0.4238 3.2398539955382577 21.11680347103829 13.681554107021967 -1 -2 -3
203 68 2 0.4238 3.0763726113988192 22.038597330229948 9.341373271177273 0 -1 0
1690 564 1 -0.8476 5.004778266976507 16.94793683357318 13.645636225297654 -1 -1 -2
2120 707 2 0.4238 6.251308717512699 16.343766009337774 9.747238591631818 -1 1 1
438 146 2 0.4238 12.752379910589463 21.838939866113968 8.72381177487837 2 -4 2
2179 727 1 -0.8476 3.857349934647411 22.386587057797612 10.764583891968204 2 -1 1
2181 727 2 0.4238 3.4059761117496055 22.452988106519456 11.654444873081895 2 -1 1
2180 727 2 0.4238 4.837005128500639 22.236771220619843 10.898116444921898 2 -1 1
1473 491 2 0.4238 2.2897988188048064 20.582856689290757 14.89766361934374 -1 -2 -3
2650 884 1 -0.8476 2.6173584112711072 16.71275591876295 10.438463815813368 1 1 1
245 82 2 0.4238 8.10128549688717 19.271559874180245 14.405525209692893 -1 0 2
2652 884 2 0.4238 2.401507256926907 17.19270647724753 9.588136475328714 1 1 1
2651 884 2 0.4238 2.8704901988295726 17.37746910387018 11.141373431430303 1 1 1
186 62 2 0.4238 4.390366211183817 19.354335554021205 15.008738514415413 -3 -1 -2
202 68 1 -0.8476 2.613082677424806 21.617369308583985 8.561674950545182 0 -1 0
2065 689 1 -0.8476 2.538582437818328 16.741460391848648 14.930190354251504 -1 -1 1
2745 915 2 0.4238 1.6720007969095627 19.978385842900963 10.792794620545274 -1 -1 0
1360 454 1 -0.8476 1.7339582767891417 18.00703064580761 8.039103588769798 2 1 1
204 68 2 0.4238 2.0620556342081815 20.84542257324765 8.878640690930059 0 -1 0
934 312 1 -0.8476 6.490025132143284 21.67266646369537 11.385410711126267 -1 -1 -1
935 312 2 0.4238 6.317168400249829 20.957691825514246 12.062855262190384 -1 -1 -1
2678 893 2 0.4238 8.029231401231412 16.479479144333038 8.533107181162213 -1 1 -1
1362 454 2 0.4238 1.3107851157605512 18.752970932150042 8.553397664711218 2 1 1
1838 613 2 0.4238 7.439164718142092 18.14766719774207 9.892432921205996 0 3 1
2985 995 2 0.4238 0.1299715191152075 28.58267164582865 11.090540481093457 -2 -1 -1
2433 811 2 0.4238 6.81088071871121 21.439073367376164 9.742223964351279 -1 0 1
45 15 2 0.4238 0.8037927675332495 22.367194788729368 14.877575777855471 3 -3 1
1839 613 2 0.4238 6.568910275864513 18.523435639560144 8.562740009094021 0 3 1
18 6 2 0.4238 13.151688293011164 23.914401144578697 13.934602181623516 4 2 -1
2854 952 1 -0.8476 0.32216055711617725 17.275936795863505 13.750813509282738 2 -1 -1
2398 800 1 -0.8476 3.2020981472424843 22.90669536465139 13.434772343884768 -2 0 -1
2400 800 2 0.4238 2.2411472380547783 23.180641343493537 13.395700466276727 -2 0 -1
96 32 2 0.4238 0.7288782747721367 23.16665786988302 8.224681021504491 2 -1 0
936 312 2 0.4238 7.278292311790705 22.218125903860486 11.670206693724797 -1 -1 -1
1691 564 2 0.4238 5.879996987843131 16.53475405955074 13.394094740443784 -1 -1 -2
2059 687 1 -0.8476 0.5530597505971642 23.354427301418095 13.160411412300581 0 0 0
437 146 2 0.4238 11.568694012271875 22.755690566080215 8.071828500456585 2 -4 2
2089 697 1 -0.8476 12.817017916830746 19.23905389896561 15.172590769112333 0 -2 3
682 228 1 -0.8476 14.513466704970856 16.443333577659065 13.380799091863087 1 2 1
2744 915 2 0.4238 0.1665366230062176 20.18150036847848 10.193671385242776 -1 -1 0
2066 689 2 0.4238 3.369747994311949 16.881137573096595 14.391995181062835 -1 -1 1
780 260 2 0.4238 9.167509097580695 21.419274546129525 9.364439291453753 -1 3 -2
1936 646 1 -0.8476 7.673523693117752 16.14456666146693 12.881655983150312 0 -4 0
27 9 2 0.4238 14.807308775265325 21.589789517027285 9.51290756648095 -1 0 4
1938 646 2 0.4238 8.390617104293783 15.834395564362577 13.50581324244789 0 -4 0
778 260 1 -0.8476 10.02674051762799 21.92492679093494 9.286737394014315 -1 3 -2
1402 468 1 -0.8476 10.822458675563476 21.246054384174034 14.808667846884264 -1 -1 1
2005 669 1 -0.8476 9.936671807458536 15.686639866581546 14.423643231600979 0 0 3
2528 843 2 0.4238 13.072871552647015 19.013416547553064 13.558724837733102 1 -1 0
1025 342 2 0.4238 9.30050681436509 30.857169087769872 15.154527292392398 0 1 1
2421 807 2 0.4238 11.677324547051112 17.841989882680725 9.746377217876594 0 2 -1
246 82 2 0.4238 9.453485034852044 19.965391349463427 13.80821410112025 -1 0 2
1035 345 2 0.4238 12.898027867587105 21.709550732117677 10.961811675989743 -1 -3 0
2315 772 2 0.4238 8.69444081157469 18.9176504276524 11.995259848732893 1 0 -2
2314 772 1 -0.8476 8.578743694353467 18.350464466103688 11.179836105051319 1 0 -2
2316 772 2 0.4238 9.449094843353869 18.28738607802921 10.69146097955685 1 0 -2
1033 345 1 -0.8476 11.975611895715822 21.812097634153307 11.334147239462904 -1 -3 0
244 82 1 -0.8476 8.554308420355149 19.595222325506796 13.574854924810001 -1 0 2
1950 650 2 0.4238 10.895314312560483 15.974285965813959 10.408182758531487 3 0 0
2420 807 2 0.4238 12.02966830547901 18.493236552004056 11.201835293894575 0 2 -1
1034 345 2 0.4238 12.013919765308286 22.35051148019667 12.175957076251834 -1 -3 0
1404 468 2 0.4238 11.096521157458891 22.147427188625244 14.473380297764518 -1 -1 1
2677 893 1 -0.8476 8.551372514086152 15.632355797838281 8.631852632301591 -1 1 -1
25 9 1 -0.8476 14.200821815621602 20.877406805130896 9.866016188096914 -1 0 4
26 9 2 0.4238 14.74714267077346 20.15168899052045 10.28418803928194 -1 0 4
2527 843 1 -0.8476 13.305506966821342 18.670205259222826 12.648732111185266 1 -1 0
2529 843 2 0.4238 13.699447342548638 17.75453814894977 12.728511384714075 1 -1 0
1937 646 2 0.4238 8.08649782684534 16.65179194148353 12.12523310263026 0 -4 0
2432 811 2 0.4238 6.531027382231256 21.642714426719813 8.146341929113403 -1 0 1
2419 807 1 -0.8476 11.50334361228671 17.78618333690865 10.72954405296069 0 2 -1
779 260 2 0.4238 10.699912317514652 21.536950776354562 9.916272819577868 -1 3 -2
1908 636 2 0.4238 14.736052130721793 19.545521644230234 12.72592157864651 -1 -1 -2
433 145 1 -0.8476 3.77528735376468 30.756728284807075 7.897433357219825 2 -1 1
1812 604 2 0.4238 14.97572311491304 25.458252679083426 8.01489777765302 -1 -1 1
1403 468 2 0.4238 11.429477651776123 20.549446392294083 14.426220510766807 -1 -1 1
94 32 1 -0.8476 0.34992993532895533 23.89690391533678 8.793134087856654 2 -1 0
708 236 2 0.4238 15.481449987086652 25.992511785860163 11.690042861538688 0 0 0
2431 811 1 -0.8476 7.204154489566836 21.353157002022694 8.826824937027896 -1 0 1
1647 549 2 0.4238 15.012754845954616 25.38610300990937 13.944490178379963 0 -1 0
62 21 2 0.4238 12.44829053372822 16.44204890899534 8.09712000743295 1 -3 0
269 90 2 0.4238 9.686569943652987 25.23067170287627 9.92805761964697 2 -2 1
2202 734 2 0.4238 9.500577995641667 22.600355026351842 11.444912382245448 1 -1 1
1896 632 2 0.4238 13.672592512538014 29.966532991427634 8.06085069078959 0 -1 -1
2007 669 2 0.4238 10.728057721249616 16.114903710047404 13.987411101481344 0 0 3
2060 687 2 0.4238 0.05884839997261082 24.215496396460345 13.280059154259343 0 0 0
2152 718 1 -0.8476 8.361524068114413 26.894524843958692 13.72798846385792 2 -2 0
1314 438 2 0.4238 14.258882565702594 30.660558216873948 12.24543838912278 0 -2 1
975 325 2 0.4238 10.27778319735394 25.100955240520246 15.416116872277408 -1 0 -1
684 228 2 0.4238 15.258819430999099 16.44585243057095 14.047464640613162 1 2 1
435 145 2 0.4238 2.8368954862785345 30.6635909499038 8.230218723727699 2 -1 1
2309 770 2 0.4238 1.5245759267156975 27.16233795764673 8.891916419544545 1 0 -3
2552 851 2 0.4238 6.212469197678739 29.432438966382662 8.538467463836259 0 0 0
1963 655 1 -0.8476 1.5646794224205458 25.60990114600883 10.527751034226526 1 1 -2
1964 655 2 0.4238 1.540544457969382 26.042844828236092 11.428848936412354 1 1 -2
2178 726 2 0.4238 3.554460535147613 25.84538344532515 12.998663239881708 0 -1 -1
2308 770 1 -0.8476 1.1582356732172483 27.31847812135369 7.974629317043612 1 0 -3
2994 998 2 0.4238 6.944989719637079 25.838926837681957 9.739839933923973 -1 0 0
1235 412 2 0.4238 5.608226095083883 30.61429592955413 12.269791252537459 -1 -1 1
1358 453 2 0.4238 5.0056227220762315 24.992025504925447 9.32157079783246 3 -1 4
2176 726 1 -0.8476 4.315048221656841 25.264546005954838 13.28872426274632 0 -1 -1
1209 403 2 0.4238 7.795543379149567 22.41151840828732 14.39120135073653 1 -1 2
1357 453 1 -0.8476 4.036590255448737 24.98017730682169 9.568219791450781 3 -1 4
2399 800 2 0.4238 3.779122992557248 23.721680865091557 13.48807017066413 -2 0 -1
2983 995 1 -0.8476 1.04186540781287 28.766186043750352 10.72342741268073 -2 -1 -1
2984 995 2 0.4238 1.065857149527975 29.687656453320272 10.335720793484615 -2 -1 -1
1965 655 2 0.4238 2.5107368952282445 25.55861431435944 10.207835401046868 1 1 -2
912 304 2 0.4238 2.3671365067861028 27.598624949023456 13.708579688178505 0 -1 0
911 304 2 0.4238 2.1732647318767833 27.939196484146425 12.123319159890547 0 -1 0
910 304 1 -0.8476 2.729095253631695 27.44210843551212 12.78961916003836 0 -1 0
2353 785 1 -0.8476 5.635464544013764 28.68925462018094 12.435475506499005 1 2 1
1359 453 2 0.4238 3.7714292800523106 24.053124644614343 9.833291522237305 3 -1 4
2355 785 2 0.4238 4.664120025741891 28.453298358557763 12.40692768047699 1 2 1
2354 785 2 0.4238 5.984735151919442 28.551896486986987 13.362375630987 1 2 1
2553 851 2 0.4238 6.870639763856615 28.70213332842796 9.842343020800909 0 0 0
2551 851 1 -0.8476 6.8968113346224165 29.516620973641338 9.26275271781386 0 0 0
2992 998 1 -0.8476 6.639039485906698 25.07823658283276 9.167349966309237 -1 0 0
2177 726 2 0.4238 5.180668102346532 25.71391591222867 13.067886710500398 0 -1 -1
1458 486 2 0.4238 6.841434892786325 27.62823625472297 11.620694562623154 0 -2 5
1456 486 1 -0.8476 7.329548756158637 27.13682208065147 10.899405660062953 0 -2 5
2993 998 2 0.4238 7.4337311691742896 24.568557588085394 8.83766487916488 -1 0 0
95 32 2 0.4238 1.0912553061975057 24.481734678421823 9.122390684648943 2 -1 0
1894 632 1 -0.8476 13.282849832254799 30.780911606411745 8.490838087773776 0 -1 -1
573 191 2 0.4238 3.727390813654783 25.82835453661024 8.014213847088877 0 -2 2
796 266 1 -0.8476 1.630727197328884 27.807796639575574 15.346816917326915 3 1 -2
2117 706 2 0.4238 3.65344610902395 25.796586538357783 15.23345316835917 0 2 0
205 69 1 -0.8476 6.136943132339857 27.745863134868184 15.006690759434528 2 -2 2
1312 438 1 -0.8476 13.736939843710468 30.778575729981004 13.090215627120678 0 -2 1
103 35 1 -0.8476 9.070355891993177 30.737274845511557 10.300929426915488 -1 -1 1
1207 403 1 -0.8476 7.828794193912679 23.409163851268087 14.451184844581325 1 -1 2
17 6 2 0.4238 12.067689775309995 24.30267520804846 12.776665831825676 4 2 -1
2207 736 2 0.4238 14.05962145327855 27.764991083401082 8.374962434465566 -1 3 1
370 124 1 -0.8476 9.839241555078514 29.11772545865199 12.736159335505958 5 3 -2
104 35 2 0.4238 8.303086337429967 30.205848694317652 9.941925685500202 -1 -1 1
2154 718 2 0.4238 7.547787253484123 27.10453469882423 14.269956496814219 2 -2 0
1208 403 2 0.4238 8.146023782074485 23.78504015316452 13.580505393390172 1 -1 2
270 90 2 0.4238 10.728938113483299 25.713482157157006 11.088656221935251 2 -2 1
99 33 2 0.4238 14.81286785589901 28.282345494476306 14.903729278565674 2 0 0
853 285 1 -0.8476 12.222885656283914 18.100972072092127 7.948061307140723 -2 3 3
1974 658 2 0.4238 11.615778479423774 26.558567715914926 13.942621118316168 -2 0 -1
2208 736 2 0.4238 15.126418021675292 27.462012932468973 9.573618197243016 -1 3 1
541 181 1 -0.8476 15.184688601055983 30.754966217675527 10.545169719732984 2 -2 1
683 228 2 0.4238 13.814877959451298 15.786393886425415 13.66435429578226 1 2 1
974 325 2 0.4238 9.654182316516732 26.144802559538505 14.326102684259292 -1 0 -1
371 124 2 0.4238 10.688542511489024 28.593591861574584 12.673133027933886 5 3 -2
2200 734 1 -0.8476 8.77295188922828 23.14337004318615 11.864072367504152 1 -1 1
97 33 1 -0.8476 13.882793809509037 28.63533301477162 14.801935611184605 2 0 0
826 276 1 -0.8476 12.360062179301702 25.70341062087622 10.862069696165829 0 2 1
268 90 1 -0.8476 9.764294063152573 25.648577565371625 10.833217080389849 2 -2 1
2206 736 1 -0.8476 14.292976054423288 27.142990445275053 9.12239855231756 -1 3 1
199 67 1 -0.8476 9.615040382628512 28.927976222758513 7.9337292786369895 -2 -1 0
973 325 1 -0.8476 10.459058746471815 25.92319380587796 14.876614484637681 -1 0 -1
1645 549 1 -0.8476 14.491287188946332 24.65562304388699 14.385478336135716 0 -1 0
201 67 2 0.4238 8.687897940909235 29.283795455388674 8.051201962433618 -2 -1 0
2347 783 1 -0.8476 9.051540472183738 24.374777828653322 8.568333986884197 -1 0 0
2348 783 2 0.4238 9.415626157288875 23.47379934270365 8.804298793366625 -1 0 0
1646 549 2 0.4238 14.421926428086595 24.84063872070215 15.365763328624173 0 -1 0
828 276 2 0.4238 13.130675002655838 25.961255498320874 10.279255380825674 0 2 1
1972 658 1 -0.8476 12.081251051235697 27.245586425840475 13.384642073513394 -2 0 -1
98 33 2 0.4238 13.908851904190671 29.50725253566982 14.312980568946275 2 0 0
16 6 1 -0.8476 12.30701086929262 23.63272064107931 13.479436159849675 4 2 -1
2201 734 2 0.4238 8.950199038531652 24.115097637586747 11.708092053851946 1 -1 1
372 124 2 0.4238 9.614816700452563 29.497897092270716 11.838883871526743 5 3 -2
1457 486 2 0.4238 8.16997026303943 26.744528530120366 11.273301601737499 0 -2 5
200 67 2 0.4238 9.787348624740368 28.21559977107426 8.614045192268756 -2 -1 0
827 276 2 0.4238 12.423715568771286 26.189969299312736 11.733396055350385 0 2 1
2153 718 2 0.4238 8.871404868215825 27.736625286503084 13.552234479330131 2 -2 0
1973 658 2 0.4238 12.793213252991555 27.689969734103784 13.928363773181879 -2 0 -1
1026 342 2 0.4238 10.284359111466172 30.509446173155222 13.89844217329811 0 1 1
436 146 1 -0.8476 12.451867554634157 22.319314495420414 7.899837673746299 2 -4 2
1341 447 2 0.4238 0.736541639266663 16.090082371266064 10.756262408079243 4 -3 0
2006 669 2 0.4238 10.00289306524694 15.796205176221415 15.415414609864193 0 0 3
2121 707 2 0.4238 5.226950097182602 15.836869651809204 10.913588374715562 -1 1 1
1487 496 2 0.4238 12.22314990791469 30.733623918807194 10.371852847808421 1 0 -1
2119 707 1 -0.8476 5.604739254200133 15.628155137258808 10.01152774832343 -1 1 1
206 69 2 0.4238 5.505259550320608 28.35287568268245 15.488885956492592 2 -2 2
207 69 2 0.4238 6.173508977836609 26.86295222456102 15.474806453753255 2 -2 2
2501 834 2 0.4238 7.112568996464119 17.64282159417034 19.28634014391785 -1 0 1
2500 834 1 -0.8476 6.151143398117808 17.370381804041475 19.324252925582044 -1 0 1
839 280 2 0.4238 2.8001836150736996 17.579845740798884 19.571634546639775 1 2 -1
2502 834 2 0.4238 5.973187070039423 16.89482999299734 20.185753134646976 -1 0 1
838 280 1 -0.8476 2.519609539207028 17.571674180743074 20.53143226724605 1 2 -1
840 280 2 0.4238 3.311396464132808 17.762097144311042 21.111787834804577 1 2 -1
2380 794 1 -0.8476 3.7848066578201083 17.38279093454738 17.655460341158904 -1 -2 1
767 256 2 0.4238 5.002939567924452 16.774495897988974 21.92880494720507 2 1 0
2382 794 2 0.4238 4.629499862751012 17.510460589974134 18.17526196592584 -1 -2 1
263 88 2 0.4238 5.25887882577861 20.464678524697646 21.462623799982527 0 -1 0
2381 794 2 0.4238 3.8067290201923103 16.494454653726027 17.196790468768576 -1 -2 1
262 88 1 -0.8476 5.436349445777882 19.517166644023284 21.196679541315262 0 -1 0
147 49 2 0.4238 3.7188999742904056 21.92731193010872 21.827003167303594 1 0 2
1879 627 1 -0.8476 4.083648102264173 22.89673385840013 17.255965468433104 1 1 0
1880 627 2 0.4238 3.2376809395570043 22.54258268056462 17.65460938937112 1 1 0
1881 627 2 0.4238 3.8661922098677537 23.621825148039658 16.602546736824866 1 1 0
264 88 2 0.4238 5.6565969341025815 19.4802301340794 20.22193512208328 0 -1 0
798 266 2 0.4238 0.8866748035931452 28.457488888662873 15.502656491762545 3 1 -2
1011 337 2 0.4238 8.302734119177453 18.22050281259584 21.29738744126615 2 0 -2
557 186 2 0.4238 1.2286536998928586 17.11909280331928 21.365980457893375 0 0 0
1983 661 2 0.4238 5.5128731457641225 20.413267370384435 16.044723257278246 0 -3 -1
2630 877 2 0.4238 9.995549597152305 30.687744099188137 19.102424681482514 1 0 1
131 44 2 0.4238 15.425499773732781 15.86062277557045 17.47898958699199 -1 1 -3
1982 661 2 0.4238 5.464293964899283 21.952703529012854 16.587312339036497 0 -3 -1
1206 402 2 0.4238 0.8474602970232751 22.863485502306954 22.408519504687934 -1 0 1
2091 697 2 0.4238 13.074013829736433 19.92617800439044 15.852159441430667 0 -2 3
1673 558 2 0.4238 13.19462201927261 29.230769249618284 16.22815877154873 0 -1 2
1046 349 2 0.4238 7.480416303989362 16.274534477325236 15.718575322547505 0 -1 0
766 256 1 -0.8476 5.237859435893868 15.904491845045914 21.49532411260378 2 1 0
2487 829 2 0.4238 6.697568212811426 18.9972050634331 22.38380145548251 0 1 0
145 49 1 -0.8476 4.558660388422795 21.829086870295427 22.36100191282069 1 0 2
185 62 2 0.4238 4.344314555416839 18.49021241679503 16.39358377973548 -3 -1 -2
558 186 2 0.4238 0.6704156682930345 16.1330342020908 22.54185682472654 0 0 0
2598 866 2 0.4238 4.072735529074103 30.774298902612 21.539068876774973 -1 -2 2
1665 555 2 0.4238 7.914015119295294 18.95266125821523 16.770603832299454 0 0 -1
1569 523 2 0.4238 0.3698550640229611 21.92408447639486 18.36423022050166 2 4 0
1538 513 2 0.4238 7.626777965490937 22.477774049044836 20.13863090450883 2 -3 1
2661 887 2 0.4238 5.5625498840529435 22.91837508239028 18.237658463883562 2 3 -1
1664 555 2 0.4238 6.608506479613647 18.4604370711049 15.922081877915982 0 0 -1
2659 887 1 -0.8476 6.199354852529106 23.08757075991877 18.989889963192173 2 3 -1
44 15 2 0.4238 0.5961239768388833 22.267169710210506 16.49420658892848 3 -3 1
184 62 1 -0.8476 4.943262332887159 18.88200501687947 15.69518564879279 -3 -1 -2
1663 555 1 -0.8476 7.542703921896735 18.22675305693495 16.19165177642879 0 0 -1
2485 829 1 -0.8476 7.524536358144729 18.788356021970024 22.905822212706553 0 1 0
1780 594 1 -0.8476 4.018381346490481 17.88923826648816 23.189107630181933 -3 1 0
997 333 1 -0.8476 4.519848838000281 27.28717896143371 22.193843073582713 1 -1 -2
1437 479 2 0.4238 9.379545436033073 25.73762521398737 22.941535664713175 0 -2 1
366 122 2 0.4238 10.325088900582687 20.209222013413175 16.22031051460847 -4 1 1
2360 787 2 0.4238 8.78700652424809 16.567635520428226 19.955682613890094 0 -2 -2
1981 661 1 -0.8476 6.015751228748864 21.27587710570603 16.099663592252522 0 -3 -1
1009 337 1 -0.8476 8.762369978154217 18.13738558467158 20.41317798558817 2 0 -2
1010 337 2 0.4238 9.383874376754608 18.910505459126274 20.2866163308936 2 0 -2
159 53 2 0.4238 12.061452075203167 16.904138050733554 16.646605867748708 0 1 0
2442 814 2 0.4238 1.326957864223096 30.279872911314747 23.002955947165557 0 -3 -1
1539 513 2 0.4238 8.274894584029019 22.855613282513872 21.58908214677174 2 -3 1
2067 689 2 0.4238 2.663557919720294 15.958241075810687 15.53924585752366 -1 -1 1
1419 473 2 0.4238 0.7633426588264999 15.95793943178708 20.144897979853123 0 0 -1
2694 898 2 0.4238 9.571576719100868 21.032042561966993 20.817422170710987 2 2 3
556 186 1 -0.8476 0.4071615452729797 16.76490604860448 21.812861008077345 0 0 0
1571 524 2 0.4238 15.040398927662588 18.55308922214859 21.022524085248143 0 -2 -4
364 122 1 -0.8476 10.25083095297908 19.532153904658447 16.952475321004165 -4 1 1
1536 512 2 0.4238 10.167713061623653 17.624253481716444 17.22123148644816 2 -1 0
2514 838 2 0.4238 13.14856096243521 20.260614434900404 18.009932409316512 2 0 -1
2513 838 2 0.4238 14.728250388078388 19.94977616886615 17.73682587388744 2 0 -1
2367 789 2 0.4238 4.768824007338514 30.888714196099862 16.148363637127474 3 -2 -3
2612 871 2 0.4238 11.10821569774565 16.62557717962878 22.089477332874235 0 4 -3
2611 871 1 -0.8476 10.845964763335454 16.012279560994887 22.834521544159912 0 4 -3
871 291 1 -0.8476 13.381908037472323 17.888764330710583 20.36255777875745 0 -2 -1
873 291 2 0.4238 12.984112690897941 16.9832742770384 20.214752575986108 0 -2 -1
115 39 1 -0.8476 12.119420556930656 19.944406512796427 19.22543634178389 -1 -3 1
117 39 2 0.4238 11.391817289503805 20.235697189825125 19.846518487659683 -1 -3 1
2512 838 1 -0.8476 13.915801116566875 20.41686837660255 17.387897626093316 2 0 -1
872 291 2 0.4238 13.328153427330793 18.1219942904177 21.333492405130986 0 -2 -1
1534 512 1 -0.8476 10.315198396344742 16.64414566447692 17.354034567854857 2 -1 0
365 122 2 0.4238 11.005079068879436 19.65468914764974 17.59752975444318 -4 1 1
116 39 2 0.4238 12.677553996686736 19.244395761323798 19.670938224712113 -1 -3 1
2668 890 1 -0.8476 14.994174855552922 22.936706443060515 20.703258131965722 -1 -1 -2
2693 898 2 0.4238 10.596463206846018 20.711548797227714 22.04767328761726 2 2 3
797 266 2 0.4238 2.150691283298002 27.687400912360005 16.192477705783478 3 1 -2
2692 898 1 -0.8476 10.284148768752576 20.412191252363716 21.146094316065962 2 2 3
1537 513 1 -0.8476 8.399006654968813 22.31968138883773 20.753993237832393 2 -3 1
2670 890 2 0.4238 15.245244791302923 22.617911700312778 19.789292028502498 -1 -1 -2
1535 512 2 0.4238 9.736493121710264 16.318284243183232 18.101640396811103 2 -1 0
1572 524 2 0.4238 15.204685474760684 19.8556235741834 21.993627183887853 0 -2 -4
1408 470 1 -0.8476 10.154014065911943 24.168005050410844 19.03685405704673 1 1 -1
1287 429 2 0.4238 13.423326526072191 23.39373661619524 20.27310467024172 1 -2 1
157 53 1 -0.8476 12.981930672012878 16.803830787829366 16.268905713967115 0 1 0
158 53 2 0.4238 13.52896808569321 16.22473024909749 16.873382726894633 0 1 0
764 255 2 0.4238 14.56313408079955 22.071785169105937 17.64683735615865 0 -2 1
1935 645 2 0.4238 7.440784196472055 25.280140266876348 22.89045243026556 2 -1 2
1933 645 1 -0.8476 7.775568862920504 26.21713739572796 22.990236790456176 2 -1 2
39 13 2 0.4238 12.563190341574082 29.36483304720421 19.66550167938749 -2 0 -1
1443 481 2 0.4238 15.104892890929003 29.806773151415705 20.058155748737175 -2 0 2
508 170 1 -0.8476 10.601592513059499 27.92204253659886 17.065441139977754 0 -1 -1
2268 756 2 0.4238 1.57288055517646 22.759423111512113 20.269169585314692 2 2 0
2266 756 1 -0.8476 1.7778024682570643 22.65295228767687 19.296199482906967 2 2 0
2267 756 2 0.4238 1.840442306036492 23.554538768084758 18.86815984174528 2 2 0
1204 402 1 -0.8476 1.7449158639432316 23.248918685571226 22.1940091598759 -1 0 1
1806 602 2 0.4238 11.618147516221992 27.306419507080975 20.937148729403173 0 0 1
465 155 2 0.4238 9.97050271151632 28.780992067902478 20.33266992786041 0 -2 0
1205 402 2 0.4238 2.012079349166517 23.891361915563746 22.912264159462396 -1 0 1
846 282 2 0.4238 0.07955868334324409 25.18031984104466 17.57348872885995 0 1 -1
1168 390 1 -0.8476 8.312850192829103 28.59129188440809 21.197615044596034 2 1 -2
1435 479 1 -0.8476 10.283609975321106 25.32777360433763 23.062733450459106 0 -2 1
266 89 2 0.4238 5.751485664697934 28.96098425649205 19.190402338203707 -2 1 -3
2359 787 1 -0.8476 8.848526229567856 15.696453226233357 19.46859279276733 0 -2 -2
2440 814 1 -0.8476 1.1035375076697955 30.319219053379378 22.02902820982441 0 -3 -1
2660 887 2 0.4238 5.814345404505137 23.776552595582295 19.603951564628822 2 3 -1
776 259 2 0.4238 2.120956220623921 29.823742579413906 17.480546661561227 2 0 0
777 259 2 0.4238 3.6885913252749005 29.57320056194176 17.097956289025042 2 0 0
775 259 1 -0.8476 2.8814338387406755 29.176691426156744 17.535309001812738 2 0 0
384 128 2 0.4238 2.6013826562889797 27.729045049741362 18.63158381922857 3 0 3
383 128 2 0.4238 2.410404368673554 27.458999945155853 20.2307175760601 3 0 3
382 128 1 -0.8476 2.623337242939561 27.034490380952633 19.3506885734724 3 0 3
419 140 2 0.4238 0.7881763472110995 28.42101085062579 21.726922010574505 1 2 3
1607 536 2 0.4238 2.356411277427637 25.061299896900675 17.26258635361191 0 0 2
418 140 1 -0.8476 0.5227595186881695 27.462308815676856 21.829119239890552 1 2 3
1245 415 2 0.4238 5.023281703430284 25.93903236158943 21.233911130937216 0 -2 -2
1244 415 2 0.4238 4.0587642471492815 25.85711796413833 19.918760046234922 0 -2 -2
2597 866 2 0.4238 4.037204049502604 30.098600386568194 20.05286708221558 -1 -2 2
2596 866 1 -0.8476 3.599757864157446 30.11737884116512 20.951916021758848 -1 -2 2
2116 706 1 -0.8476 3.6941148279946368 25.489812680098595 16.184366618944942 0 2 0
420 140 2 0.4238 0.6051244490036105 27.194154224377545 22.78896772372345 1 2 3
2118 706 2 0.4238 4.647425394748733 25.336892611847574 16.444780168997866 0 2 0
1243 415 1 -0.8476 4.929431854663334 25.562187196874547 20.312401537932143 0 -2 -2
1782 594 2 0.4238 4.047775953324904 18.863066603454282 22.963731684555093 -3 1 0
2366 789 2 0.4238 6.335514879605259 30.441454472185622 16.03852457303154 3 -2 -3
1684 562 1 -0.8476 6.773428470770576 25.22320072201771 16.16960033033165 2 0 1
998 333 2 0.4238 4.096638931446934 27.34661527497551 23.097922903490055 1 -1 -2
801 267 2 0.4238 13.092605581040822 24.518674104332057 22.86987313714709 1 -1 -1
1685 562 2 0.4238 7.186374345453862 24.462307233321855 15.669083905782768 2 0 1
1606 536 1 -0.8476 1.705917638029255 25.005282526294458 18.020029463274053 0 0 2
1608 536 2 0.4238 1.9799847598053824 25.64015671410835 18.74240194636755 0 0 2
265 89 1 -0.8476 5.478007201300696 29.886746768065848 18.929302445623485 -2 1 -3
1326 442 2 0.4238 6.033702698494742 26.782529628999136 19.442477244284365 0 1 1
2236 746 1 -0.8476 13.461187002099997 24.963062687536922 17.072674230831772 2 -2 2
267 89 2 0.4238 5.489299247509638 29.969061848021546 17.932760122156985 -2 1 -3
1686 562 2 0.4238 7.342776967496878 25.450565421444733 16.959630437255505 2 0 1
1170 390 2 0.4238 7.668310381494533 28.323655778159324 20.481417397681703 2 1 -2
1324 442 1 -0.8476 6.704757345825964 27.5180636154344 19.349335120542538 0 1 1
1325 442 2 0.4238 7.566965246835919 27.141668907285933 19.01032983336096 0 1 1
2365 789 1 -0.8476 5.404248542692004 30.118844875904305 16.207834696911156 3 -2 -3
2441 814 2 0.4238 1.9321326424829959 30.515276705675777 21.504631875636527 0 -3 -1
999 333 2 0.4238 4.449387459949503 28.172372737120785 21.7339876323439 1 -1 -2
1410 470 2 0.4238 9.565060812578881 23.507133173524906 19.502022952777676 1 1 -1
510 170 2 0.4238 11.325597559649252 28.608215666239936 17.136037504522903 0 -1 -1
2870 957 2 0.4238 15.452378541546588 26.971692744044955 22.64501281561006 -1 0 -3
2345 782 2 0.4238 9.367932583703027 26.87364108394073 17.74816171400875 -2 1 1
1674 558 2 0.4238 12.096965712942241 30.435906549320553 16.13109679260188 0 -1 2
1436 479 2 0.4238 10.896991678439784 25.65497561292148 22.343914027614673 0 -2 1
1285 429 1 -0.8476 12.651836308279405 23.95019750025206 19.964634162106837 1 -2 1
2344 782 1 -0.8476 8.718938729523682 26.344485768889793 18.29478918302793 -2 1 1
763 255 1 -0.8476 15.01367463102787 22.91916741959336 17.927831374796888 0 -2 1
2198 733 2 0.4238 10.760436188219131 30.223898843681443 21.93816672676205 -2 2 1
509 170 2 0.4238 10.776718850438074 27.33264274544491 16.276809588819706 0 -1 -1
2187 729 2 0.4238 10.155503106190869 22.928132914522593 16.026416473202936 0 -2 3
43 15 1 -0.8476 1.2596044767106815 22.190546662677033 15.74994687768789 3 -3 1
463 155 1 -0.8476 10.79215518470763 29.16856515835513 19.914729400548122 0 -2 0
2186 729 2 0.4238 10.664723691877656 23.7761959240893 17.32568944509039 0 -2 3
2185 729 1 -0.8476 10.696207218055228 23.713364869077697 16.32816157723192 0 -2 3
1689 563 2 0.4238 14.867109622757603 26.367092493759408 20.38427950122662 -3 -2 3
1418 473 2 0.4238 0.3906106162237094 15.600514058721338 18.595722632045746 0 0 -1
1687 563 1 -0.8476 14.181078632249097 26.473750358033662 19.664567164527575 -3 -2 3
1286 429 2 0.4238 12.911151263189009 24.915902927201113 19.97761824934617 1 -2 1
1409 470 2 0.4238 11.075618944164429 24.12234251359094 19.422288139300928 1 1 -1
2346 782 2 0.4238 9.07021649310291 25.417163837574215 18.423931896181287 -2 1 1
38 13 2 0.4238 13.46854892592644 29.6117839926302 18.329100760871945 -2 0 -1
37 13 1 -0.8476 13.485256994011602 29.31009597175092 19.282360995518 -2 0 -1
1805 602 2 0.4238 12.925945648346419 26.95697620747733 21.85048328580748 0 0 1
1804 602 1 -0.8476 12.02940971565527 26.631590335428623 21.549904137172046 0 0 1
2238 746 2 0.4238 12.622268597304974 24.49889895763787 16.78847675275735 2 -2 2
1169 390 2 0.4238 8.451809121607939 27.82462881606031 21.82444660714363 2 1 -2
1672 558 1 -0.8476 12.631074706461318 29.866341104862947 16.75585440773994 0 -1 2
1688 563 2 0.4238 13.979778256753049 27.444971735776996 19.53725773038318 -3 -2 3
765 255 2 0.4238 14.386844576577827 23.687903223384016 17.800824424338398 0 -2 1
2237 746 2 0.4238 13.251900503147303 25.610993901333366 17.805056926994492 2 -2 2
464 155 2 0.4238 10.708929788618075 29.131149399094525 18.91890132779153 0 -2 0
421 141 1 -0.8476 6.7935627649733545 23.751533972877606 22.867160042827532 -1 3 1
422 141 2 0.4238 6.192410070550435 23.070643349164985 22.448826256649127 -1 3 1
399 133 2 0.4238 0.6384528378141884 16.977253079462194 16.837508113390022 1 1 0
2090 697 2 0.4238 13.034938875532525 18.327531891054647 15.521357246743312 0 -2 3
3091 1033 5 -1 4.707377578890096 18.58296319735279 27.246413450988207 0 1 -1
2479 827 1 -0.8476 5.969518622195812 16.009459916065587 26.96667758374904 1 1 -1
2683 895 1 -0.8476 6.318145447448908 16.58412966964249 24.24468430959663 1 1 -1
2481 827 2 0.4238 5.339779234634451 16.76096978791041 27.163302285807664 1 1 -1
2754 918 2 0.4238 2.6761250320652556 17.533640286400107 25.808274298760132 -1 -1 -2
2752 918 1 -0.8476 2.4018474664696194 16.96001736026171 25.036439777041085 -1 -1 -2
2570 857 2 0.4238 4.926226466576144 22.861079297945878 28.678946484115432 -1 -1 -1
3090 1033 5 -1 2.3552780854353967 18.123178755370624 27.620450037375015 0 1 -1
3089 1033 4 2 3.594565643313459 18.597317438472928 28.239647822110616 0 1 -1
956 319 2 0.4238 1.5214576999584544 16.522550256070573 28.44281341693703 1 1 -1
445 149 1 -0.8476 7.153533051921315 19.41139057104728 27.39060728630266 -2 1 -2
2710 904 1 -0.8476 4.590831852709783 20.135452980363397 24.960951201414378 0 0 0
2712 904 2 0.4238 4.51374280527347 19.523370471297085 25.747978693938336 0 0 0
3093 1033 5 -1 3.481870304513172 20.03339046818384 28.747668951955745 0 1 -1
3092 1033 5 -1 3.9547966677007884 17.701683250803416 29.337567898138463 0 1 -1
2723 908 2 0.4238 5.6245593119267205 17.080127908301726 29.965771144492116 -2 1 -1
2109 703 2 0.4238 1.2835857454865525 20.44575114963128 26.182428197185956 -1 -2 -1
2724 908 2 0.4238 6.289645989042362 15.619782493127664 29.662988593607636 -2 1 -1
2722 908 1 -0.8476 6.42398945443333 16.499346578320775 30.11940816530612 -2 1 -1
2108 703 2 0.4238 2.5114521151601905 20.24242029538552 25.125249215010435 -1 -2 -1
2569 857 1 -0.8476 4.2945428474313605 22.53655075587991 27.974917980409735 -1 -1 -1
2571 857 2 0.4238 4.10421746442547 21.56558312566096 28.119824791202 -1 -1 -1
447 149 2 0.4238 6.199949115866291 19.110844938577735 27.371897852923965 -2 1 -2
1389 463 2 0.4238 3.451305892964668 16.304660579055703 29.852513724828718 1 1 -1
386 129 2 0.4238 3.496284579620403 21.213208926956874 30.006096539791134 1 -2 -3
385 129 1 -0.8476 3.53756353423894 21.739529046777267 30.855380375320415 1 -2 -3
2107 703 1 -0.8476 1.5212285379980346 20.177670519184296 25.24880110870942 -1 -2 -1
1022 341 2 0.4238 2.027809915691851 20.797548698173067 28.023251378426384 0 1 0
2341 781 1 -0.8476 12.30363183394601 20.588556484007057 30.575326029443406 -1 -3 1
446 149 2 0.4238 7.31141087174443 19.96875338453107 28.20572764575057 -2 1 -2
1108 370 1 -0.8476 15.010142500050478 20.14144694065003 23.6805903997044 -1 1 -4
387 129 2 0.4238 3.8693179892323295 22.66239738524445 30.659797418583125 1 -2 -3
2711 904 2 0.4238 5.541204207526317 20.429450092256353 24.859176574497045 0 0 0
992 331 2 0.4238 0.8130772288536179 16.80523974594462 25.140355265505892 0 0 -1
1021 341 1 -0.8476 1.0531268396271343 20.998555477977778 27.92532734767992 0 1 0
530 177 2 0.4238 13.78465887217301 18.88921460969001 23.52766912738603 -3 -3 0
2753 918 2 0.4238 2.749567877218746 16.032077166524154 25.170668828064006 -1 -1 -2
1123 375 1 -0.8476 14.169556780334137 15.865080068093373 24.198597445651128 -1 -1 1
1065 355 2 0.4238 15.05787438901142 18.025164407199114 28.194044650712634 0 0 0
146 49 2 0.4238 4.3266540542383725 21.653368950911737 23.317713250350707 1 0 2
179 60 2 0.4238 8.066672968965996 17.835798063092124 26.71148305694103 1 1 -1
2574 858 2 0.4238 8.053058353720022 17.219664226400916 30.379333076847296 0 0 -1
2580 860 2 0.4238 7.326691094121274 21.484766309121127 25.065120048520583 -2 -1 0
2578 860 1 -0.8476 7.626714101166366 20.53108815784859 25.04312766882721 -2 -1 0
2579 860 2 0.4238 7.4630201201442805 20.109520115774718 25.935027019743444 -2 -1 0
955 319 1 -0.8476 1.2587516874271376 15.557772588749522 28.45658377179488 1 1 -1
3008 1008 3 2 7.222478297495836 15.54138008915741 25.618811123352963 1 1 -1
1014 338 2 0.4238 13.09470581663109 30.556997305653972 30.170549213945705 0 1 0
1976 659 2 0.4238 0.6175489777952117 18.291853251174583 27.358234093810843 0 0 -1
2761 921 1 -0.8476 15.345827321457165 26.3021379228519 26.61899217501078 4 1 0
531 177 2 0.4238 12.203652334938575 18.616495465063334 23.832085123149668 -3 -3 0
2484 828 2 0.4238 6.127032242099689 23.884157475594204 25.51089834995168 -2 -1 1
2482 828 1 -0.8476 6.710866241426222 23.129374308144182 25.80996554542089 -2 -1 1
2483 828 2 0.4238 6.583426895045365 22.97756589140491 26.790125688302492 -2 -1 1
1706 569 2 0.4238 13.045359836759497 28.998920738192165 25.93749438717244 2 0 0
1148 383 2 0.4238 11.422562177814356 30.754050865185192 24.127352488834532 0 1 -1
1847 616 2 0.4238 0.4563054158317924 23.809999935672433 25.824094026845554 3 -1 1
729 243 2 0.4238 7.679703418255171 21.829944471478555 29.23884932218039 3 0 -1
2763 921 2 0.4238 14.80267928731994 27.14166797807877 26.63240195584848 4 1 0
727 243 1 -0.8476 7.630212943798393 20.975923862832083 29.756728990213137 3 0 -1
178 60 1 -0.8476 8.260261929751175 17.23599644842897 25.935106209007365 1 1 -1
180 60 2 0.4238 9.083198488076132 17.554688092649258 25.464775593083985 1 1 -1
728 243 2 0.4238 7.1024123577684115 21.12345226905723 30.59318683254732 3 0 -1
2572 858 1 -0.8476 9.009239607264542 17.507035737316 30.43532373194291 0 0 -1
618 206 2 0.4238 8.979629020253075 20.058531894143567 29.34433601830816 0 1 2
616 206 1 -0.8476 9.805728206192835 19.54791613546655 29.10594229971153 0 1 2
617 206 2 0.4238 10.573508547131878 19.882073072441184 29.65261632210969 0 1 2
1830 610 2 0.4238 11.927673078029677 20.301491913248224 26.23163540423799 0 -2 3
1828 610 1 -0.8476 11.32578204034178 19.718789381734496 26.777699033198267 0 -2 3
662 221 2 0.4238 11.622337567374291 18.39221315943989 27.736353012219777 -3 -1 -2
661 221 1 -0.8476 11.7968994467164 17.531182752796102 28.21400823188258 -3 -1 -2
1063 355 1 -0.8476 14.734182337402043 17.092482250811955 28.034898777829074 0 0 0
663 221 2 0.4238 11.425195538624614 16.77217483042919 27.67945892638843 -3 -1 -2
2774 925 2 0.4238 11.725977964434925 17.316083387876404 29.88312556861422 0 0 -1
2325 775 2 0.4238 10.887605100217437 16.822294152311922 25.691517184518304 -1 2 -1
2323 775 1 -0.8476 10.73142512332589 17.692751242007155 25.224706355877725 -1 2 -1
1829 610 2 0.4238 10.593615139404923 20.27348276049879 27.172980895312303 0 -2 3
1264 422 1 -0.8476 13.82648743084189 21.558119598149613 27.78447528166304 1 0 -1
1064 355 2 0.4238 13.738185602453779 17.096018134564737 27.945579385485225 0 0 0
2573 858 2 0.4238 9.150192218314045 18.3105835593265 29.85701315393808 0 0 -1
2324 775 2 0.4238 11.01771947886363 18.445167689965047 25.817922178021796 -1 2 -1
995 332 2 0.4238 9.475726511629494 20.65615487376084 24.15309647501246 1 0 -2
1266 422 2 0.4238 13.356960829136835 20.71488739675764 28.046208786994487 1 0 -1
406 136 1 -0.8476 15.0748508369598 22.470189707844433 25.350927091736644 2 0 -4
1265 422 2 0.4238 14.227224201601135 21.982323761471037 28.596547555007827 1 0 -1
175 59 1 -0.8476 9.662256260506357 23.607575695034704 24.815364113389087 2 -1 3
176 59 2 0.4238 8.666822179365065 23.650196607925952 24.7299565656139 2 -1 3
1023 341 2 0.4238 0.5361375750696173 20.48265406409644 28.608385019111758 0 1 0
1331 444 2 0.4238 9.826758448657198 23.243080772412373 27.935832108609553 1 -2 -1
1330 444 1 -0.8476 10.413698864967234 22.82086488685411 27.245010314727335 1 -2 -1
1125 375 2 0.4238 13.566347401300424 16.6386651678881 24.004421327477065 -1 -1 1
1781 594 2 0.4238 3.235719310226805 17.70843515597182 23.784716888544725 -3 1 0
996 332 2 0.4238 10.167257536658655 22.116325613287753 24.390399382764578 1 0 -2
1332 444 2 0.4238 10.066792780505267 23.040918509052876 26.333290178665436 1 -2 -1
2000 667 2 0.4238 0.8954490139105873 30.754580551213824 30.87822382068179 6 0 -4
407 136 2 0.4238 14.782796147981902 21.76495163931725 25.99694872698185 2 0 -4
1012 338 1 -0.8476 13.927143439895675 30.009230795680804 30.25421159785807 0 1 0
2685 895 2 0.4238 5.372856406140312 16.884757157369283 24.11798862434892 1 1 -1
408 136 2 0.4238 14.32532186277416 23.114648232953556 25.199663804998888 2 0 -4
1109 370 2 0.4238 14.776022529737379 21.109323468124025 23.58892340393716 -1 1 -4
817 273 1 -0.8476 1.4402883203495254 30.416546391011444 27.334007215695298 1 -2 0
2544 848 2 0.4238 13.33425753854456 23.25416850172337 27.148675196742843 -2 0 -3
177 59 2 0.4238 10.072602123142005 24.370772135902687 24.316217453958817 2 -1 3
368 123 2 0.4238 10.660616572762281 29.132433917434206 25.74340054712389 3 -7 2
1275 425 2 0.4238 6.938142282572513 26.923136254558393 29.63821456772188 1 -2 0
1858 620 1 -0.8476 11.989039519102445 26.1848581653671 24.928223340326902 1 0 1
1705 569 1 -0.8476 13.710152030546675 28.675062333354013 26.610671138050133 2 0 0
954 318 2 0.4238 11.662608337029871 26.645979682351136 28.715393958952777 0 -2 -1
1859 620 2 0.4238 11.25826639027987 25.773195089766094 24.38370048319442 1 0 1
818 273 2 0.4238 0.5096674003241918 30.322249636064427 27.687635137767057 1 -2 0
1127 376 2 0.4238 3.3937665505110823 23.812963359282303 27.286625328925098 1 0 3
1846 616 1 -0.8476 0.861983509299587 23.79219987121123 24.910251352527098 3 -1 1
819 273 2 0.4238 2.0952789420608426 30.25698874743564 28.07260625519182 1 -2 0
2762 921 2 0.4238 14.852093594319062 25.577994488837618 27.100494022745117 4 1 0
77 26 2 0.4238 6.044146969224437 30.20413791043875 28.13953556513282 -3 -2 -2
953 318 2 0.4238 10.731601008444974 25.39857897866418 28.221589256111848 0 -2 -1
2486 829 2 0.4238 7.663420805654642 19.489757210374737 23.604926789211074 0 1 0
1200 400 2 0.4238 6.583730281762771 23.925206706187378 29.113884305826403 -5 0 -1
1372 458 1 -0.8476 5.069197499357944 24.008067693538727 30.7305349100064 -1 2 3
2883 961 2 0.4238 8.938394400907981 27.518015269134995 25.61887985567154 -4 3 1
1126 376 1 -0.8476 2.924371140829661 24.44900693389322 26.674156518535767 1 0 3
1128 376 2 0.4238 2.0987263032100327 24.015744000289274 26.3127784255413 1 0 3
32 11 2 0.4238 5.793388819285392 29.695877373252458 26.1357831776685 0 -2 -1
800 267 2 0.4238 13.001972315796717 24.948872068991513 24.442559494563973 1 -1 -1
3023 1019 5 -1 5.580287745694217 28.916386848063702 29.492705489045726 0 -1 -1
353 118 2 0.4238 0.871042113517356 25.746333095487017 24.6789810814802 3 0 -2
1262 421 2 0.4238 2.2866366455670284 29.153149227080153 24.40065357663879 0 3 0
2242 748 1 -0.8476 2.8869997951944204 28.641351981267135 29.001101533244075 1 0 2
31 11 1 -0.8476 5.848696281680599 28.71702644977844 26.33273919629454 0 -2 -1
2394 798 2 0.4238 4.416427030465518 27.98388286182503 25.461284108638615 1 -3 2
2613 871 2 0.4238 10.862878639604965 16.512957225226213 23.69999060983731 0 4 -3
1681 561 1 -0.8476 1.6524005846045813 26.693002659339516 27.632215598465276 5 1 -2
1683 561 2 0.4238 2.1033702091527973 27.417115760676023 28.154027928525174 5 1 -2
1682 561 2 0.4238 2.243069715572512 25.88665700872059 27.601933398421846 5 1 -2
720 240 2 0.4238 15.29247201477957 25.11254201089533 29.523230987840304 -1 -1 -1
367 123 1 -0.8476 10.439012533586071 28.23211262090128 26.117986019730143 3 -7 2
2393 798 2 0.4238 2.9189799403009045 27.33254743545959 25.467728802968825 1 -3 2
2392 798 1 -0.8476 3.661287682528123 27.667253196017562 24.88725357033099 1 -3 2
33 11 2 0.4238 5.8296671278577294 28.574558593417045 27.322355623656644 0 -2 -1
2243 748 2 0.4238 2.5225034933355945 29.201584519944088 29.744930795437508 1 0 2
848 283 2 0.4238 4.494450982079735 24.88251220663773 25.295552206003393 1 -1 1
1261 421 1 -0.8476 1.6217371744739166 29.85145994740446 24.665739821708783 0 3 0
1999 667 1 -0.8476 1.737609300346198 30.2291651003858 30.75696126848046 6 0 -4
849 283 2 0.4238 4.879923267650917 25.657728612843073 23.910966658463927 1 -1 1
847 283 1 -0.8476 5.2271567800745995 25.069265393517977 24.64113138951747 1 -1 1
2244 748 2 0.4238 3.8550811072461277 28.85348204834509 28.867612130595898 1 0 2
3019 1019 4 2 6.123578371152813 29.490981576033995 30.69512487712354 0 -1 -1
2568 856 2 0.4238 15.197814390363696 29.489169167179245 26.35442205926495 -2 0 -1
352 118 1 -0.8476 0.687996617694319 26.697334041113695 24.429798145538495 3 0 -2
2881 961 1 -0.8476 8.068528251681675 27.024905598208225 25.632180429978 -4 3 1
3022 1019 5 -1 7.476905424934249 29.69798185755158 30.30289615478046 0 -1 -1
1095 365 2 0.4238 8.338213952231559 25.9389306873631 27.174189298045352 -3 -2 0
672 224 2 0.4238 0.4262909123724838 22.72524936851564 27.671975799043945 2 0 1
2882 961 2 0.4238 7.317245131664865 27.67700295051281 25.733883569630624 -4 3 1
369 123 2 0.4238 10.037665617907827 28.339151296144603 27.027636455891514 3 -7 2
1263 421 2 0.4238 1.4935808283741567 29.83035386895084 25.657269003365275 0 3 0
1998 666 2 0.4238 12.564168221717974 28.905695626597012 29.380524015035206 1 1 0
1093 365 1 -0.8476 8.843137793120714 25.523247271057958 27.930667442197993 -3 -2 0
153 51 2 0.4238 9.677200130742898 30.384863875389918 28.311231442644466 -2 -1 0
2542 848 1 -0.8476 13.523553349092204 24.23608201701829 27.15233385037383 -2 0 -3
1587 529 2 0.4238 14.468526974786235 27.83668237519614 24.32527886475957 -1 -1 -2
799 267 1 -0.8476 13.414872408547 24.3101676363951 23.79327403922671 1 -1 -1
1147 383 1 -0.8476 11.596946321616155 30.555529017128283 25.091810510843878 0 1 -1
1198 400 1 -0.8476 7.236089285186925 23.356697859516974 28.6126595349492 -5 0 -1
501 167 2 0.4238 11.946171657841582 24.911567312715903 30.21367101896989 -2 1 0
1585 529 1 -0.8476 13.962673429547747 27.468828553855015 23.54502535480392 -1 -1 -2
1273 425 1 -0.8476 7.312719913197483 26.104459671878253 30.073484731136265 1 -2 0
529 177 1 -0.8476 13.017823165941188 18.267543987158323 23.36801757671689 -3 -3 0
1199 400 2 0.4238 7.932221661538811 23.939191219098728 28.19301424244033 -5 0 -1
152 51 2 0.4238 8.640060434129465 29.4581030843422 29.166849165865035 -2 -1 0
151 51 1 -0.8476 9.472415557193997 29.45361462722286 28.612624714833522 -2 -1 0
1997 666 2 0.4238 11.070381134010153 28.797534027675635 28.729733093291053 1 1 0
1707 569 2 0.4238 13.26289056885424 28.57527647562549 27.49949040988818 2 0 0
1934 645 2 0.4238 7.641774037720273 26.520185382451636 23.93377363041974 2 -1 2
994 332 1 -0.8476 10.330030754154322 21.173248166545196 24.100382495309717 1 0 -2
2543 848 2 0.4238 12.882422342044782 24.696846506537142 27.766050155083867 -2 0 -3
1586 529 2 0.4238 13.195868086095688 26.918045803999597 23.874643139744435 -1 -1 -2
952 318 1 -0.8476 11.595690016524852 25.649890794134897 28.657699969075708 0 -2 -1
1094 365 2 0.4238 8.41732292840168 25.78201127009703 28.797686895646738 -3 -2 0
1860 620 2 0.4238 11.592028015596982 26.66311447247925 25.71158361958922 1 0 1
1996 666 1 -0.8476 11.975409249949017 28.37423596412744 28.77149700207705 1 1 0
2304 768 2 0.4238 0.047943075191887265 20.64791522072787 24.83197532392964 -2 -1 -2
2690 897 2 0.4238 4.006566478353259 26.919776994530128 30.190834575725773 -2 -1 -1
1848 616 2 0.4238 0.335215576543448 23.17704618504936 24.323649684669117 3 -1 1
1374 458 2 0.4238 5.025258343547546 25.004020607275663 30.80894782080469 -1 2 3
2684 895 2 0.4238 6.925506554663909 17.150341185097275 23.687443884290776 1 1 -1
423 141 2 0.4238 6.326728182259206 24.176854712536898 23.64251008576459 -1 3 1
2343 781 2 0.4238 12.299891837455453 21.5884960345223 30.56498561940813 -1 -3 1
1013 338 2 0.4238 14.6790966777708 30.47172864400412 29.78446484754588 0 1 0
2664 888 2 0.4238 4.693223094745194 19.17787363020125 30.647846198944286 3 -1 -2
3020 1019 5 -1 5.433484255339151 30.785781550909917 30.867801322418604 0 -1 -1
2773 925 1 -0.8476 11.703094428383114 16.986364290794484 30.826927353131826 0 0 -1
409 137 1 -0.8476 17.623972333864824 4.827246904492733 1.4522349015491771 3 2 -2
411 137 2 0.4238 16.805325313075457 5.36998766961824 1.6399834251572745 3 2 -2
2317 773 1 -0.8476 19.039620254682344 0.07011869015646281 4.55132888621114 0 -3 1
1252 418 1 -0.8476 20.460113621295267 5.839833503851581 5.099643562045419 2 -1 1
1506 502 2 0.4238 21.63649770332276 7.18205024984606 1.5942869691488355 0 0 1
1254 418 2 0.4238 19.79140528313113 6.5733521943850866 4.9780725936255426 2 -1 1
410 137 2 0.4238 18.240514593349147 5.347504505414983 0.8612970237300341 3 2 -2
1802 601 2 0.4238 18.744502305654773 3.315365927863655 5.193549684226397 1 2 2
1801 601 1 -0.8476 19.476868430434944 3.343147399514092 5.873894601430246 1 2 2
2273 758 2 0.4238 21.759647189655546 2.964718590964779 2.6683857015333494 -1 -1 0
2953 985 1 -0.8476 20.5147721826553 4.103735836605683 3.2577508405788644 2 1 0
1803 601 2 0.4238 20.180956499123628 3.9893607128490407 5.579498753267126 1 2 2
2954 985 2 0.4238 20.544564252818255 4.774000620004388 3.9992746165534183 2 1 0
1475 492 2 0.4238 19.548696067507446 0.8910176718073538 0.41402804395300474 2 -3 0
2272 758 1 -0.8476 22.253918520923506 2.099623594576844 2.5829075730457007 -1 -1 0
1425 475 2 0.4238 25.212914456498826 0.3985778304974773 3.585752793151184 2 2 1
1627 543 1 -0.8476 16.409620092840424 4.690911110442404 7.562807838783751 2 0 -1
1238 413 2 0.4238 24.361330448607283 2.3001727281797444 5.44749716825566 4 1 -3
108 36 2 0.4238 17.107804878446423 2.3989087732852226 3.769583809993001 1 1 2
1904 635 2 0.4238 22.939850512843336 5.553910289681897 0.7862481025716069 2 4 -2
2274 758 2 0.4238 21.60577331212036 1.3394871586427932 2.628737341448846 -1 -1 0
1253 418 2 0.4238 21.18169478727794 6.1461577160870595 5.7205187900479615 2 -1 1
1596 532 2 0.4238 20.675012398564817 5.108713779194437 1.7369369645497819 1 2 0
1594 532 1 -0.8476 21.056222978303737 5.810812214560609 1.1354909082244227 1 2 0
1886 629 2 0.4238 22.576820340213455 7.970422548481828 5.458604197782487 2 -1 -1
2955 985 2 0.4238 19.614492376825144 3.6688967222504547 3.237475493372595 2 1 0
835 279 1 -0.8476 15.5220839782841 6.616979609850047 5.714810239126708 1 -1 2
1239 413 2 0.4238 23.306687983863636 2.04735596124615 4.22666164992551 4 1 -3
3 1 2 0.4238 22.6630693359345 0.2345556158216456 7.405015202107708 -1 -1 0
2725 909 1 -0.8476 22.648758991292866 6.62909772062691 6.8532802589637285 -1 -1 5
2816 939 2 0.4238 16.475964013408376 2.0277604198781143 7.023381263065689 0 4 2
106 36 1 -0.8476 17.777839750023162 3.1297926569229935 3.6397299030731407 1 1 2
107 36 2 0.4238 17.549281856473517 3.6490566481851223 2.8162447898202765 1 1 2
52 18 1 -0.8476 15.669488118556954 0.3304861630257861 4.435658177309579 -1 -1 1
1329 443 2 0.4238 24.522472028488128 3.384747435693568 7.337323653737203 -1 0 -1
1268 423 2 0.4238 16.43747990190544 0.8654300625251914 2.4853869194827403 1 2 0
1237 413 1 -0.8476 24.053124095892386 1.6456111378026577 4.757165390369348 4 1 -3
1424 475 2 0.4238 25.1237307267487 0.31099636216304377 1.9575628239633005 2 2 1
723 241 2 0.4238 23.42356779085426 1.207907773063695 1.3414620505572716 -2 -1 3
1474 492 1 -0.8476 19.5332504672855 1.5964789210979717 1.1226083098050734 2 -3 0
2279 760 2 0.4238 15.816731146259967 2.480611480854559 1.0732459013495654 -3 0 0
2296 766 1 -0.8476 18.536999904145908 7.87143792906806 4.887986457502039 -1 1 -1
1595 532 2 0.4238 20.45196471007667 5.940124316374029 0.34926495139486186 1 2 0
2318 773 2 0.4238 18.856396876118772 1.0067062939257883 4.850047551398776 0 -3 1
1476 492 2 0.4238 18.846239060676606 1.3628168862662855 1.8106618688154132 2 -3 0
1722 574 2 0.4238 27.532865053178167 0.8680463289118813 6.217022394849219 0 0 -1
2700 900 2 0.4238 29.381649332333797 12.010697554011847 0.18818917878388786 0 1 -2
1113 371 2 0.4238 24.44197436318953 2.940242149383478 2.7008318443466295 -2 1 -1
2726 909 2 0.4238 23.4506965992411 6.338960974134216 6.331057183338698 -1 -1 5
540 180 2 0.4238 30.679385360490134 4.4445301471393766 2.367674560566738 0 1 0
1327 443 1 -0.8476 25.097829146205022 3.22825485885099 6.534531764950196 -1 0 -1
1903 635 1 -0.8476 23.887576435010555 5.845211151089764 0.9164786422435243 2 4 -2
539 180 2 0.4238 29.76206034198313 3.250141136881136 2.99900352016449 0 1 0
1112 371 2 0.4238 24.253208036756362 4.424542032317153 2.0467312042033914 -2 1 -1
1305 435 2 0.4238 28.253610676293942 1.6305212443172858 2.4725462642367413 -2 2 1
1905 635 2 0.4238 23.910141190074814 6.652176910493981 1.5066458026807605 2 4 -2
2781 927 2 0.4238 28.913177200174065 5.6620547962157755 3.41741035046611 -2 -1 1
1111 371 1 -0.8476 24.734410636092065 3.895474810350306 2.745682109358357 -2 1 -1
1133 378 2 0.4238 29.369011796425333 2.6052794553484353 5.954500673712936 0 -1 0
2150 717 2 0.4238 26.56271442560639 6.119761702131275 4.486787620401867 4 0 1
2149 717 1 -0.8476 25.794653538516513 5.638264324510239 4.908976108965758 4 0 1
2151 717 2 0.4238 25.548944483381717 4.846999867742069 4.349040082103897 4 0 1
2425 809 1 -0.8476 27.31628412539172 2.974327320530985 1.5069166370070093 -1 -2 -2
1447 483 1 -0.8476 29.164780019992524 5.700193565651074 6.194277604921168 0 1 -1
1721 574 2 0.4238 26.046357359213594 1.5155674802009715 6.411026845380211 0 0 -1
2780 927 2 0.4238 29.01086844874551 7.274758485641151 3.6546222989502652 -2 -1 1
2779 927 1 -0.8476 28.386247542465554 6.4988777868709455 3.565978049276975 -2 -1 1
2427 809 2 0.4238 27.646022121278303 3.328551265709555 0.6318172806183686 -1 -2 -2
1132 378 1 -0.8476 28.929861569026006 1.7330801011012475 5.739057024702949 0 -1 0
2426 809 2 0.4238 26.431401181439977 3.387671674032248 1.721692519578394 -1 -2 -2
1449 483 2 0.4238 28.44294216721991 5.566496364712554 5.515252439990788 0 1 -1
1303 435 1 -0.8476 28.858687538913937 1.143685959620141 3.102525151459233 -2 2 1
538 180 1 -0.8476 30.029392638278438 4.209408336809903 3.0903283559980657 0 1 0
1448 483 2 0.4238 30.03196059738802 5.876569287845429 5.728563699957188 0 1 -1
1328 443 2 0.4238 25.893311334792912 3.8331008149189882 6.571552515253761 -1 0 -1
2045 682 2 0.4238 30.7201603606057 8.870769181580275 4.604715963929895 -1 0 -3
928 310 1 -0.8476 26.289859449217346 11.574929988052972 0.1914970661138726 -4 1 1
454 152 1 -0.8476 15.661846466573609 10.20628865042 7.024744937312135 0 1 -1
2044 682 1 -0.8476 29.901483632798037 8.607979352191489 4.094117497122899 -1 0 -3
1720 574 1 -0.8476 26.61920910360788 0.7166530788615659 6.594266255697054 0 0 -1
721 241 1 -0.8476 24.018022528212878 0.8879485835417243 0.603729248227052 -2 -1 3
918 306 2 0.4238 27.58664359697616 7.074616127646723 1.6906318780227765 -4 -2 -1
1304 435 2 0.4238 28.782637476607874 0.15927659191874685 2.9439232546279115 -2 2 1
119 40 2 0.4238 24.03885569361506 15.263222399763558 7.646050451235582 -2 0 -1
916 306 1 -0.8476 27.762899072068414 7.838885201386499 1.0702873384308684 -4 -2 -1
2655 885 2 0.4238 29.418656868063188 0.6441135295559953 7.065920023142006 -2 2 4
2887 963 1 -0.8476 25.198598088890687 8.728019362260039 0.9622739591955047 0 -3 0
1134 378 2 0.4238 29.336251443073728 1.3513684511524366 4.908909680154383 0 -1 0
553 185 1 -0.8476 18.459733530728816 11.703860374251487 0.023787118001746654 0 -3 -1
1742 581 2 0.4238 25.72550737399072 7.125126208660235 6.548655609159945 0 2 -1
2298 766 2 0.4238 17.611353168007433 7.809545068671479 4.514692988339526 -1 1 -1
2815 939 1 -0.8476 15.989393287045639 2.3626458923660394 6.216473185410604 0 4 2
2449 817 1 -0.8476 21.27856851918272 14.53438536561195 0.5451778285164696 0 1 1
455 152 2 0.4238 16.621615517666633 9.947784023573952 6.915109168734407 0 1 -1
183 61 2 0.4238 28.028100413235112 5.027658699999483 7.348719131698563 1 3 2
554 185 2 0.4238 18.113709544451815 12.593802446598444 0.32089290365246403 0 -3 -1
660 220 2 0.4238 23.197219128065253 15.452951339077806 2.9541090043723157 -2 0 0
2556 852 2 0.4238 21.306645122872442 11.030927295330306 6.9408559550737445 -1 1 0
2297 766 2 0.4238 18.497818512980547 8.239268250842505 5.817053923015419 -1 1 -1
1505 502 2 0.4238 21.95895684487609 8.225595154353842 2.8082311834291716 0 0 1
2888 963 2 0.4238 26.18164699832254 8.737605393877587 0.7791792813548966 0 -3 0
1504 502 1 -0.8476 21.98819952154179 8.091099679968277 1.8177485957179422 0 0 1
878 293 2 0.4238 22.31747611543703 14.27041156840408 6.873178640209819 -1 1 -1
2 1 2 0.4238 23.399120878056966 0.3609217547736323 5.9528147044725275 -1 -1 0
575 192 2 0.4238 16.275299404506303 14.425765508296765 3.912412680155722 -2 -5 1
1731 577 2 0.4238 16.168101956269034 12.822226037388893 0.8939357989369471 1 2 1
2451 817 2 0.4238 22.09075003138505 14.403697790938226 1.1137567676936109 0 1 1
3005 1005 3 2 21.436028501302633 9.47656031163891 0.6512480130647413 0 0 1
1050 350 2 0.4238 19.363459308767812 9.517290446476148 4.791110508069568 -1 0 2
1048 350 1 -0.8476 19.942943345930185 10.330610758508593 4.843156922107899 -1 0 2
2245 749 1 -0.8476 20.15390673657444 10.453418327072225 1.7883596457795772 0 0 1
2246 749 2 0.4238 19.600060806476492 11.02006047396945 1.1783012157742907 0 0 1
2450 817 2 0.4238 20.458156060603205 14.438911218219154 1.108922561390009 0 1 1
89 30 2 0.4238 30.16875463330678 9.305622705716736 0.2431125672695072 -4 0 1
2103 701 2 0.4238 20.58387024866959 13.39146363132661 3.605637293741173 1 -1 -3
3079 1031 4 2 17.98509412452263 15.027679048024071 1.52898316409437 0 0 1
1218 406 2 0.4238 17.538991648629448 12.576027891927646 3.8827926502802774 1 1 2
1216 406 1 -0.8476 18.415601150236604 12.305469389143955 3.4848556843242102 1 1 2
3081 1031 5 -1 17.345933524297944 14.133336175896797 0.5625931963413868 0 0 1
1864 622 1 -0.8476 23.207040990079 10.397584549851196 1.657410073486003 0 0 1
574 192 1 -0.8476 15.720334999830776 13.661390842417806 4.240661358818747 -2 -5 1
2247 749 2 0.4238 19.92604264580206 10.665583567445994 2.7386563465260223 0 0 1
1049 350 2 0.4238 19.368499113108346 11.149097916162136 4.852802022031176 -1 0 2
2101 701 1 -0.8476 21.507019799793046 13.522499042747887 3.9670583956620753 1 -1 -3
1217 406 2 0.4238 18.617406390342413 12.886762467081494 2.6965837402954933 1 1 2
3080 1031 5 -1 19.17203583628588 14.414653867543564 2.1217287787135484 0 0 1
1730 577 2 0.4238 15.883335680610223 11.23005944907893 0.6691214931876098 1 2 1
811 271 1 -0.8476 23.777550606700768 12.411357861258724 3.412443993828512 2 -2 0
813 271 2 0.4238 22.909252487658623 12.84436808392166 3.6544369573126287 2 -2 0
1865 622 2 0.4238 23.50419884761918 11.223320981220335 2.1368435381946296 0 0 1
1887 629 2 0.4238 21.651799852561222 9.256838560443652 5.06351231521197 2 -1 -1
628 210 1 -0.8476 16.10007901490539 8.256820815912976 3.573313217351458 -3 3 -3
877 293 1 -0.8476 21.348409930174693 14.480039421310527 7.003440305900676 -1 1 -1
2817 939 2 0.4238 15.992331176398462 1.656395739540552 5.508516904572655 0 4 2
802 268 1 -0.8476 18.22864479900266 9.387280951936797 7.301523554309856 -4 -2 3
837 279 2 0.4238 15.861176490411102 5.890174364977859 6.312112775753415 1 -1 2
1885 629 1 -0.8476 22.213125179132216 8.512749003210065 4.701234890816698 2 -1 -1
803 268 2 0.4238 19.061337188289666 9.937683195561645 7.362192719440299 -4 -2 3
3083 1031 5 -1 17.093976573368522 15.37293535693826 2.625725547910252 0 0 1
2889 963 2 0.4238 24.70120449457505 8.59403477539998 0.10515779497054788 0 -3 0
1866 622 2 0.4238 24.00748815938911 9.861157752185857 1.3899585402681431 0 0 1
1729 577 1 -0.8476 15.622149532202615 12.040055948793679 1.1941815810291452 1 2 1
2622 874 2 0.4238 19.154764766904453 2.850372699661742 7.43851025451709 1 1 0
424 142 1 -0.8476 27.569463845909706 9.399238816329825 4.939737022256645 -1 1 -2
624 208 2 0.4238 29.488299409428492 12.993575926798805 5.673595670849962 2 1 0
2656 886 1 -0.8476 27.45630007534468 11.110496719029552 2.7741394614320813 2 -1 -1
1163 388 2 0.4238 29.8156431192205 13.226589463045483 2.2263712642953326 0 0 -3
917 306 2 0.4238 28.736871680994057 8.064851517632862 1.0881072013346744 -4 -2 -1
524 175 2 0.4238 17.630819535436686 14.819158467159786 7.173426546293857 2 -3 -2
1310 437 2 0.4238 24.620748309761094 14.30694514444 0.9979217103247119 -2 1 1
623 208 2 0.4238 28.61397868635312 12.660517232287786 7.011975730425714 2 1 0
2657 886 2 0.4238 28.35355443071789 11.357844413902829 2.408415941467106 2 -1 -1
88 30 1 -0.8476 30.304956743152236 8.944885687942708 1.1657814912292148 -4 0 1
2046 682 2 0.4238 30.09582496088169 8.639164556930375 3.113678974631339 -1 0 -3
426 142 2 0.4238 26.8492033528923 9.136380907900536 4.297762382056892 -1 1 -2
1890 630 2 0.4238 27.01935237118841 9.894991412922737 6.407998348120722 1 0 -1
523 175 1 -0.8476 18.21364207880295 15.409866957175476 6.615410634117626 2 -3 -2
2530 844 1 -0.8476 30.439774329456416 14.786615688098607 2.8586675624759015 -1 -1 0
2031 677 2 0.4238 24.04745755364417 14.628303084124918 5.365124617844845 -1 -1 -1
1005 335 2 0.4238 26.984110673372605 12.648939686956396 3.367355172920965 0 0 0
1311 437 2 0.4238 23.85823282390427 13.617410592556814 2.2666764823807384 -2 1 1
1309 437 1 -0.8476 23.74978209316729 14.229118380973816 1.4830617710627276 -2 1 1
622 208 1 -0.8476 28.588088912347676 12.722292272666003 6.01422155056022 2 1 0
425 142 2 0.4238 28.417387260765395 8.925654357280932 4.7015236288635345 -1 1 -2
41 14 2 0.4238 25.4104751775215 11.028917023673333 6.10600580623983 1 1 -2
9 3 2 0.4238 26.21982103203594 14.866804120927208 4.203733968898688 0 3 0
2658 886 2 0.4238 27.57349953032869 10.553185754196171 3.5961301914867474 2 -1 -1
930 310 2 0.4238 26.137629830858508 11.332982194538198 1.1497703585858368 -4 1 1
2102 701 2 0.4238 21.493168088486275 14.238415386389084 4.66510715414444 1 -1 -3
1106 369 2 0.4238 25.133128384400372 8.895774743958592 2.7055584424392833 -1 1 1
1105 369 1 -0.8476 25.07884444935706 9.034610295805082 3.694385369983829 -1 1 1
1107 369 2 0.4238 24.14825484254179 9.303668429586864 3.942600729219962 -1 1 1
1003 335 1 -0.8476 26.928536493446877 13.406011428824138 4.018318738198225 0 0 0
40 14 1 -0.8476 25.214808830715285 11.925339327469358 5.708334920377292 1 1 -2
1741 581 1 -0.8476 25.635308510294397 7.318365452096016 7.525652392504489 0 2 -1
42 14 2 0.4238 26.049455134634822 12.300417884321877 5.304995866190381 1 1 -2
1004 335 2 0.4238 27.68206697821186 13.339242400029109 4.6723321370997 0 0 0
2029 677 1 -0.8476 23.848754189213984 14.222860970689378 6.257387780799363 -1 -1 -1
2030 677 2 0.4238 24.15123042346098 13.269736145587473 6.2652097738014305 -1 -1 -1
1888 630 1 -0.8476 26.536632153642863 9.894797021480679 7.283773007360668 1 0 -1
812 271 2 0.4238 24.227065257883538 12.079504880774547 4.24178716197508 2 -2 0
1162 388 1 -0.8476 29.906251387510647 12.266216914078889 1.9627912472642477 0 0 -3
2531 844 2 0.4238 30.796318972011147 15.373806889667067 2.1319750096747923 -1 -1 0
1267 423 1 -0.8476 17.20065902096777 0.27049433749953344 2.233177150270117 1 2 0
1889 630 2 0.4238 26.330369670557605 8.953345689727746 7.55046614711371 1 0 -1
1628 543 2 0.4238 16.062827360926704 3.939767447405409 7.00109714456803 2 0 -1
1164 388 2 0.4238 30.843500394628013 11.961213587885345 2.1317191450924007 0 0 -3
630 210 2 0.4238 15.810215530469748 7.552458316822909 4.22127475194767 -3 3 -3
2358 786 2 0.4238 30.692843271079454 1.1391749122220611 1.0033168268689259 -3 -4 -1
879 293 2 0.4238 21.241411590133477 15.455333474933754 7.196709817846374 -1 1 -1
629 210 2 0.4238 15.952169662504076 9.160525336459852 3.975110917861957 -3 3 -3
91 31 1 -0.8476 25.938315300806906 14.22500327014949 0.0712079629317955 5 -1 0
2356 786 1 -0.8476 30.655180685582355 0.8956685636861114 0.03414877323828924 -3 -4 -1
93 31 2 0.4238 26.20891009948663 13.282185852403465 0.26581927725490817 5 -1 0
2025 675 2 0.4238 29.50661006027732 6.7806919502108824 7.716481198677585 -2 1 0
2916 972 2 0.4238 18.399981185329633 2.9641862102195735 13.985611890431748 -2 2 1
2914 972 1 -0.8476 19.396025140700555 3.030909866067372 14.044301082433076 -2 2 1
2915 972 2 0.4238 19.801918420268887 2.1378084912682374 13.850340295855363 -2 2 1
81 27 2 0.4238 19.00384529102798 5.456460380879109 12.204838039555568 0 -1 2
79 27 1 -0.8476 18.162884790770214 5.311337586160265 11.683565783485754 0 -1 2
80 27 2 0.4238 18.03975337512601 4.333357799834625 11.515060060111441 0 -1 2
2852 951 2 0.4238 21.759518403410073 2.8252880768327215 13.172551203903467 1 2 -1
1490 497 2 0.4238 16.337522608143235 2.449065575071588 10.39547100912083 3 0 3
1489 497 1 -0.8476 17.110865953599802 1.8625906541984558 10.154665540671118 3 0 3
2092 698 1 -0.8476 22.05743485134856 5.85720246379089 14.40213198903096 0 0 0
3009 1009 3 2 23.00035906226046 7.625715894570194 14.151336101132735 0 0 0
1491 497 2 0.4238 17.826018995244645 2.413769091468707 9.724830176850686 3 0 3
2036 679 2 0.4238 18.525086451234937 0.9611148440770516 10.337056013203025 0 2 1
2632 878 1 -0.8476 29.571774446790105 14.755893246563598 14.531817506513006 -2 2 3
2093 698 2 0.4238 21.696461202117206 5.477342825098681 15.253838753342011 0 0 0
2727 909 2 0.4238 22.682832696372063 6.226012687299557 7.767808419053229 -1 -1 5
613 205 1 -0.8476 18.564841083764307 7.666566991637217 9.411824919266506 0 -2 2
2756 919 2 0.4238 21.16581732097784 3.5597591602884835 10.968561041063513 -4 2 -2
774 258 2 0.4238 22.009741335949286 0.9543219357111631 15.186773491843939 -3 -1 0
2094 698 2 0.4238 22.06520736463354 5.147582915992042 13.697589945192153 0 0 0
773 258 2 0.4238 22.525892310449326 0.8225817033374138 13.643122182831016 -3 -1 0
772 258 1 -0.8476 21.847354864463103 1.2452442783137179 14.243908254275176 -3 -1 0
614 205 2 0.4238 17.68840953815374 7.230280602528376 9.615594162341893 0 -2 2
321 107 2 0.4238 15.784411800002772 3.4259890909794284 12.50460305270673 1 3 -1
319 107 1 -0.8476 16.33496132432837 3.343914528013435 13.335361578829461 1 3 -1
320 107 2 0.4238 15.913774402697731 2.676771728353459 13.94979009750608 1 3 -1
522 174 2 0.4238 16.654229442367427 4.924246756203675 14.164720572081714 -1 0 0
520 174 1 -0.8476 16.76398166235314 5.667369569466951 14.824813699307075 -1 0 0
513 171 2 0.4238 16.923816755013085 6.196080211953572 11.525956023524389 2 1 0
2755 919 1 -0.8476 21.121793562907502 3.8264541474532328 10.005786089592817 -4 2 -2
511 171 1 -0.8476 16.181680675874343 6.764186445771854 11.170302667399131 2 1 0
1090 364 1 -0.8476 21.077408279646328 6.467527647375733 9.96189454165278 -4 -1 -3
2620 874 1 -0.8476 19.07387560952255 2.745683707739267 8.429720157869838 1 1 0
1092 364 2 0.4238 20.119897806510863 6.662315730780426 9.749218198816486 -4 -1 -3
821 274 2 0.4238 22.712196271142673 1.0727126997022542 9.171992459548505 -1 2 1
2653 885 1 -0.8476 29.941545465279315 0.34421301892744904 7.863821760199738 -2 2 4
822 274 2 0.4238 22.633011632936093 2.7013039593909984 9.261692993254483 -1 2 1
2757 919 2 0.4238 21.135721904557954 4.8238650100155995 9.935238132116297 -4 2 -2
1356 452 2 0.4238 16.362278179597865 7.2798397043884115 14.16195576459784 -1 1 -1
820 274 1 -0.8476 23.210671883394372 1.92451402078108 9.010882693045767 -1 2 1
2851 951 1 -0.8476 22.199886614945605 3.6039069515169366 12.725529397326738 1 2 -1
552 184 2 0.4238 27.345594044127363 11.15464392870354 8.015310632148626 0 -1 -1
2037 679 2 0.4238 19.09840506162188 0.46927180969856763 11.78482055489801 0 2 1
2862 954 2 0.4238 18.308795903189285 7.397242698805461 14.936111523341456 -1 2 1
1743 581 2 0.4238 25.155436576695674 6.563002110415844 7.971913032541977 0 2 -1
2621 874 2 0.4238 19.870376928200944 3.1555098299458084 8.87427376332659 1 1 0
2023 675 1 -0.8476 29.951704366287437 7.198628646482259 8.508454068358095 -2 1 0
543 181 2 0.4238 15.786544482707612 0.5571768387525955 10.673935350510263 2 -1 1
732 244 2 0.4238 30.49564871272575 3.425446963687428 9.474895619278943 1 2 1
1649 550 2 0.4238 28.127735793266293 0.2379171843674184 10.494071020921762 -1 -1 1
2469 823 2 0.4238 24.727134028058778 0.6573327935366048 8.855134548647825 -1 -2 1
1600 534 1 -0.8476 24.705248604413185 5.171362805819283 8.747684381293436 -1 0 4
2605 869 1 -0.8476 29.892955033664965 13.449013538516052 10.867637023401098 -1 0 1
679 227 1 -0.8476 23.29784103917018 7.010088834659218 12.246001265124315 0 0 0
1541 514 2 0.4238 24.00891264364011 2.140071904951527 10.527435998730931 -2 -1 0
2853 951 2 0.4238 23.007506958321116 3.288979995816549 12.226961037507914 1 2 -1
2555 852 2 0.4238 20.723540944160455 10.892499434479726 8.459886346650096 -1 1 0
1542 514 2 0.4238 23.895897249718228 1.3965005014484377 11.976903446469409 -2 -1 0
285 95 2 0.4238 27.882365859730317 7.210911258509589 11.093695899576067 0 2 0
284 95 2 0.4238 27.785253278915043 7.192105154989125 12.723678491712674 0 2 0
1059 353 2 0.4238 26.075914578326195 4.284578996754448 14.92129840690264 -2 -2 -2
1057 353 1 -0.8476 25.40789183799927 4.108738939640177 14.198231670735957 -2 -2 -2
793 265 1 -0.8476 24.729007084662072 6.638420490496142 14.657322053109551 0 0 -1
933 311 2 0.4238 27.70715919061135 2.3245797238420605 10.03715221305066 -3 0 3
931 311 1 -0.8476 27.442902469604267 3.263254181302277 10.258647473451516 -3 0 3
2828 943 2 0.4238 26.04752139534999 5.736379664101888 11.40537345582505 -1 1 -1
932 311 2 0.4238 26.688230786214685 3.251095463152175 10.91463760172551 -3 0 3
2827 943 1 -0.8476 25.205684870195455 5.19817784034103 11.445993566202942 -1 1 -1
795 265 2 0.4238 24.885619205206268 5.653245197978587 14.58730674063343 0 0 -1
2829 943 2 0.4238 25.258209560099083 4.554323988521594 12.209337077045207 -1 1 -1
1411 471 1 -0.8476 28.497364593803898 4.331943542756129 13.426319829948163 0 1 0
182 61 2 0.4238 27.546366591108963 3.9186092537334445 8.446247691031244 1 3 2
1412 471 2 0.4238 28.373595933297388 4.72451741750454 14.337674240808598 0 1 0
680 227 2 0.4238 23.854025898939945 6.200944644911608 12.056412049631398 0 0 0
794 265 2 0.4238 25.589471915617597 7.097886599531557 14.877529116382439 0 0 -1
1413 471 2 0.4238 28.151122784316094 4.97010711138391 12.738669102725485 0 1 0
283 95 1 -0.8476 27.713775082568773 6.6369294745932965 11.89502142385088 0 2 0
1995 665 2 0.4238 30.689280233404997 9.159623456634346 14.632043297262372 0 -2 1
1017 339 2 0.4238 28.744305738757426 7.454048165915438 14.894278984223998 -1 1 1
1058 353 2 0.4238 24.976948530287842 3.2194972102551223 14.351649182240136 -2 -2 -2
1819 607 1 -0.8476 28.51306699058804 1.6764814548485634 12.917219047806018 -1 0 0
731 244 2 0.4238 29.178662817517537 3.785394750379686 10.370781502639487 1 2 1
1820 607 2 0.4238 28.715335588240393 1.6604145304508908 11.938020808783197 -1 0 0
1540 514 1 -0.8476 24.053227429008434 2.2708702359325015 11.517854541650296 -2 -1 0
1601 534 2 0.4238 24.78444354468883 5.245587122930343 9.741776343711456 -1 0 4
2282 761 2 0.4238 26.584096578119297 11.152174395049055 12.664474942687642 -1 3 0
2467 823 1 -0.8476 25.497118580467507 0.019288319627088987 8.859930040129296 -1 -2 1
1136 379 2 0.4238 25.624966819925373 1.0287512076970202 15.318733203962827 -1 0 -1
1821 607 2 0.4238 28.579175001114866 2.615068936476138 13.25586808966617 -1 0 0
1648 550 1 -0.8476 28.718535508694597 0.9899653882473866 10.201873821431892 -1 -1 1
257 86 2 0.4238 29.659188078080515 0.3017164016296037 13.352043544405566 -3 -3 0
1650 550 2 0.4238 29.2387959167208 0.710869914566089 9.394758685103405 -1 -1 1
1251 417 2 0.4238 18.148709799128287 15.408074009037298 11.818000438693034 0 -1 0
2468 823 2 0.4238 26.106475865555353 0.22650319693360632 8.094589829167013 -1 -2 1
1602 534 2 0.4238 25.579048203085165 4.871062458808029 8.365200548468172 -1 0 4
2633 878 2 0.4238 28.631833686187637 14.429797502615166 14.632678468500798 -2 2 3
730 244 1 -0.8476 30.148105557081887 3.984593740614717 10.227603157741674 1 2 1
2822 941 2 0.4238 23.199309447829695 15.241890611590202 9.740080380816583 0 -1 0
2526 842 2 0.4238 25.764190382656714 14.424345295522084 15.255122444960111 -2 -3 1
512 171 2 0.4238 15.943794282707945 7.462667204379974 11.84523577634738 2 1 0
1676 559 2 0.4238 27.922433059383227 0.8195887777065551 14.390631168085111 -2 2 1
2281 761 1 -0.8476 26.356632534299177 11.564407810222308 13.546701526311882 -1 3 0
880 294 1 -0.8476 27.434138290962146 13.416622614117395 15.175877061245908 -1 -4 0
982 328 1 -0.8476 30.633886282029113 7.180766470746189 15.15100056903257 -1 -1 1
615 205 2 0.4238 18.937211077297285 8.072349455522692 10.24649920735109 0 -2 2
1091 364 2 0.4238 21.6055855807799 7.315995864355512 9.928273020982607 -4 -1 -3
1629 543 2 0.4238 17.260207274196297 4.409686402499235 8.00712108943371 2 0 -1
2524 842 1 -0.8476 24.89722300060392 14.717034295512713 14.851760723321263 -2 -3 1
834 278 2 0.4238 15.53276122950724 14.27850001517371 7.911384394718515 1 0 1
2901 967 2 0.4238 26.468579072666945 9.64062911718778 10.984321461962224 0 2 0
1724 575 2 0.4238 26.81065236723628 14.314396740101415 9.70487096732832 2 1 0
2860 954 1 -0.8476 19.10721359391688 7.998106223246348 14.97473646840475 -1 2 1
804 268 2 0.4238 18.22256129740454 8.709827025866604 8.037063529798376 -4 -2 3
2835 945 2 0.4238 23.198131363411445 10.49020588581725 8.417464319982933 -4 -2 -2
293 98 2 0.4238 19.847623227706563 15.198283558095746 15.367592234826006 4 0 -2
1135 379 1 -0.8476 24.702859182359713 1.3956530350811918 15.195848960021715 -1 0 -1
688 230 1 -0.8476 23.507468023411505 12.420023995691459 15.396573518136087 2 -1 3
141 47 2 0.4238 20.514555734785688 8.131152993250687 14.038496634271532 0 0 0
1495 499 1 -0.8476 18.530187737157927 14.028806670604457 15.00000520314978 -1 3 2
428 143 2 0.4238 16.809047104842463 12.292208613987887 11.05268856934127 -1 -2 2
585 195 2 0.4238 15.729437825881275 12.421746735954782 14.900749951471772 -1 0 2
2602 868 1 -0.8476 18.055887506763103 10.455661763006288 14.206924634189834 -2 0 1
139 47 1 -0.8476 21.326513223226115 8.409284327424707 13.525303045993297 0 0 0
1497 499 2 0.4238 19.047387214000754 13.258696416748775 14.626595514019865 -1 3 2
1849 617 1 -0.8476 18.49213609799808 9.204960771844563 11.58808281361466 -2 2 -2
1850 617 2 0.4238 17.62304581569988 9.315018565266467 12.070337299594552 -2 2 -2
140 47 2 0.4238 21.131334599497933 9.252139784167287 13.023805197929503 0 0 0
2261 754 2 0.4238 20.43275144842708 13.843444175281135 8.464989831114481 0 -1 0
143 48 2 0.4238 20.109283568306072 10.94854589112933 10.24017661980816 0 1 -1
142 48 1 -0.8476 19.477355346708606 10.92018989890865 9.465668590191758 0 1 -1
3098 1034 5 -1 20.40520911086185 12.084954179360059 13.922130836239116 0 -1 0
1250 417 2 0.4238 18.599004463097064 13.850340286676275 12.01120129353158 0 -1 0
1249 417 1 -0.8476 18.909170538134656 14.762858464203925 11.744541156836021 0 -1 0
1851 617 2 0.4238 19.12789824182472 9.919703871943247 11.879544657403304 -2 2 -2
3097 1034 5 -1 22.695286410253743 11.579364415537457 13.06367890344138 0 -1 0
2821 941 1 -0.8476 22.646218454457177 14.61879484516048 10.293110079238279 0 -1 0
2262 754 2 0.4238 19.29983077822911 13.34529764995711 9.530338156420495 0 -1 0
3006 1006 3 2 20.814729342238948 14.719282457191001 11.025995561092616 0 -1 0
2260 754 1 -0.8476 20.14285699647308 13.872068184970237 9.421620145578613 0 -1 0
3096 1034 5 -1 21.109912895577313 13.05396718474057 11.900368406017435 0 -1 0
3094 1034 4 2 21.270960918901583 11.876214828688564 12.738394259299241 0 -1 0
3095 1034 5 -1 20.72522299028459 10.737644984504362 11.965819837220948 0 -1 0
1492 498 1 -0.8476 22.204281591772247 8.708936262283267 10.197140585306668 -2 0 -1
1354 452 1 -0.8476 16.21121317334428 8.019768346944417 13.506451604386546 -1 1 -1
144 48 2 0.4238 18.56373611466113 10.674666229963078 9.78973325194878 0 1 -1
1493 498 2 0.4238 21.56843047182319 9.16970631281418 10.816320951374097 -2 0 -1
2604 868 2 0.4238 18.886224116084158 10.971818821415413 13.996869929958175 -2 0 1
323 108 2 0.4238 30.88338545630337 4.196144907599071 15.296946474015266 0 1 2
489 163 2 0.4238 16.302923608682626 11.854614110866102 8.597772464240737 1 -2 2
427 143 1 -0.8476 17.122332399496067 12.568712301688498 11.96120269626033 -1 -2 2
1494 498 2 0.4238 22.929323494582164 9.344042519224827 9.930768343100205 -2 0 -1
833 278 2 0.4238 16.242577780362158 14.283953665732039 9.382015996559558 1 0 1
2603 868 2 0.4238 17.27726134641783 11.081419642499874 14.25348794106861 -2 0 1
487 163 1 -0.8476 16.233685040905563 11.712584804651234 9.585210629160196 1 -2 2
1496 499 2 0.4238 17.6713964208198 13.695998342527734 15.389512704843517 -1 3 2
681 227 2 0.4238 22.817726450414717 7.287028156321385 11.413658498604564 0 0 0
2823 941 2 0.4238 23.187248634117495 13.810854079570143 10.52660126361578 0 -1 0
2024 675 2 0.4238 30.83685484045815 6.759876936420619 8.663393030265434 -2 1 0
2183 728 2 0.4238 20.984024839084842 0.08356360843433294 10.056997028517626 2 2 0
832 278 1 -0.8476 16.24296304506227 14.702137017964697 8.473653229114712 1 0 1
429 143 2 0.4238 16.37150103331707 12.476113498459677 12.615173323188975 -1 -2 2
2283 761 2 0.4238 26.101841252105324 10.846331659320285 14.19434960542682 -1 3 0
2861 954 2 0.4238 18.80796380972296 8.951987996151939 14.951095478987403 -1 2 1
135 45 2 0.4238 25.794149311421737 13.61594664294173 11.149870496016508 3 2 1
2032 678 1 -0.8476 24.033925889806476 9.317055129001805 13.75528134860046 0 0 0
86 29 2 0.4238 30.72866725906342 12.458386782043638 11.987067264819848 0 1 1
2834 945 2 0.4238 24.823954995171 10.338717922357818 8.398055196739065 -4 -2 -2
1015 339 1 -0.8476 27.902074342311753 7.652098571602525 14.392858493782777 -1 1 1
882 294 2 0.4238 26.97428243130062 12.629646443893348 14.764534568097806 -1 -4 0
2968 990 1 -0.8476 30.000596783908914 9.841881154719763 8.964873095637689 0 -1 2
2969 990 2 0.4238 29.98874210763595 8.95918022658184 8.495087459011478 0 -1 2
2606 869 2 0.4238 30.269763705785653 14.361670711610563 11.025978793773502 -1 0 1
3043 1023 5 -1 25.981165695277003 9.431972286863795 15.46651265335915 0 0 -1
593 198 2 0.4238 24.092344147663603 11.540999214841102 10.106071874996067 1 -2 -1
1725 575 2 0.4238 27.29291178676498 13.194377269791708 8.618773144119421 2 1 0
594 198 2 0.4238 23.635006311812155 12.091707260024755 11.573787395570761 1 -2 -1
2033 678 2 0.4238 24.771706612156045 9.479091922250188 14.410585738480544 0 0 0
174 58 2 0.4238 28.02152032462811 8.432796119611162 9.321740971825333 -3 2 0
172 58 1 -0.8476 27.132252297625396 8.243630522715142 9.73817693609858 -3 2 0
1016 339 2 0.4238 27.368010287762104 8.332932829768433 14.894098543231689 -1 1 1
2525 842 2 0.4238 24.19664611718286 14.026024108962314 15.029796960049254 -2 -3 1
592 198 1 -0.8476 24.03455989209939 12.348093010299038 10.693660565428367 1 -2 -1
2833 945 1 -0.8476 24.011398680032674 10.344838335291707 8.980905869674755 -4 -2 -2
550 184 1 -0.8476 27.96015762112754 11.74789107823272 8.535281159356659 0 -1 -1
2900 967 2 0.4238 26.88188406365222 10.995626504470128 10.172048426629948 0 2 0
173 58 2 0.4238 26.50050614351701 7.910535470245078 9.038216214764512 -3 2 0
134 45 2 0.4238 26.857917930023802 13.083503876299977 12.268587395615848 3 2 1
2034 678 2 0.4238 23.796121025579993 10.176096093187066 13.301962951436384 0 0 0
2899 967 1 -0.8476 26.58833318270223 10.630866151697191 11.055664824530082 0 2 0
689 230 2 0.4238 23.303120427004814 12.053820949169607 14.48875338717946 2 -1 3
551 184 2 0.4238 28.767551423608083 11.228308900479293 8.814833484817273 0 -1 -1
2970 990 2 0.4238 30.48185251934806 9.749115586633101 9.836530984459586 0 -1 2
1723 575 1 -0.8476 26.972575706249852 14.134574681906857 8.73459016168901 2 1 0
2607 869 2 0.4238 29.008447900145214 13.528737574713531 10.407972902230723 -1 0 1
133 45 1 -0.8476 26.754244520493923 13.617594899570614 11.429540518025194 3 2 1
2035 679 1 -0.8476 19.256572661239 0.45817734200977545 10.79747065428482 0 2 1
1675 559 1 -0.8476 27.50609366198136 0.07938692156982832 14.918612044664844 -2 2 1
2363 788 2 0.4238 30.954151403268234 1.8162833946519445 8.11447365952767 -1 -2 3
2554 852 1 -0.8476 21.55398588858851 10.920790405823821 7.903504517159245 -1 1 0
1993 665 1 -0.8476 30.959495511726455 9.990447627208066 15.118577251059598 0 -2 1
534 178 2 0.4238 15.95018321772608 0.970843363954228 15.445458770405626 -1 2 -2
181 61 1 -0.8476 27.23583325364326 4.581559193672332 7.765023177471191 1 3 2
758 253 2 0.4238 29.403112698173253 0.33865377145838765 20.679461374220324 1 5 -1
243 81 2 0.4238 21.950730085694342 15.45918996570398 19.423847181383962 -2 1 1
1959 653 2 0.4238 19.68811873074951 7.371708395492965 16.45530335066676 -1 0 -3
1958 653 2 0.4238 19.726894447498402 5.8496096148886325 17.045505186422822 -1 0 -3
1957 653 1 -0.8476 20.0288906723715 6.791157857984698 17.194786610694777 -1 0 -3
22 8 1 -0.8476 20.400465254271708 3.268602144474137 20.17380192851952 1 1 0
23 8 2 0.4238 20.601565974334672 2.322728050927842 20.42852043495511 1 1 0
24 8 2 0.4238 21.244107550644262 3.805205629560994 20.19181976999829 1 1 0
1786 596 1 -0.8476 17.345240632260722 1.0144936687853996 20.982468414566082 -3 0 -3
1467 489 2 0.4238 27.27152630401708 10.618990326848323 18.91367514379212 0 0 -1
1787 596 2 0.4238 17.32964688610851 1.7781318401436255 20.337012389777616 -3 0 -3
440 147 2 0.4238 17.419264658658122 4.801343279138855 20.913797524569723 -1 0 2
439 147 1 -0.8476 18.271891335686707 5.166104842092484 21.287932229685588 -1 0 2
691 231 1 -0.8476 18.17229043367523 2.4206963057787085 18.658816229125847 -1 -1 -1
1712 571 2 0.4238 18.273386899384015 6.434817755134759 20.279057722284325 -1 3 -3
1713 571 2 0.4238 18.82519484006 7.1164586748436465 18.90155963970481 -1 3 -3
1711 571 1 -0.8476 18.191980193553135 7.222402326864006 19.66825085347271 -1 3 -3
441 147 2 0.4238 18.921786152730114 4.4187914988560815 21.426349610004518 -1 0 2
2147 716 2 0.4238 21.32342337509757 6.415022694106254 18.593871783138063 -2 1 1
692 231 2 0.4238 18.951572051878006 2.6433841207592894 19.244589075101175 -1 -1 -1
741 247 2 0.4238 16.34569607749205 2.6147025161965542 18.031204168164376 0 4 3
693 231 2 0.4238 18.31234132104748 2.818693251648109 17.75218281782995 -1 -1 -1
2395 799 1 -0.8476 26.66568746531703 15.344309600569801 22.132535997072864 -1 0 1
1019 340 2 0.4238 21.65579176224353 4.21759770125027 23.072683294239127 1 3 1
2918 973 2 0.4238 21.42268332853631 2.1574577179308845 22.364554171072843 1 -1 -1
2917 973 1 -0.8476 21.441308720118567 1.3195511910508901 21.81905827273915 1 -1 -1
2919 973 2 0.4238 20.988968497732113 0.5836773484945205 22.32292136287052 1 -1 -1
1349 450 2 0.4238 22.207704791112107 7.80640826036771 20.003543784265656 -1 2 0
1773 591 2 0.4238 30.803898361773495 8.338934137793764 18.820949319488946 -1 2 0
2388 796 2 0.4238 28.06300860551002 1.3616830522781675 16.172927720016318 2 2 4
5 2 2 0.4238 18.70696000663429 6.485101295385808 22.455757900417602 1 2 -1
1080 360 2 0.4238 24.2014733098586 8.751983591715348 20.383831509701228 0 0 -1
1788 596 2 0.4238 17.385064312231904 1.3685850741863452 21.9168308498299 -3 0 -3
2764 922 1 -0.8476 25.205704640992142 10.93626617274679 21.94699223459388 0 0 -1
2286 762 2 0.4238 30.89841496195487 12.23784052897392 21.59596049291056 -1 0 -1
2733 911 2 0.4238 23.144696718540143 1.3043144441666654 20.932628867051786 1 -1 3
2925 975 2 0.4238 20.826025570380843 3.8643609925247446 16.807986378449545 0 0 -2
2146 716 1 -0.8476 21.977007584873707 6.213322775624405 19.323354278307647 -2 1 1
868 290 1 -0.8476 22.29179944111085 5.397742592005025 21.95626469229004 4 0 -2
869 290 2 0.4238 21.84561495390069 5.756093807821419 21.13620097754286 4 0 -2
870 290 2 0.4238 22.744657520034142 6.144873450093153 22.44279967907325 4 0 -2
2878 960 1 -0.8476 15.850093434766363 4.3267156835719405 20.192491103697776 -2 -1 2
1129 377 1 -0.8476 22.559044049321095 3.675457073143743 16.618050882014057 -1 -1 0
1874 625 2 0.4238 22.458800880079558 0.6142696083806078 17.445989319143994 2 0 -3
2880 960 2 0.4238 15.611098680549784 4.114959078924971 19.244840945837364 -2 -1 2
690 230 2 0.4238 24.119424240086605 11.793184670883461 15.878840913221659 2 -1 3
1151 384 2 0.4238 25.15734196610312 12.462716027657894 17.799509875803043 -1 -2 2
1131 377 2 0.4238 23.177119506076327 3.709258721583404 15.83265924835462 -1 -1 0
1771 591 1 -0.8476 30.87851019814428 8.148524531364966 17.842084089204548 -1 2 0
2923 975 1 -0.8476 19.87072365730914 4.075552505416846 16.601113437752932 0 0 -2
1152 384 2 0.4238 26.08883707272801 13.253232791631007 18.883034933020948 -1 -2 2
583 195 1 -0.8476 16.389169830414826 12.445316866101653 15.65188118308348 -1 0 2
1426 476 1 -0.8476 30.50499530618462 2.915775621685957 18.089984552263566 -2 2 -2
2971 991 1 -0.8476 26.130983849057525 0.8716058547974206 18.54073209020234 3 1 0
2973 991 2 0.4238 26.724547996439924 1.2996658872478826 17.85922857835652 3 1 0
2148 716 2 0.4238 22.873259018848085 6.020446286949579 18.92393980051211 -2 1 1
1873 625 1 -0.8476 23.32030430868808 1.1161739020433143 17.369148205262473 2 0 -3
1130 377 2 0.4238 22.77025150421891 2.8715611570274766 17.17405691159048 -1 -1 0
1291 431 1 -0.8476 28.51212106825069 4.245272189228711 20.13922797069677 -1 -3 0
1293 431 2 0.4238 27.72453012037779 4.767797665370934 19.812627843050674 -1 -3 0
2386 796 1 -0.8476 27.8979777230107 2.1267505061399907 16.795371943007 2 2 4
2490 830 2 0.4238 27.211188203337617 5.47472988185122 17.08723791338744 -2 1 0
2488 830 1 -0.8476 26.72257557062046 4.73687883398938 16.621582957124904 -2 1 0
2489 830 2 0.4238 27.068324335149704 3.8545956512122626 16.94101165105531 -2 1 0
215 72 2 0.4238 24.732622834885657 5.388038180765369 17.3652735346951 1 1 1
2964 988 2 0.4238 25.039491552279152 3.6943944497471857 22.483376101767163 1 1 -2
2696 899 2 0.4238 25.687943785514676 5.303714235756248 20.583855122739276 4 3 2
2695 899 1 -0.8476 26.20976462291707 5.554683326662151 19.76855237422075 4 3 2
2697 899 2 0.4238 25.595245192597577 5.958102745821211 19.09060037736864 4 3 2
2963 988 2 0.4238 24.00341644887583 4.728547236877224 21.759703112051 1 1 -2
2962 988 1 -0.8476 24.965744935862368 4.541405744352331 21.956941031877943 1 1 -2
216 72 2 0.4238 24.882988860326048 6.9888098980130895 17.650836995327694 1 1 1
891 297 2 0.4238 28.074758462387624 1.4686354312642154 21.86520895081122 2 0 -1
890 297 2 0.4238 28.200377689399563 2.5107319469933307 20.61425663388516 2 0 -1
214 72 1 -0.8476 24.333607087282505 6.174266316072828 17.837112227021827 1 1 1
2387 796 2 0.4238 28.753199857359643 2.3781960397092092 17.248550207183385 2 2 4
889 297 1 -0.8476 28.27784488418225 1.5525256314390132 20.889648286956653 2 0 -1
461 154 2 0.4238 28.12327516507382 7.40627321726217 21.2213995034393 0 0 -1
2122 708 1 -0.8476 27.418863568215937 5.930641174489528 22.617053201694123 -2 -1 -2
1875 625 2 0.4238 23.825848494222253 1.0441524816029175 18.228937818942796 2 0 -3
2972 991 2 0.4238 26.346392559106434 1.236399562818543 19.44656040032184 3 1 0
2731 911 1 -0.8476 24.07036957095982 1.0734855914698485 20.63288287577694 1 -1 3
2517 839 2 0.4238 20.91629798187525 14.936421630216564 22.333235028405422 0 0 -1
2123 708 2 0.4238 28.292197487199108 5.478246332655039 22.79768241233572 -2 -1 -2
1466 489 2 0.4238 27.892159468804593 11.542373021959133 20.10900154944609 0 0 -1
1841 614 2 0.4238 29.809612518910527 12.504761514427196 18.228381608100303 -1 0 -1
1079 360 2 0.4238 25.18130563786402 8.731513399238663 19.077640074352377 0 0 -1
1292 431 2 0.4238 29.341538431525695 4.794811067714641 20.038859627950018 -1 -3 0
6 2 2 0.4238 19.811062399425126 7.470144287674758 23.14660838933477 1 2 -1
2575 859 1 -0.8476 30.840315960866814 5.616245280544621 19.74298705547299 0 1 2
1150 384 1 -0.8476 25.337251680584533 13.34714186377694 18.230118026262787 -1 -2 2
978 326 2 0.4238 27.539442249323812 8.02789199238655 17.45956878900646 -2 3 0
1942 648 1 -0.8476 28.09548101311347 13.389615206796508 20.79881119618362 0 1 -3
1428 476 2 0.4238 30.07029730335981 3.353916720904273 18.876794704435074 -2 2 -2
2766 922 2 0.4238 25.143989297427538 11.929243596726835 21.84606110790863 0 0 -1
2397 799 2 0.4238 26.402920614729 15.385854208596736 23.09650055229004 -1 0 1
632 211 2 0.4238 21.95781257424158 8.438646108734444 16.612444841622132 0 0 -1
631 211 1 -0.8476 22.688001986157825 8.083282940270191 16.028886488896173 0 0 -1
3012 1012 3 2 26.543503663521562 9.593308091172485 21.346797172011758 0 0 -1
1348 450 1 -0.8476 22.461463221504182 8.700014229215654 20.3737800251337 -1 2 0
21 7 2 0.4238 21.591070119258227 8.57206800168457 21.92247938651561 -1 -3 -3
19 7 1 -0.8476 21.182105535188608 8.43883138745138 22.825250620481114 -1 -3 -3
1462 488 1 -0.8476 15.70897673440182 12.040453224159808 20.388676668129897 -2 1 2
1463 488 2 0.4238 16.154897465156647 11.168043192612553 20.18853818975018 -2 1 2
1308 436 2 0.4238 17.536369534426576 8.757427811543632 19.727196882799674 1 2 0
102 34 2 0.4238 18.487171846995683 12.977939517885604 22.238186701990045 -1 -1 0
1593 531 2 0.4238 17.617582790160252 9.802990598314683 21.61351532037264 -2 2 -1
1350 450 2 0.4238 22.325683160574957 9.401456395868928 19.674106805090805 -1 2 0
2294 765 2 0.4238 19.091976658098897 10.606342156149974 17.011369933808936 2 -2 1
2716 906 1 -0.8476 22.373608898019906 13.661890116543669 19.863216745655837 -2 2 -2
2840 947 2 0.4238 23.946306560468425 13.966594256070437 22.612308516419564 0 3 1
2293 765 1 -0.8476 18.14679939405169 10.302975032582246 17.13223738599649 2 -2 1
2022 674 2 0.4238 20.556734722038318 10.300703983957213 20.572884589223392 -1 -1 0
2020 674 1 -0.8476 20.524617618782298 11.271644326078864 20.33572761853801 -1 -1 0
2021 674 2 0.4238 20.966049270708794 11.413107149954572 19.449653976036004 -1 -1 0
2804 935 2 0.4238 20.09685460964177 12.418546052958083 21.620954389631567 -2 1 -1
1306 436 1 -0.8476 17.226212869687927 9.705014424828063 19.803893986411374 1 2 0
1307 436 2 0.4238 17.345551829944455 10.166958184112957 18.925050309926494 1 2 0
2803 935 1 -0.8476 20.198697615831126 13.25226048884824 22.16367726251462 -2 1 -1
713 238 2 0.4238 21.69826297423916 10.766638426342022 17.58574232659909 0 -1 -2
712 238 1 -0.8476 22.35534166346359 10.385051961508026 18.235849368564445 0 -1 -2
100 34 1 -0.8476 17.546088610507187 13.110240761700057 22.549409739793294 -1 -1 0
2295 765 2 0.4238 17.596191300896958 10.610566450476634 16.35620991910475 2 -2 1
2717 906 2 0.4238 21.55313724356176 13.2165988320173 20.22174470455654 -2 2 -2
2959 987 1 -0.8476 21.93190432615325 13.908079219514475 17.074088680081427 -2 0 -2
2227 743 1 -0.8476 20.66312816224899 11.661494361256706 16.6019814625769 -1 1 1
2229 743 2 0.4238 21.005689590644362 12.552458813218932 16.900031526723698 -1 1 1
1591 531 1 -0.8476 17.766932587982147 9.709998817592892 22.59791711670944 -2 2 -1
1464 488 2 0.4238 16.35165746433247 12.642237271914253 20.862825809912252 -2 1 2
294 98 2 0.4238 21.37785464455305 15.114779355246679 15.93154702582752 4 0 -2
1592 531 2 0.4238 17.469977122138708 8.802780686180526 22.89586436646916 -2 2 -1
3042 1023 5 -1 25.08286819059744 11.021609603044595 16.942026889093665 0 0 -1
2004 668 2 0.4238 16.13631485135137 14.436647086864443 22.136663708798153 3 2 0
2805 935 2 0.4238 20.352793626456265 13.009715425544822 23.121500945155965 -2 1 -1
1078 360 1 -0.8476 25.136030951133222 8.903199509193186 20.0617509494482 0 0 -1
322 108 1 -0.8476 30.6649736668287 4.7419078833627255 16.10592056743681 0 1 2
584 195 2 0.4238 15.91208522356102 12.302939866838589 16.519129184675517 -1 0 2
881 294 2 0.4238 27.796225200408067 13.160162566070808 16.07204750352507 -1 -4 0
564 188 2 0.4238 25.500862019373702 14.95163387578314 17.78471817519065 -1 -1 0
324 108 2 0.4238 30.547333644348697 4.13755005483062 16.893900549894838 0 1 2
2924 975 2 0.4238 19.63925100184035 3.719811461620682 15.695647427102179 0 0 -2
1840 614 1 -0.8476 30.02202940411615 13.1863952444301 18.92856341928338 -1 0 -1
3028 1020 5 -1 27.83352877459523 10.308418528770847 22.47057702941775 0 0 -1
2841 947 2 0.4238 25.128586256100828 14.314641920787025 21.54099922371844 0 3 1
3039 1023 4 2 25.82778098470908 9.783264189340944 16.862064020627884 0 0 -1
462 154 2 0.4238 28.451820931427623 8.158372707269812 19.8096522007407 0 0 -1
2960 987 2 0.4238 22.421229529943957 13.843173042831815 17.94377109231679 -2 0 -2
3027 1020 5 -1 30.108222459893327 10.926235096828606 22.43429979991948 0 0 -1
2839 947 1 -0.8476 24.367502946458156 13.699125910227698 21.74567470893531 0 3 1
2811 937 2 0.4238 30.252235434392748 9.815718761317067 21.139145786815572 -1 -1 2
2765 922 2 0.4238 24.440231583290455 10.609355666939292 22.501230846333346 0 0 -1
1943 648 2 0.4238 28.1690991353501 12.946473590767656 21.69223487837501 0 1 -3
2941 981 1 -0.8476 25.866786356879068 8.388080107256835 22.786763945978247 0 0 -1
2438 813 2 0.4238 28.719941546879117 10.743334698603006 16.714225808366372 -1 0 -1
1944 648 2 0.4238 27.675193996825545 14.290507781630717 20.907215008034616 0 1 -3
3041 1023 5 -1 27.06040297000617 9.905138600128225 17.417627463539816 0 0 -1
633 211 2 0.4238 23.528051239297984 7.992985860354559 16.563829197919535 0 0 -1
460 154 1 -0.8476 27.97365072178103 8.236504459736127 20.6844371138127 0 0 -1
984 328 2 0.4238 30.799327260530177 7.857802046271323 15.868114276023604 -1 -1 1
2439 813 2 0.4238 30.160408639922647 11.257346030994022 16.141972680311316 -1 0 -1
977 326 2 0.4238 29.039887408344566 7.393656340417363 17.573743879229994 -2 3 0
2437 813 1 -0.8476 29.444567036611122 11.424315795304327 16.819979074217166 -1 0 -1
714 238 2 0.4238 23.279445011211347 10.466880079748426 17.86257073126398 0 -1 -2
2961 987 2 0.4238 22.542181058970975 13.642745855156372 16.32765703509546 -2 0 -2
2718 906 2 0.4238 23.171883172210116 13.358461369956531 20.3834955779103 -2 2 -2
1842 614 2 0.4238 29.18304386219106 13.445077809188563 19.407297829155098 -1 0 -1
3040 1023 5 -1 25.04149783312394 8.620728545809671 17.40570025407962 0 0 -1
1465 489 1 -0.8476 27.241586200489156 10.813993103425538 19.894020802048267 0 0 -1
2943 981 2 0.4238 26.31465672541367 7.511221493421408 22.961494879894573 0 0 -1
976 326 1 -0.8476 28.06380425939339 7.179741615539527 17.534976935324217 -2 3 0
2942 981 2 0.4238 24.9152663942786 8.34282281588003 23.091003171219256 0 0 -1
2124 708 2 0.4238 26.70339510588082 5.241169582244152 22.50420654410831 -2 -1 -2
2903 968 2 0.4238 24.524149792580882 1.5955412889178275 22.73863376963405 1 3 0
2732 911 2 0.4238 24.033526896667066 0.29433539046621254 20.007129418836712 1 -1 3
739 247 1 -0.8476 15.499455367027547 3.0089863434003803 17.672851261914275 0 4 3
2809 937 1 -0.8476 30.673630935444326 9.124832166039807 20.551692428840152 -1 -1 2
1137 379 2 0.4238 24.137632559758273 1.147004855710106 15.982419321261316 -1 0 -1
2228 743 2 0.4238 20.58182351957646 11.652053722819083 15.605336834530858 -1 1 1
1444 482 1 -0.8476 30.806800390964085 3.0540559722521796 22.377384215669867 0 3 2
3024 1020 4 2 28.880573259585056 10.944221703449196 23.18667098397441 0 0 -1
983 328 2 0.4238 30.486296777352752 6.283590967510838 15.567285892096658 -1 -1 1
521 174 2 0.4238 16.233349965706907 5.463478393903826 15.647527217139277 -1 0 0
2159 720 2 0.4238 17.40125742434757 2.781686271589344 23.74658184537621 -3 -1 1
2932 978 1 -0.8476 19.956315700615587 3.422565425091936 25.75760046786183 0 2 1
2158 720 1 -0.8476 17.452328371993502 1.8092340887261453 23.519141269447744 -3 -1 1
2160 720 2 0.4238 16.72870474514845 1.3156437965787118 24.00157097691667 -3 -1 1
2933 978 2 0.4238 20.110509539629216 3.1206057763372375 26.698368578931664 0 2 1
884 295 2 0.4238 23.067733375564686 6.5946254589161395 28.323956229857544 0 1 -3
2934 978 2 0.4238 19.03208573601973 3.79522728556517 25.67439862692769 0 2 1
1040 347 2 0.4238 21.168579648401398 4.869715765411665 28.46238680836843 1 1 0
1039 347 1 -0.8476 21.619190914109478 5.759171039825772 28.53866917441592 1 1 0
2369 790 2 0.4238 18.728116525643596 5.18094817051946 29.370645485160782 -1 0 0
2772 924 2 0.4238 17.69454224700175 6.0396272025476705 27.41419432567142 0 0 0
3077 1030 5 -1 19.696857819684666 7.631349576782135 28.62723624283257 0 0 0
2368 790 1 -0.8476 18.50269166208713 4.663791461109396 28.544973951647684 -1 0 0
2370 790 2 0.4238 18.038745940455915 3.815259100318775 28.799428845852677 -1 0 0
1041 347 2 0.4238 20.928010336905672 6.476638697794247 28.62533408741129 1 1 0
2443 815 1 -0.8476 29.42933255614359 0.12412481978896396 26.979754508415763 -2 1 -2
2770 924 1 -0.8476 17.511900256283646 6.832745838753911 26.833156806605768 0 0 0
2777 926 2 0.4238 18.136605488587456 5.235324970670496 23.7860134375423 0 1 0
2213 738 2 0.4238 18.914156525318873 0.4978835690159937 29.610546525215177 -2 -1 -1
2771 924 2 0.4238 16.716322606060757 6.64726084650379 26.256397276073297 0 0 0
2212 738 1 -0.8476 18.81462629194834 1.4311961490856657 29.265551151870095 -2 -1 -1
2214 738 2 0.4238 18.93618581202242 1.4343845852642756 28.272971955089044 -2 -1 -1
2778 926 2 0.4238 16.73008350244506 4.573625364193087 24.286489420251332 0 1 0
2429 810 2 0.4238 20.08249106184869 1.7440794409098517 24.877795408468657 1 -1 -3
695 232 2 0.4238 22.302435305980666 15.39718686323837 27.020989510540307 0 1 0
55 19 1 -0.8476 21.14688441121546 2.9564976454970635 29.4338163070541 -3 0 2
2776 926 1 -0.8476 17.723737892149433 4.462644554458275 24.26820186883242 0 1 0
2787 929 2 0.4238 27.79493849425015 0.16536458457828315 29.48304723270458 -2 2 2
3075 1030 5 -1 18.830735869355316 6.572297889080773 30.5608172477504 0 0 0
1560 520 2 0.4238 17.691357423387664 2.3507109341298116 30.2435913525885 -1 1 0
2428 810 1 -0.8476 20.190797936648394 0.7941712863301775 24.58463167952397 1 -1 -3
1018 340 1 -0.8476 21.541505125187047 3.3413344008080332 23.54076700201131 1 3 1
2430 810 2 0.4238 19.649679414586345 0.6365187458101573 23.75859470900317 1 -1 -3
1459 487 1 -0.8476 15.945443387677589 6.3565358087153765 30.737662714187373 2 0 2
2534 845 2 0.4238 19.42469326726048 7.592409974815286 24.859575575559983 0 0 0
1461 487 2 0.4238 16.863933091753825 6.7363315243602315 30.627514837142293 2 0 2
1020 340 2 0.4238 20.988786169021946 3.4726518463909875 24.36372448877819 1 3 1
2012 671 2 0.4238 28.071037249492747 2.4706809071690135 23.65393575330079 3 -2 1
1924 642 1 -0.8476 23.48998582194956 7.415693816446999 23.479346191872445 -1 1 1
2966 989 2 0.4238 19.842160381038468 0.2735352669749867 26.063877929667605 1 -1 0
4 2 1 -0.8476 19.037149152453 6.861451992179896 23.321399383719704 1 2 -1
1368 456 2 0.4238 30.51470550148687 9.787226943304416 28.23659882533749 -3 0 -1
883 295 1 -0.8476 23.867344798937246 7.183579277404215 28.2066743839757 0 1 -3
2536 846 1 -0.8476 25.30375466193785 2.7637500015961347 25.960487980243368 -2 0 -2
2538 846 2 0.4238 25.266681704681016 2.3882837531073227 25.034394103443596 -2 0 -2
2537 846 2 0.4238 24.892775199179134 2.1142281139317984 26.60018878576442 -2 0 -2
1871 624 2 0.4238 24.37816595905117 4.818192990561051 25.997984593855232 2 -1 -1
1870 624 1 -0.8476 24.044440665494243 5.76049820646993 25.971742727887953 2 -1 -1
1925 642 2 0.4238 23.68213627912948 7.001400689722131 24.36897545704923 -1 1 1
2785 929 1 -0.8476 27.57550669612309 0.9082288003963985 28.850589006435325 -2 2 2
2858 953 2 0.4238 30.517240916799548 8.140477859585573 29.574386962032445 3 0 0
2715 905 2 0.4238 27.713512557173345 7.952775140001897 28.738182340097683 -1 1 -2
2015 672 2 0.4238 30.240619427630456 5.740824435277202 28.89177679838985 0 0 3
2016 672 2 0.4238 28.941015456131737 5.577914453476651 27.916524949578246 0 0 3
2017 673 1 -0.8476 25.589064609950324 5.32005571176783 29.821057992310024 2 5 -3
1872 624 2 0.4238 24.32792683140916 6.237781363761942 26.803510473070865 2 -1 -1
638 213 2 0.4238 28.17462260920225 7.5098810245582595 24.960879355623813 1 -2 0
2127 709 2 0.4238 27.85136458385253 4.294452520022878 25.255190943633114 -1 -2 0
2126 709 2 0.4238 27.025757415144238 3.5055830161480297 26.42253157342663 -1 -2 0
2125 709 1 -0.8476 27.56919033678548 4.318785770405523 26.214245956035903 -1 -2 0
1719 573 2 0.4238 27.037467141145335 7.309228283158199 26.9843514726538 -3 -2 0
1386 462 2 0.4238 28.413989647503453 4.48008645768069 29.548766676877662 2 0 0
1718 573 2 0.4238 27.581510622446636 5.7718824052538436 27.069266682429678 -3 -2 0
1717 573 1 -0.8476 27.277367852980525 6.5610090091950966 27.602910758591467 -3 -2 0
2018 673 2 0.4238 25.234209552484753 5.875222263695635 30.57330016231025 2 5 -3
2335 779 1 -0.8476 24.970491093466823 0.6717462671898682 27.82538363619829 0 -1 1
282 94 2 0.4238 29.461347432555282 2.7704158928235794 25.507391524592215 -1 2 3
2019 673 2 0.4238 26.063463799311993 5.90920196413325 29.166953858392304 2 5 -3
281 94 2 0.4238 29.677850078470634 3.671504679270712 26.851933143840963 -1 2 3
1547 516 2 0.4238 24.526778745541964 3.635146331235011 29.406351679267253 0 0 -3
280 94 1 -0.8476 29.99212554842158 2.866032957970596 26.3494919137552 -1 2 3
1385 462 2 0.4238 27.023473745591904 4.122362348892576 30.326664775281323 2 0 0
1469 490 2 0.4238 28.696032528350955 15.03115294596253 25.093889320266598 -1 0 -1
2014 672 1 -0.8476 29.678021598784248 5.089018115742317 28.383217852697477 0 0 3
1709 570 2 0.4238 30.63637335096804 6.364103660469343 25.559005511005893 2 0 0
1930 644 1 -0.8476 15.521396141887648 14.86312467005846 26.771607350398675 0 0 0
1710 570 2 0.4238 30.295281281909674 5.382575641111955 24.299289148537415 2 0 0
1708 570 1 -0.8476 29.91351331834257 6.040426520047461 24.948508199720745 2 0 0
2444 815 2 0.4238 29.87447813057675 0.9435440058275305 26.618648414690295 -2 1 -2
2647 883 1 -0.8476 27.28256149879968 0.7931357118569092 23.625661874164255 -2 -2 0
1548 516 2 0.4238 24.301176015535884 2.1394445038631447 28.79104155101419 0 0 -3
1546 516 1 -0.8476 24.104756180275757 2.742416298514965 29.564245667713216 0 0 -3
2336 779 2 0.4238 25.12648120346361 0.3201125561697582 26.902333875480277 0 -1 1
1366 456 1 -0.8476 30.59156312383433 9.967313066603483 29.217242440055973 -3 0 -1
2337 779 2 0.4238 25.84385588254586 0.7418180372205964 28.30738350415696 0 -1 1
885 295 2 0.4238 23.814797135504868 7.9486650072824325 28.8484551770815 0 1 -3
1651 551 1 -0.8476 15.743757840264031 0.6165415080551623 29.132666530296987 1 -1 -1
2648 883 2 0.4238 26.456911756695362 0.477392987943948 24.093218307273954 -2 -2 0
3025 1020 5 -1 28.4903105858313 12.31089643206186 23.555182229693926 0 0 -1
395 132 2 0.4238 15.778936467749247 5.576015080833565 29.09983530942628 0 0 3
2741 914 2 0.4238 30.682111685258707 3.874373480768559 29.207188676147933 -2 0 2
56 19 2 0.4238 20.547451855213975 2.3360749637686093 29.93953989637951 -3 0 2
101 34 2 0.4238 17.53995544998525 13.260230563526392 23.538078805773864 -1 -1 0
2786 929 2 0.4238 27.74526891394392 1.7869252473323356 29.29676620752023 -2 2 2
3036 1022 5 -1 27.384240934722317 15.222057789821415 28.921527354278556 -1 0 -1
2949 983 2 0.4238 22.557954533611653 7.649379402095509 26.288376702731743 1 3 0
941 314 2 0.4238 16.58525109033169 10.67646016449736 23.840059274732123 1 3 0
2699 900 2 0.4238 28.006082911004643 11.52517332054114 30.440165760094686 0 1 -3
1384 462 1 -0.8476 27.906217991687452 3.7621690160025407 30.024962999237168 2 0 0
211 71 1 -0.8476 23.93845597183089 11.755146484175851 26.281798182283467 0 0 -1
940 314 1 -0.8476 16.14842164425028 11.18073193448112 24.584968617175047 1 3 0
2357 786 2 0.4238 30.780882961993306 1.717732814933924 30.46474643650852 -3 -4 -2
3078 1030 5 -1 20.17999664298786 8.470457081679461 30.717939621743703 0 0 0
1631 544 2 0.4238 22.796564190801195 11.067844835687222 23.832895319768234 -4 2 -1
482 161 2 0.4238 20.0921271379443 11.338590310003394 24.30234606539021 -1 0 4
696 232 2 0.4238 20.686048711901105 15.165326068338441 27.008288130811636 0 1 0
1156 386 1 -0.8476 16.031187878527376 10.026801266184878 30.2788072636872 -1 1 1
942 314 2 0.4238 16.57202331564369 12.082548539083936 24.670340537637216 1 3 0
1932 644 2 0.4238 16.03996810309196 14.267007573838653 26.158641185773895 0 0 0
694 232 1 -0.8476 21.51941917521236 15.076203597142296 27.553770368307955 0 1 0
3074 1030 4 2 19.208434047188792 7.7839896237947075 29.951730068676063 0 0 0
746 249 2 0.4238 16.012541243047984 9.163116289181986 26.898662458886623 0 0 0
3017 1017 3 2 21.474329569349003 14.760768621249154 29.601161563640574 0 1 0
2535 845 2 0.4238 20.573952552297133 8.517098188487886 25.560132559683755 0 0 0
2594 865 2 0.4238 17.490798302140636 13.92814634575535 29.9899142200675 0 0 0
1158 386 2 0.4238 16.644074014766524 9.404835664401133 29.791437408502777 -1 1 1
3103 1035 5 -1 21.67209908627944 10.881199949284367 30.352744521001064 0 0 0
2593 865 1 -0.8476 17.285015899579943 14.101804459522794 29.02684800464558 0 0 0
601 201 1 -0.8476 20.57255856535807 13.135083495413262 29.257688310386463 0 1 0
3033 1021 5 -1 17.4724749297289 13.432561151751253 25.38097091764034 0 0 -1
743 248 2 0.4238 22.890438049940958 13.761847646720136 24.353039153442083 1 -1 -2
3030 1021 5 -1 19.81851890876377 12.763347229664415 25.086994220104174 0 0 -1
3032 1021 5 -1 18.801657128721217 12.736170373284022 27.28385399571794 0 0 -1
2533 845 1 -0.8476 19.600135795830617 8.289837405788864 25.554424380393666 0 0 0
3015 1015 3 2 18.609640419898913 8.481264605196044 27.37730999633046 0 0 0
742 248 1 -0.8476 22.49833587034139 12.84193170773689 24.356288918321926 1 -1 -2
744 248 2 0.4238 21.60353634701187 12.86257389057499 24.80227936048794 1 -1 -2
3076 1030 5 -1 18.090484059150928 8.445729633671666 29.358311729217142 0 0 0
194 65 2 0.4238 20.54974745625738 10.241813250472543 27.946139241743342 0 0 0
193 65 1 -0.8476 19.64732483036893 10.181376753231639 27.519546951181017 0 0 0
195 65 2 0.4238 19.27079048520406 11.100608971117044 27.404506981600555 0 0 0
3102 1035 5 -1 22.29900960550104 10.394498512554096 28.128496466063982 0 0 0
745 249 1 -0.8476 16.968201273603377 9.341885316149785 26.66466329313493 0 0 0
747 249 2 0.4238 17.01450658484417 10.084918243283537 25.9970124791617 0 0 0
602 201 2 0.4238 19.858128627381117 12.888819395115114 28.602750278566816 0 1 0
3029 1021 4 2 18.839048887576624 13.422454616560543 25.987739587903945 0 0 -1
640 214 1 -0.8476 23.27493559268769 13.92702315246409 29.551546199775448 0 1 0
2595 865 2 0.4238 17.821666665075625 13.481957008395435 28.454314129016243 0 0 0
603 201 2 0.4238 20.846744420372787 12.323035700996641 29.77285861677823 0 1 0
3099 1035 4 2 22.695359540817737 10.458153800192976 29.530241512149573 0 0 0
3101 1035 5 -1 22.838415670319275 9.175534743015346 30.141516521278238 0 0 0
3031 1021 5 -1 19.21764498971688 14.89162163491987 26.262358300026495 0 0 -1
2947 983 1 -0.8476 22.341457171326162 8.552254756760208 25.916967276928336 1 3 0
2948 983 2 0.4238 22.31306012006033 9.220442185420435 26.66041812915736 1 3 0
1632 544 2 0.4238 22.947186096769705 9.582285801570743 24.493995508521397 -4 2 -1
555 185 2 0.4238 17.69912603677107 11.142414254386564 30.683764632348538 0 -3 -2
57 19 2 0.4238 21.9699081486566 3.137433650285739 29.972234470169784 -3 0 2
481 161 1 -0.8476 20.02035558112944 10.652838771809762 23.578057657418057 -1 0 4
1757 586 2 0.4238 30.471581544118497 10.093849895832635 25.781949793230556 0 2 1
318 106 2 0.4238 26.498430674618227 13.934164209911357 28.084504293093673 0 0 -1
212 71 2 0.4238 23.38996068526247 11.453781117090191 27.06175453542669 0 0 -1
1920 640 2 0.4238 30.92508947206663 7.905295818849825 24.150225565434948 -4 0 1
1618 540 1 -0.8476 30.126941785388723 14.31314709861716 24.088984734490634 1 0 2
2904 968 2 0.4238 23.546277112457986 2.269594905658351 23.859367008689414 1 3 0
637 213 1 -0.8476 27.77841516243438 8.253390677761303 25.499593520758463 1 -2 0
325 109 1 -0.8476 26.2370976291474 12.887409881161979 24.755802841395838 0 0 -1
769 257 1 -0.8476 27.886259048290807 11.375450328919591 26.542758708029158 0 0 -1
641 214 2 0.4238 23.96485206410037 14.63514354522744 29.701814334632225 0 1 0
2649 883 2 0.4238 28.035081292622557 0.16262771016583763 23.815855483828553 -2 -2 0
3062 1027 5 -1 23.53217264624911 15.240375567089153 24.09145315336612 -1 0 -1
1926 642 2 0.4238 22.58184919360994 7.834051896248171 23.495655303613994 -1 1 1
1653 551 2 0.4238 15.875609625434024 1.5239298486159085 29.531742364900825 1 -1 -1
1654 552 1 -0.8476 25.740772656523216 10.17731327514833 25.300771362275153 0 0 -1
2714 905 2 0.4238 27.517303460595855 8.719715643096034 30.166443867315387 -1 1 -2
3061 1027 5 -1 24.028885389142236 15.26534164215769 26.376781432106863 -1 0 -1
3018 1018 3 2 25.924744726651166 11.774540499274393 26.32673857011969 0 0 -1
770 257 2 0.4238 28.34214739943337 10.986968372817831 25.74197933603128 0 0 -1
3026 1020 5 -1 29.090456978355625 10.232357376476257 24.38312841040749 0 0 -1
2698 900 1 -0.8476 28.96707818191587 11.762730345816072 30.29855244721847 0 1 -3
2713 905 1 -0.8476 27.518608215016478 8.83206009216413 29.172775294814283 -1 1 -2
317 106 2 0.4238 25.02321039873355 14.034546973363232 27.391485643525414 0 0 -1
1558 520 1 -0.8476 16.82239737554345 2.7894895662893253 30.472461751262816 -1 1 0
92 31 2 0.4238 26.46616093531184 14.569807995755303 30.280951277765503 5 -1 -1
3100 1035 5 -1 23.88452190585572 11.231775542117683 29.702613498098742 0 0 0
771 257 2 0.4238 28.57097565173571 11.62694019188387 27.226802546256746 0 0 -1
1655 552 2 0.4238 24.950734709617446 10.020568554418633 24.708090459793315 0 0 -1
788 263 2 0.4238 29.62783001776133 13.99706429360176 27.942658108512067 3 0 -1
722 241 2 0.4238 23.972828342179657 1.5289322267951146 30.823451192374005 -2 -1 2
642 214 2 0.4238 23.71218395013038 13.027762670902696 29.563568744675756 0 1 0
787 263 1 -0.8476 29.521254227483496 13.002919354165098 27.924813183246574 3 0 -1
327 109 2 0.4238 25.97138713451543 13.8510323525494 24.726995643099478 0 0 -1
1954 652 1 -0.8476 25.846546873421016 10.739083885368089 28.073518411998343 0 0 -1
1956 652 2 0.4238 25.044963948528498 10.802966372029122 28.66797942945812 0 0 -1
326 109 2 0.4238 26.983572274898034 12.72803445375599 24.109756992992942 0 0 -1
639 213 2 0.4238 28.229963604780895 9.113708440814943 25.263040317983357 1 -2 0
1367 456 2 0.4238 29.945561110852005 10.685497941407682 29.475876979710492 -3 0 -1
1955 652 2 0.4238 26.469051196325406 10.040965020805125 28.427239256627324 0 0 -1
1630 544 1 -0.8476 23.367935194967945 10.248401968257305 23.878155224374684 -4 2 -1
213 71 2 0.4238 23.349841737601846 12.219127114294919 25.619789787002993 0 0 -1
789 263 2 0.4238 29.368362975399855 12.667348954899875 28.854338967554266 3 0 -1
1656 552 2 0.4238 26.266580321968924 9.330998413886666 25.386079490498116 0 0 -1
1619 540 2 0.4238 29.557710660453527 13.518898885783045 23.87650971086999 1 0 2
316 106 1 -0.8476 25.85501435236922 13.48437576683106 27.46506434703825 0 0 -1
2902 968 1 -0.8476 24.493999430665664 2.047678887762102 23.63007235908414 1 3 0
2011 671 1 -0.8476 28.640683029707695 3.249346536408175 23.9169632677552 3 -2 1
2445 815 2 0.4238 28.853510214567425 0.3733193953393262 27.758426827633695 -2 1 -2
1715 572 2 0.4238 17.263676933342317 14.947109437740753 24.690042665652562 1 -1 2
2857 953 1 -0.8476 30.81244823984125 7.194629408355141 29.43939323698152 3 0 0
1559 520 2 0.4238 16.99934041808611 3.6639404238666446 30.92415494762507 -1 1 0
929 310 2 0.4238 25.447528165542703 11.428351130403318 30.658795248010456 -4 1 0
3060 1027 5 -1 25.745565616357364 15.440682391578859 24.808485179479593 -1 0 -1
483 161 2 0.4238 19.066074038544734 10.3705914283912 23.479655718026397 -1 0 4
20 7 2 0.4238 21.037517217098344 9.327632973367319 23.260136573419793 -1 -3 -3
2013 671 2 0.4238 29.415315290484802 3.322883388563665 23.28884129255288 3 -2 1
1939 647 1 -0.8476 15.521837000582135 20.30974272964086 1.56246125362094 1 5 1
310 104 1 -0.8476 21.857108317140177 22.53279078283898 3.349681960309539 0 -1 1
355 119 1 -0.8476 19.500113807033603 18.793509574796403 0.7705988646840701 2 -1 0
356 119 2 0.4238 19.01935776879422 17.9359698750323 0.9536266983777115 2 -1 0
312 104 2 0.4238 22.217220856557073 21.911777408980704 2.6535058968245773 0 -1 1
2071 691 1 -0.8476 21.2196556540449 18.838323325913144 2.897952494178979 -1 2 1
2073 691 2 0.4238 20.70748253899188 19.02017929046982 2.058543763655409 -1 2 1
2446 816 1 -0.8476 18.261595775631104 19.91271724330517 5.279149718178269 -1 -1 -1
2521 841 1 -0.8476 21.058963385688426 19.366222386518494 5.570771968586513 0 1 3
2523 841 2 0.4238 21.11675678420816 19.189290087434987 4.588247233998356 0 1 3
2050 684 1 -0.8476 21.67466090607517 21.629377819064725 0.5083650880804025 1 0 -1
2791 931 1 -0.8476 21.41667896415737 22.380692288946033 7.221724648803344 -1 -3 2
47 16 2 0.4238 23.33551265478429 21.503684636328185 0.7188841931274925 0 1 -2
311 104 2 0.4238 21.78527708920738 23.45468000592226 2.968945394735298 0 -1 1
2522 841 2 0.4238 21.91703461007078 19.77026930488052 5.887725964984615 0 1 3
2447 816 2 0.4238 18.202991882766902 20.4125867389416 4.415033933135058 -1 -1 -1
1827 609 2 0.4238 17.646880246783105 16.74327970701053 3.901764610323207 -1 2 2
1222 408 1 -0.8476 18.23495688794165 20.853782429966213 2.6645738959440943 4 1 1
1223 408 2 0.4238 18.693175797272655 20.153431858341047 2.117267306682121 4 1 1
1067 356 2 0.4238 23.1861080621895 22.478206777738585 4.623551616812334 -2 -1 0
1066 356 1 -0.8476 23.785432635325957 22.517879554398675 5.423073581807064 -2 -1 0
2250 750 2 0.4238 22.810595212139017 18.841583631463855 2.6060710363046864 -1 -3 -1
1826 609 2 0.4238 17.770377204582683 18.116243574962677 4.777177153134143 -1 2 2
525 175 2 0.4238 17.64415142290688 15.95397758888813 5.999273806197307 2 -3 -2
2730 910 2 0.4238 20.0940743537745 16.314870986402084 4.640879188771185 1 0 2
2448 816 2 0.4238 19.220923170069746 19.818254675865816 5.5451718802876 -1 -1 -1
2793 931 2 0.4238 22.395017383986737 22.571000740997057 7.140259905740034 -1 -3 2
2792 931 2 0.4238 20.939819521632273 22.736672135688828 6.41805596007475 -1 -3 2
2085 695 2 0.4238 20.721131502686863 17.728634950946002 6.530362425542367 -2 0 -1
1068 356 2 0.4238 23.796374144710125 21.626397808768377 5.8759979983372626 -2 -1 0
2072 691 2 0.4238 20.989861662221447 17.926294618939355 3.237655638703331 -1 2 1
1825 609 1 -0.8476 17.334437919803857 17.21779877470799 4.724693831468264 -1 2 2
1224 408 2 0.4238 17.8864029200889 21.57214501784924 2.062522955358957 4 1 1
1320 440 2 0.4238 16.9494501355649 21.03669177561143 6.277832977009171 -1 1 0
2051 684 2 0.4238 20.799625894359004 21.152611571081028 0.5920784817878274 1 0 -1
1087 363 1 -0.8476 17.528932710394084 23.014796767941146 1.2885338745121113 2 -3 1
3082 1031 5 -1 18.416654749747345 16.236402017086878 0.8308137285898372 0 0 1
305 102 2 0.4238 20.526887101813813 22.819101443651416 4.294215149236669 -1 1 0
1845 615 2 0.4238 29.999930804760762 27.308593950318226 0.38883948099652893 -3 -1 -4
46 16 1 -0.8476 24.26326454996529 21.187868128727292 0.9177207351747345 0 1 -2
124 42 1 -0.8476 17.03744472949232 22.999084273682083 4.422266241384449 1 0 -3
1817 606 2 0.4238 26.07906057968227 25.618280346121843 4.751224982101339 -2 0 1
125 42 2 0.4238 16.521187781094277 22.640865883731806 5.200186099542338 1 0 -3
2728 910 1 -0.8476 20.481445933012306 16.467325589051427 3.731648361025967 1 0 2
2492 831 2 0.4238 20.91791290885964 29.202267683542924 7.301501010718182 -3 0 0
2099 700 2 0.4238 15.902755773925326 21.239487743419005 0.05330838663108233 0 3 -2
1318 440 1 -0.8476 16.231925905587186 21.65218623416602 6.60391010352446 -1 1 0
1940 647 2 0.4238 15.977599279528953 19.63713109335786 2.1454487155819626 1 5 1
619 207 1 -0.8476 28.108151368328276 26.20546641196504 7.45807511166472 -3 -1 0
806 269 2 0.4238 30.533804887206614 30.5717209094898 4.543313906250332 -1 2 1
224 75 2 0.4238 26.94221257878855 20.277912482711418 7.5846648474796465 -1 2 1
711 237 2 0.4238 24.716421933147256 27.979019615626193 2.3842182852424507 -1 1 -1
2794 932 1 -0.8476 25.59236730502936 18.17108882956982 0.21320203155650058 0 -4 0
1550 517 2 0.4238 28.784523165904286 20.58479322855405 6.440105710879608 3 -4 -3
2637 879 2 0.4238 30.488244735115487 21.071526522609314 2.983777779246832 -1 2 1
792 264 2 0.4238 26.94123503015339 15.683073457183005 1.3756645915638175 -2 -1 1
1598 533 2 0.4238 30.233738411187623 16.9093811619941 5.505687627195026 -1 1 0
2920 974 1 -0.8476 23.773049903111332 20.043503058673856 6.341653436729866 -1 -1 -2
2976 992 2 0.4238 15.922590175321128 17.69775699309463 5.478048439020559 1 -1 0
2248 750 1 -0.8476 23.774311308124226 18.923100523731346 2.351894015279332 -1 -3 -1
2408 803 2 0.4238 25.034416519729938 18.614262179953855 3.711818648243605 1 4 0
7 3 1 -0.8476 26.001344323657776 15.842100781898278 4.236358482625156 0 3 0
1660 554 1 -0.8476 28.9149059796284 16.345709216568302 4.586301526434332 -2 -1 -1
2409 803 2 0.4238 25.769327709208643 17.503053959326472 4.656142726826681 1 4 0
1001 334 2 0.4238 30.117705023836685 17.46857752011339 2.9616821406681413 1 1 -2
2921 974 2 0.4238 24.434891173488946 19.731796652227548 5.659887216022761 -1 -1 -2
340 114 1 -0.8476 27.278964806960847 19.867703862630176 2.2923243227846375 -1 1 3
342 114 2 0.4238 27.35305602117563 18.871800698286016 2.3441626662283452 -1 1 3
2635 879 1 -0.8476 30.05057727112138 20.320488430287323 3.4781349184929122 -1 2 1
2636 879 2 0.4238 29.06666046468073 20.332762601027063 3.299930271805583 -1 2 1
790 264 1 -0.8476 27.478997034310698 16.520808981954072 1.4705915430398513 -2 -1 1
791 264 2 0.4238 28.137836084436945 16.58073203951584 0.7206981450991464 -2 -1 1
1423 475 1 -0.8476 25.489723309240066 30.861171425495158 2.7798491760975756 2 1 1
2407 803 1 -0.8476 25.621690380134112 18.481269459744176 4.510205918619509 1 4 0
2249 750 2 0.4238 23.94057288975806 19.82853157990951 1.9613157342481917 -1 -3 -1
1549 517 1 -0.8476 29.45637805750274 21.312342780386256 6.578970331761487 3 -4 -3
1184 395 2 0.4238 28.008331024792582 18.09826648676789 6.896878988211827 0 -2 0
341 114 2 0.4238 26.741642076140117 20.202700680434543 3.066315411525139 -1 1 3
48 16 2 0.4238 24.869793177368617 21.976710604955446 1.0169708921477685 0 1 -2
2795 932 2 0.4238 26.33889964794417 17.71349789585133 0.6962142032215658 0 -4 0
1551 517 2 0.4238 30.27649580542977 21.115697295737714 6.041627172209661 3 -4 -3
1662 554 2 0.4238 27.9560922846807 16.069250899231157 4.521125910095721 -2 -1 -1
659 220 2 0.4238 23.401766389404333 17.057865671954893 2.732666340867127 -2 0 0
2788 930 1 -0.8476 28.704122872059894 16.240577175177926 7.574642027240434 0 0 -2
2789 930 2 0.4238 29.4575635734688 15.834479143909013 7.057523438740262 0 0 -2
676 226 1 -0.8476 25.785696089817282 23.514913178443845 1.1105610926549048 0 0 1
678 226 2 0.4238 26.783011332987904 23.579137590360553 1.0753705316908908 0 0 1
2796 932 2 0.4238 24.930970507599827 18.52083016159158 0.8767047405601159 0 -4 0
1857 619 2 0.4238 27.463970941922277 20.659214792528683 0.5630507598943644 -6 1 2
388 130 1 -0.8476 26.08539981253028 21.83352267657703 4.2165092761043175 3 0 4
389 130 2 0.4238 25.357824896903313 22.25008889596327 4.7615854302141525 3 0 4
658 220 1 -0.8476 23.556827635895456 16.293727052457335 3.358804120424972 -2 0 0
2922 974 2 0.4238 23.850298887289014 19.479151119866966 7.163565478535556 -1 -1 -2
1183 395 1 -0.8476 27.74702090236724 18.980931077494397 6.506211805053301 0 -2 0
1269 423 2 0.4238 17.612141654058405 30.87343244472202 3.060213062135523 1 1 0
1088 363 2 0.4238 17.977157265582967 22.858723997010323 0.40834244219486504 2 -3 1
1185 395 2 0.4238 27.21523852333633 18.83212197942559 5.672506852194364 0 -2 0
1893 631 2 0.4238 30.301941920849554 23.626798593327123 3.1756270200584873 0 -1 -1
1844 615 2 0.4238 28.427065861717352 26.915821989462867 0.19274752109502663 -3 -1 -4
8 3 2 0.4238 25.08995725002339 15.992510590569196 3.853278191943462 0 3 0
2083 695 1 -0.8476 20.318520428717736 17.201161408754476 7.278477630835479 -2 0 -1
1816 606 1 -0.8476 26.782515106436687 25.04423236311088 5.17029713413229 -2 0 1
2616 872 2 0.4238 28.49638042890285 24.76530618411914 4.5968298271549575 -1 -2 0
1089 363 2 0.4238 17.17891791272168 23.95090729156534 1.3229878594983444 2 -3 1
2608 870 1 -0.8476 18.051392310268543 25.801797673282618 0.21827999494396963 -1 0 -3
677 226 2 0.4238 25.38583049821855 24.39593278927719 0.857751455513742 0 0 1
2491 831 1 -0.8476 19.95740783434448 29.129375528368474 7.032955493447684 -3 0 0
54 18 2 0.4238 16.00109557402268 30.423133656020806 4.739068026079247 -1 -2 1
2850 950 2 0.4238 18.552328088491187 23.90952741666323 6.766332452357192 -3 -1 2
2849 950 2 0.4238 17.139470007449027 24.713457049582185 6.921754638062337 -3 -1 2
2010 670 2 0.4238 30.904969579354628 20.013820162098927 4.8149030104883455 1 0 1
1878 626 2 0.4238 21.617433509027848 26.4929730997565 5.0002800297146335 -2 1 4
1968 656 2 0.4238 21.617519221824075 24.95177121652474 1.1292610151971358 -1 -4 1
1966 656 1 -0.8476 21.378727613037256 24.948627018264084 2.100326738939903 -1 -4 1
969 323 2 0.4238 17.24041590607237 28.789713771546044 6.586614511305279 -2 1 1
2848 950 1 -0.8476 18.13526788943033 24.80503804671668 6.921643452404668 -3 -1 2
1364 455 2 0.4238 19.06972363168497 26.535365549174127 5.530123792369115 -2 -1 1
1365 455 2 0.4238 20.128894120009072 27.748658376461982 5.799762136146557 -2 -1 1
1363 455 1 -0.8476 20.038157417551623 26.783435331021817 5.554584197389581 -2 -1 1
304 102 1 -0.8476 19.874889044062325 23.009476894766824 5.0281467744242345 -1 1 0
1967 656 2 0.4238 20.495375993974754 25.39966795864015 2.227809783204665 -1 -4 1
762 254 2 0.4238 18.780765307848185 26.746951522306798 3.0013709120939063 0 0 -1
1989 663 2 0.4238 24.702600139625886 28.74374513479815 0.23824438430854514 1 -2 -2
2682 894 2 0.4238 26.96161698658515 30.065443102432244 2.730420776321835 -1 -1 1
2319 773 2 0.4238 19.22056282599222 30.481091256309174 5.349243203295158 0 -4 1
760 254 1 -0.8476 19.3793542666462 26.876650715024674 2.2108841315280885 0 0 -1
1192 398 1 -0.8476 20.266109664207892 29.446757977285166 2.611938956414391 0 0 0
254 85 2 0.4238 17.028403640862045 30.155938330316623 0.8519258428025769 2 -3 -1
761 254 2 0.4238 19.703146845759193 27.822539667423808 2.1896143138051958 0 0 -1
1193 398 2 0.4238 19.744609502357747 30.01543963693485 3.2480510502827444 0 0 0
2609 870 2 0.4238 18.562426415934215 26.23312585644012 0.9617853037262539 -1 0 -3
927 309 2 0.4238 22.917543455406577 28.406931667308744 4.215114930851946 1 1 1
925 309 1 -0.8476 22.591299800029073 29.27721842410865 3.8461080294878256 1 1 1
926 309 2 0.4238 23.09233879960026 30.02946233423534 4.273996982054978 1 1 1
1485 495 2 0.4238 20.252283473150218 29.593195171515564 0.9149492034491865 2 0 1
1194 398 2 0.4238 21.23653321168886 29.483700541193876 2.850504047806288 0 0 0
1615 539 1 -0.8476 17.37037982846507 26.456652611071593 4.490693878587349 0 0 0
306 102 2 0.4238 18.9466369645636 23.01500111626209 4.656236138598874 -1 1 0
967 323 1 -0.8476 16.566855424310685 28.886668633641644 5.853868972667935 -2 1 1
968 323 2 0.4238 16.729504152521407 28.188112775604456 5.157044001534413 -2 1 1
1616 539 2 0.4238 17.4762916855263 25.49885179939611 4.757902173423372 0 0 0
1617 539 2 0.4238 16.42466835801161 26.622019591229023 4.210902627170587 0 0 0
1 1 1 -0.8476 22.992474145745287 30.711805422201078 6.6095768970894335 -1 -2 0
126 42 2 0.4238 16.791967386611468 22.490770510481152 3.5968220007681877 1 0 -3
1877 626 2 0.4238 22.429587599826718 25.45733694015159 4.033589955883668 -2 1 4
1876 626 1 -0.8476 22.494373292002216 26.30683433811638 4.557189794991518 -2 1 4
685 229 1 -0.8476 25.22491002250078 29.050280233626346 6.661851224525866 0 -2 -2
2476 826 1 -0.8476 24.154164419152583 24.312131203635168 7.65098023114924 -1 2 2
579 193 2 0.4238 27.788443683006186 27.421489767723486 2.3337037125147573 1 -2 -1
2729 910 2 0.4238 20.081434672262542 15.817208902988513 3.0856304296294783 1 0 2
1898 633 2 0.4238 21.38584833955455 25.74470042767753 7.117325310278645 1 -3 1
1319 440 2 0.4238 16.48951800615628 22.020832859596425 7.497076888063054 -1 1 0
578 193 2 0.4238 27.86860490299317 25.81114888286154 2.0748546317817302 1 -2 -1
2872 958 1 -0.8476 28.57547030270289 24.21766329501394 0.8110064954236154 3 -3 -2
2615 872 2 0.4238 30.051572585630144 25.090363724582215 4.974112100076847 -1 -2 0
2874 958 2 0.4238 29.365808846051053 23.99009924769889 1.37984718761433 3 -3 -2
59 20 2 0.4238 29.65438255723569 27.40203440532045 4.7772472501541765 -3 2 0
1661 554 2 0.4238 29.485884294331353 15.686425309276585 4.097088333118201 -2 -1 -1
390 130 2 0.4238 26.66732494046903 22.55092893570229 3.8335060419348164 3 0 4
2084 695 2 0.4238 19.48905717976413 16.745061479003 6.956042665278879 -2 0 -1
577 193 1 -0.8476 27.498508154146574 26.675446436632928 1.7342400516105128 1 -2 -1
1891 631 1 -0.8476 30.584904978311037 22.84565216482282 2.619081482132139 0 -1 -1
2707 903 1 -0.8476 29.588429165133586 28.750122358871543 7.626680472425531 1 0 0
2708 903 2 0.4238 29.575960936346952 28.446983033712193 6.673815569032353 1 0 0
1818 606 2 0.4238 27.229407695525804 25.54994388591145 5.908229061332326 -2 0 1
60 20 2 0.4238 28.796857416225134 28.504752399762392 3.931498985955386 -3 2 0
709 237 1 -0.8476 25.03890778400727 27.652828460889253 1.495622677495734 -1 1 -1
687 229 2 0.4238 25.919124545863063 29.769789919876352 6.642566198717474 0 -2 -2
686 229 2 0.4238 24.321486061233525 29.461907847239868 6.78180065389437 0 -2 -2
2680 894 1 -0.8476 27.818815577694085 29.580418300915817 2.557327124492774 -1 -1 1
2190 730 2 0.4238 24.74979165562299 26.437296825137434 0.16940399765543787 0 1 0
2614 872 1 -0.8476 29.395711907286966 24.995709807335366 4.225187765990135 -1 -2 0
2423 808 2 0.4238 24.088319228651955 26.74922000829887 4.547082311206809 -1 3 1
2422 808 1 -0.8476 25.00427622963019 27.15014867557114 4.530390098238956 -1 3 1
1197 399 2 0.4238 28.93857973774045 22.692175916151136 7.234564480437644 0 1 0
2477 826 2 0.4238 24.314344976382376 24.048018946340108 6.699882537226658 -1 2 2
2681 894 2 0.4238 27.99990744444897 29.564186287227308 1.5739949805092956 -1 -1 1
2424 808 2 0.4238 25.09741148082162 27.800126784348745 5.284614093424362 -1 3 1
58 20 1 -0.8476 29.56010060916254 28.374550725110023 4.564355702386991 -3 2 0
710 237 2 0.4238 25.829730155960384 27.055041227231428 1.6269633346038577 -1 1 -1
2493 831 2 0.4238 19.452667089087605 28.625430149076912 7.733866399520986 -3 0 0
1917 639 2 0.4238 15.791397259094289 17.686081747078106 7.669163050001432 0 1 1
2769 923 2 0.4238 29.508816601098836 30.43550482830752 0.03934064747466692 -1 -3 0
2473 825 1 -0.8476 19.151602111720557 18.390085929295108 11.77452749087636 1 0 2
2799 933 2 0.4238 18.079522234921217 19.472696059619594 14.924118770761647 1 2 2
2797 933 1 -0.8476 18.6053271350403 18.759583789464386 14.460437822472802 1 2 2
2709 903 2 0.4238 29.155009568226557 28.05701238272977 8.20265468499635 1 0 0
2474 825 2 0.4238 18.244773087953998 18.50741060862347 11.369686705383163 1 0 2
2495 832 2 0.4238 20.384672457718466 19.31081789946488 11.41059887535398 1 -1 1
860 287 2 0.4238 23.97631911537891 28.32679508805016 12.815826900300454 1 -1 -1
2892 964 2 0.4238 16.991667565616737 29.455814324978157 15.206540273781663 3 1 2
2475 825 2 0.4238 19.084259313342216 18.46235608446905 12.769636469248146 1 0 2
2494 832 1 -0.8476 21.160574216775103 19.87871652735247 11.135885156721958 1 -1 1
2808 936 2 0.4238 19.541529064650486 22.004314479010933 13.719727987172345 -2 -1 1
2806 936 1 -0.8476 18.772594579732974 22.477690495342006 13.290013069991959 -2 -1 1
2505 835 2 0.4238 21.680498722922028 21.246218214664427 14.414094467783526 2 0 -2
2807 936 2 0.4238 17.923852094380756 22.224652685751025 13.754348942543944 -2 -1 1
2503 835 1 -0.8476 20.728093860270498 21.008575702083583 14.223172233978035 2 0 -2
1257 419 2 0.4238 20.084287465712777 17.200554313102955 10.879268682488599 0 -1 0
705 235 2 0.4238 22.40463866258229 16.44871710142379 12.500484513369393 0 -1 0
841 281 1 -0.8476 18.42573325161339 21.500478130344177 10.781961336325777 -1 0 0
842 281 2 0.4238 19.15641222396752 21.650723727431128 10.115977435899643 -1 0 0
843 281 2 0.4238 18.609350828141867 22.037788561826922 11.60511523289924 -1 0 0
2496 832 2 0.4238 21.094692788795957 20.083210783198197 10.15923694414635 1 -1 1
861 287 2 0.4238 24.099449511864 28.094922757226183 14.427565359685635 1 -1 -1
137 46 2 0.4238 17.44026156676118 17.504780633646618 14.418296619122065 2 -1 1
1748 583 2 0.4238 26.282800444988087 26.27480268798993 14.500744147089826 0 -3 -1
414 138 2 0.4238 22.957132144434322 19.96731950016874 11.385573904019761 1 -2 1
1391 464 2 0.4238 21.590176136105747 21.823860176846654 11.577199378535783 -1 -2 0
1390 464 1 -0.8476 22.060569455661437 22.692148166425326 11.419696132875272 -1 -2 0
1255 419 1 -0.8476 20.348650973436193 16.478252029800753 10.24021359902935 0 -1 0
2461 821 1 -0.8476 17.00749365535369 19.177641122065676 10.400398003422957 -1 0 0
2462 821 2 0.4238 17.34631062512068 20.05037849858529 10.04892664637025 -1 0 0
1256 419 2 0.4238 20.167844761405338 16.779079294686486 9.303831187816131 0 -1 0
1259 420 2 0.4238 18.145528813780864 23.7113744925255 11.964004231580779 1 -3 -1
1868 623 2 0.4238 15.985114808611666 29.18377144356293 10.349144640689989 0 0 0
412 138 1 -0.8476 23.922469014157855 19.811301155546886 11.176327348559642 1 -2 1
120 40 2 0.4238 25.23374647343906 15.654217100382764 8.688156729101625 -2 0 -1
1703 568 2 0.4238 16.833386602473944 23.12470621081654 9.78985537657603 2 -4 0
2504 835 2 0.4238 20.514963672014996 20.125059363193873 14.64027451349568 2 0 -2
1339 447 1 -0.8476 30.88503153343256 15.95048010446146 11.284637675579493 3 -3 0
138 46 2 0.4238 17.321506808602955 15.904611098380203 14.721580611110864 2 -1 1
256 86 1 -0.8476 30.249971370686794 30.56644148163585 13.713731379855126 -3 -4 0
331 111 1 -0.8476 20.49202156180556 20.574935606719187 8.797942577233327 2 1 -2
2463 821 2 0.4238 16.690003343724083 18.612365574260433 9.63904173001006 -1 0 0
913 305 1 -0.8476 23.29734196168238 21.96111383680022 15.410063320768424 1 1 -2
1103 368 2 0.4238 25.44667851961959 27.587373258676326 7.957932207699431 -2 -1 -1
402 134 2 0.4238 29.968100716080492 26.784889449291665 13.62569446949843 0 -2 -1
1916 639 2 0.4238 16.423327336465274 16.541935231258872 8.64804996191955 0 1 1
2856 952 2 0.4238 30.47459213113666 17.36380998410782 14.296280023089071 1 -1 -1
946 316 1 -0.8476 24.08724728621078 18.645299489278788 8.591194574391315 1 2 -1
1915 639 1 -0.8476 16.28423432285494 17.524431339358387 8.524137125912452 0 1 1
948 316 2 0.4238 23.78326662690703 18.794603157763703 9.532100504707694 1 2 -1
947 316 2 0.4238 24.17667543881211 17.663855699586264 8.42157543842157 1 2 -1
292 98 1 -0.8476 20.77449171128634 15.560908417661535 15.270546275647188 4 0 -2
2182 728 1 -0.8476 21.87170710633851 30.71022601677012 9.769010318755132 2 1 0
1699 567 1 -0.8476 23.59414701353978 17.473344351169494 12.323417086777317 -2 0 2
1700 567 2 0.4238 23.760980689900407 18.444197708535057 12.151340815197567 -2 0 2
413 138 2 0.4238 24.426379701623805 20.670207842918245 11.26772987200854 1 -2 1
2264 755 2 0.4238 25.946553489196592 22.191679630691098 9.065497569031 0 0 4
160 54 1 -0.8476 28.459216420591137 16.958105364652365 10.358311503808718 0 1 -2
162 54 2 0.4238 29.344535870599547 16.649480011195003 10.706104218854975 0 1 -2
2070 690 2 0.4238 26.86500926055483 19.801851808072602 13.489947443883914 1 -2 0
136 46 1 -0.8476 16.88146282219966 16.793992385186193 14.845524933459922 2 -1 1
2068 690 1 -0.8476 27.279115442925253 18.89643296908887 13.396492936847602 1 -2 0
1565 522 2 0.4238 26.90898931195073 22.30900458864388 14.236396966858337 2 0 1
170 57 2 0.4238 25.724771830980746 17.84386180313124 14.683712210911617 0 1 -4
273 91 2 0.4238 29.774130755403085 21.232384663084872 12.971221810449505 -3 1 -2
1500 500 2 0.4238 27.79213015636849 20.003984411654237 9.682802135010514 0 -1 0
1498 500 1 -0.8476 28.464416494829354 19.647698604376796 10.331717749147407 0 -1 0
223 75 1 -0.8476 26.424883924023327 20.380183030525547 8.434319342400022 -1 2 1
225 75 2 0.4238 25.63907999561943 19.761817653754242 8.422589835328885 -1 2 1
1564 522 1 -0.8476 26.364321931930533 21.513701086762968 13.970258419306173 2 0 1
1499 500 2 0.4238 28.46995731016095 18.648541695496693 10.291038841726788 0 -1 0
2069 690 2 0.4238 27.873012218605744 18.882959696431694 12.592064521713043 1 -2 0
485 162 2 0.4238 28.31358938785527 17.95661585581709 14.488369346836137 -3 -2 0
605 202 2 0.4238 26.809082369525356 16.113341094287406 11.52128168040885 0 -1 0
1566 522 2 0.4238 25.8427491905194 21.728150245665972 13.14444154459607 2 0 1
1760 587 2 0.4238 30.48969388679177 25.19121745206196 10.306555793685549 -2 0 -1
2905 969 1 -0.8476 29.47795179693818 21.152001572813436 14.592996192623517 0 4 1
1701 567 2 0.4238 24.466413395713218 16.98512537436273 12.351588211759815 -2 0 2
2798 933 2 0.4238 19.346088844577956 18.450539071738586 15.056896699767766 1 2 2
604 202 1 -0.8476 25.87251374504245 16.120492968434622 11.871693206055884 0 -1 0
272 91 2 0.4238 29.42701210451445 20.793099014461557 11.437219458760891 -3 1 -2
271 91 1 -0.8476 29.977376740608953 21.40327112631722 12.007121841557138 -3 1 -2
161 54 2 0.4238 28.336035665634743 16.62950393208358 9.42191010901137 0 1 -2
2403 801 2 0.4238 18.380178835335556 30.758961660480146 14.112051999892046 0 1 -1
332 111 2 0.4238 20.905542720815532 21.35108832074674 8.321930814479336 2 1 -2
169 57 1 -0.8476 25.131915181475424 17.426552887549608 15.372460824858425 0 1 -4
2401 801 1 -0.8476 19.050988035432436 30.936637970720117 13.39201961283826 0 1 -1
118 40 1 -0.8476 24.331997416477176 15.916236760904566 8.344362839923209 -2 0 -1
2907 969 2 0.4238 29.133498114320524 21.9681646353754 15.05692438141033 0 4 1
1702 568 1 -0.8476 16.271332834006994 22.704736488204528 9.077309374390168 2 -4 0
229 77 1 -0.8476 16.92676899037246 16.502425349827792 11.631065221711504 -1 0 1
484 162 1 -0.8476 29.01628094008465 17.685137866047526 15.146035137082515 -3 -2 0
1241 414 2 0.4238 16.02631257875673 21.14937486152036 14.14511152524506 1 2 -1
1704 568 2 0.4238 16.048936704791966 23.388265531486724 8.382090447251162 2 -4 0
2634 878 2 0.4238 29.563450352665935 15.720492106130852 14.268228155873405 -2 2 3
359 120 2 0.4238 22.82061230400627 30.502049262376897 11.254150158110734 1 1 -1
1392 464 2 0.4238 21.561175673678207 23.222263591568026 10.73443393239119 -1 -2 0
1075 359 1 -0.8476 20.320571987734464 23.809326224198575 9.267422468027906 1 -3 1
2906 969 2 0.4238 29.300932448327384 20.347017688848176 15.159269095715699 0 4 1
707 236 2 0.4238 16.959213968343217 25.310218706662138 11.821633524464476 0 0 0
1240 414 1 -0.8476 16.39876697436313 21.885577287326235 14.710163338668284 1 2 -1
703 235 1 -0.8476 21.61911657556032 15.840524134898931 12.6147490597326 0 -1 0
1452 484 2 0.4238 16.493665426134715 27.1893392468067 13.755618909053078 -3 1 -1
1622 541 2 0.4238 26.023841492779457 29.330711583337216 11.309131536007143 -2 3 4
1258 420 1 -0.8476 18.12542544177022 24.225871627259345 11.10674750782011 1 -3 -1
1728 576 2 0.4238 19.162877931204008 29.575657533233517 11.042036388607666 0 -5 1
1077 359 2 0.4238 20.46943981082752 23.359151892538474 8.386977908313288 1 -3 1
451 151 1 -0.8476 24.84074869132513 22.32712482537187 11.245107742013532 -1 1 1
1726 576 1 -0.8476 19.501788091069784 28.647435959385223 11.195481252635899 0 -5 1
156 52 2 0.4238 22.82531136317598 23.402670438149958 12.80564854613654 0 -2 3
154 52 1 -0.8476 22.864339446328714 23.972961341395898 13.626163649913195 0 -2 3
2868 956 2 0.4238 19.82545378947752 24.00573722580071 13.964651492262675 -1 1 3
1104 368 2 0.4238 24.96623702011948 26.084314200550327 8.37818956707659 -2 -1 -1
1727 576 2 0.4238 19.910663634217652 28.588179038116817 12.106146008410883 0 -5 1
497 166 2 0.4238 17.489472363937175 27.906323217795833 8.822199807204857 0 1 -1
2547 849 2 0.4238 20.7683569409855 26.90679541341501 14.138564384513714 1 0 -2
2546 849 2 0.4238 21.934751623897323 28.045024858028402 14.035686458976384 1 0 -2
2866 956 1 -0.8476 20.379237018896262 24.70786876142931 14.412240475339823 -1 1 3
2867 956 2 0.4238 21.344598885419227 24.556796358980485 14.199509765694009 -1 1 3
2545 849 1 -0.8476 20.991230793275374 27.81863623247693 13.793783668347137 1 0 -2
155 52 2 0.4238 23.02230328107549 23.39484992635833 14.426685069903392 0 -2 3
2184 728 2 0.4238 21.810070886130244 29.718177583773866 9.659279309482928 2 1 0
1897 633 1 -0.8476 21.73883153189118 25.803286468376104 8.05111922792351 1 -3 1
379 127 1 -0.8476 21.567255703230327 27.893511064429095 9.78573314977442 -3 1 -4
380 127 2 0.4238 21.652508242090516 27.14441681604573 9.128778491859759 -3 1 -4
1869 623 2 0.4238 17.320523067685542 28.35584307374159 10.79394296200159 0 0 0
1260 420 2 0.4238 19.059149552709037 24.351879826489743 10.771663345814149 1 -3 -1
381 127 2 0.4238 20.667913116568506 27.854204308296644 10.22120719114693 -3 1 -4
2541 847 2 0.4238 22.968089078562144 25.30119805992481 14.557500065310903 -4 -4 -1
1102 368 1 -0.8476 25.532250567800496 26.864735570260105 8.64384244843161 -2 -1 -1
2402 801 2 0.4238 19.973066173592418 30.802619947444562 13.755077909285143 0 1 -1
231 77 2 0.4238 16.89806757300206 17.024847397979027 10.778861244719367 -1 0 1
1899 633 2 0.4238 22.54904109639761 25.22364437227641 8.138163165543812 1 -3 1
1076 359 2 0.4238 20.59736663191432 24.768066130354047 9.202589331882692 1 -3 1
1450 484 1 -0.8476 16.297418080849607 27.791848487422726 14.529227006408572 -3 1 -1
706 236 1 -0.8476 16.15578342762897 25.62207068707173 12.328828955178027 0 0 0
453 151 2 0.4238 23.928615637757915 22.736468069659274 11.223840021424296 -1 1 1
496 166 1 -0.8476 17.843533559144085 27.553094446420157 7.956249202154344 0 1 -1
1907 636 2 0.4238 16.222415798050683 19.673912108971297 12.061944093718893 -1 -1 -2
171 57 2 0.4238 24.726453702431076 16.591203178726342 15.001256118450335 0 1 -4
2478 826 2 0.4238 24.856124729819857 23.90229343761219 8.233461655641285 -1 2 2
1867 623 1 -0.8476 16.463243681417847 28.308105277780772 10.28130979602229 0 0 0
1097 366 2 0.4238 27.348355230126046 23.213349771476224 10.80638869865071 -4 -6 2
1451 484 2 0.4238 16.57182156340242 27.342700430998587 15.379502664305226 -3 1 -1
149 50 2 0.4238 28.353778058999204 27.82877112781819 15.109331723916677 2 0 0
1195 399 1 -0.8476 28.836480672685894 23.51109987824332 7.799311642849718 0 1 0
1747 583 1 -0.8476 25.675082332454764 26.57584166395814 15.235627842699845 0 -3 -1
859 287 1 -0.8476 23.639307299745305 28.618940989301162 13.710854631882984 1 -1 -1
1098 366 2 0.4238 28.696046756679166 22.59417194582644 11.489742815603856 -4 -6 2
258 86 2 0.4238 29.76369984748553 29.693014989053783 13.687912008988038 -3 -4 0
2263 755 1 -0.8476 26.02867211573691 23.18399882630469 8.972984048158509 0 0 4
1677 559 2 0.4238 27.92340555961006 30.194642638062117 14.658318999464786 -2 1 1
1196 399 2 0.4238 29.667678088112783 23.65059297820108 8.33750541505861 0 1 0
2265 755 2 0.4238 26.76762273827117 23.39921714320297 8.334522580190624 0 0 4
2909 970 2 0.4238 24.89453029492299 27.94426491128599 10.28944507080479 0 3 0
620 207 2 0.4238 27.328962063108502 26.577147466535525 7.962770708919499 -3 -1 0
1574 525 2 0.4238 27.628578808570474 25.09062097567282 12.829072536293626 1 -1 1
400 134 1 -0.8476 30.51317020875008 26.004232043207956 13.931428535486843 0 -2 -1
230 77 2 0.4238 16.09705421311337 16.681335308542703 12.159804271540962 -1 0 1
1623 541 2 0.4238 26.482993418194354 30.149889736510556 9.973185082024505 -2 3 4
452 151 2 0.4238 25.460982582606853 22.865268392909673 10.674396028450138 -1 1 1
704 235 2 0.4238 21.373519950948072 15.791578926913287 13.582884667398469 0 -1 0
360 120 2 0.4238 23.286806876884327 30.06537456567169 12.757015807200418 1 1 -1
1242 414 2 0.4238 15.684929084109353 22.562912092149986 14.88807598908901 1 2 -1
2157 719 2 0.4238 29.442885903918118 27.286640632406787 10.933794980866747 -2 1 0
1906 636 1 -0.8476 15.601681520366355 20.045512193589786 12.75230837605858 -1 -1 -2
1759 587 1 -0.8476 29.600917920233503 25.478672371567075 10.663553620794534 -2 0 -1
148 50 1 -0.8476 28.309528526285607 28.519415758528265 14.3874915156724 2 0 0
150 50 2 0.4238 27.754200047353958 28.175200662970614 13.630440333545877 2 0 0
1096 366 1 -0.8476 28.087902990183903 23.38730811471122 11.45662525355459 -4 -6 2
2908 970 1 -0.8476 24.157152599280835 28.25467577092813 10.88937829645784 0 3 0
2155 719 1 -0.8476 29.460712198207258 28.27608332694328 11.07762381123179 -2 1 0
1621 541 1 -0.8476 26.807283020870283 29.64221885503075 10.771374630918608 -2 3 4
2156 719 2 0.4238 28.528932009357227 28.636295143540867 11.032530010355304 -2 1 0
358 120 1 -0.8476 22.952713424034226 30.82043340359684 12.192862803710995 1 1 -1
1575 525 2 0.4238 28.51639871835071 25.246847769974416 14.19068756675321 1 -1 1
2910 970 2 0.4238 23.28078446090227 28.158958320415493 10.417342131671974 0 3 0
1573 525 1 -0.8476 27.665363772571673 25.509869057733717 13.736199065468076 1 -1 1
1761 587 2 0.4238 29.057292649047746 24.67152118672936 10.893726214807456 -2 0 -1
2540 847 2 0.4238 24.045989797296496 26.226861644493198 15.362424333038616 -4 -4 -1
2539 847 1 -0.8476 23.07561861225236 26.08895628143646 15.164026344775959 -4 -4 -1
606 202 2 0.4238 25.806736079024063 15.50820358518574 12.659586117048905 0 -1 0
2654 885 2 0.4238 29.964459407986144 30.33078759393973 7.890917994036128 -2 1 4
333 111 2 0.4238 20.594910755899242 19.7499032760542 8.242302993944033 2 1 -2
1340 447 2 0.4238 30.949433779940193 16.448841279307214 12.14921182876269 3 -3 0
621 207 2 0.4238 28.37606755766034 25.3285364638394 7.8570933934283325 -3 -1 0
2061 687 2 0.4238 30.949164731108905 22.69320777112351 12.696861156273446 -1 0 0
498 166 2 0.4238 18.105151918986532 26.59456648133646 8.069298840568667 0 1 -1
401 134 2 0.4238 30.943718269097417 26.22101526904837 14.80757543201952 0 -2 -1
2790 930 2 0.4238 28.029054782486256 15.534894488658095 7.789806349753377 0 0 -2
1114 372 1 -0.8476 20.69827288190622 18.16309528647303 21.362321782817798 0 0 -1
1116 372 2 0.4238 20.957920581296854 19.105115207039333 21.149762093375674 0 0 -1
1321 441 1 -0.8476 18.68774696411683 16.877126825734486 22.639321773687726 0 0 -1
1115 372 2 0.4238 21.09893333732794 17.54601471928964 20.68506050972148 0 0 -1
2230 744 1 -0.8476 18.185865365466558 19.638289469521595 21.597830655384506 2 2 -1
2232 744 2 0.4238 17.2239605195831 19.394249381524073 21.47460951223465 2 2 -1
2231 744 2 0.4238 18.517636757990925 20.109145190538197 20.78038182651163 2 2 -1
2940 980 2 0.4238 21.962064789926984 21.13543079075265 20.476606501583337 -2 2 1
2938 980 1 -0.8476 21.76171598947568 20.546730312579122 21.259736607492822 -2 2 1
2939 980 2 0.4238 22.405863651760505 20.74431793853237 21.998677296043205 -2 2 1
1912 638 1 -0.8476 19.46401948383318 17.498634791394363 18.721976405877903 0 -4 0
1191 397 2 0.4238 19.351083245055015 20.75675095048932 18.624634158902964 -1 3 0
2270 757 2 0.4238 23.30317208626151 21.425366742458415 18.77385873833064 -1 -2 -2
1562 521 2 0.4238 16.27297180686798 15.88912510609508 20.806985886575227 2 2 2
2271 757 2 0.4238 21.839619771633096 22.09766100397506 18.504300794823095 -1 -2 -2
2269 757 1 -0.8476 22.64991784451549 22.113293974685174 19.090110199394147 -1 -2 -2
1189 397 1 -0.8476 18.819765372167467 20.085156359497496 19.14102723992277 -1 3 0
1853 618 2 0.4238 20.643427332117987 29.329622896123464 22.14632090070581 -2 0 -1
1190 397 2 0.4238 17.846299465364382 20.301366937406215 19.066083163916726 -1 3 0
1342 448 1 -0.8476 20.305994993853652 21.613989781624024 17.677713756002266 1 1 2
1322 441 2 0.4238 18.29369050210716 17.11254876015555 21.75089849154655 0 0 -1
1561 521 1 -0.8476 16.775184746215967 16.585147898796915 20.293824832497375 2 2 2
2625 875 2 0.4238 20.035942145746997 18.0664732061957 16.983215031194657 -2 0 1
241 81 1 -0.8476 21.838860280806006 16.442099178303316 19.57004971787848 -2 1 1
1563 521 2 0.4238 16.31874153402377 16.748537905717964 19.419203045680387 2 2 2
756 252 2 0.4238 19.39516620556493 19.616273893052224 22.928778866461755 0 0 -1
1913 638 2 0.4238 18.72683034996798 16.883863583356472 19.002348575249098 0 -4 0
1280 427 2 0.4238 30.01769691188672 29.41595048995604 17.089514940870885 1 -3 -2
242 81 2 0.4238 21.16035639271085 16.799450998614393 18.928229722231077 -2 1 1
1914 638 2 0.4238 19.284278259098123 18.417059435398794 19.074381262060683 0 -4 0
130 44 1 -0.8476 16.139299498246544 16.560942708728092 17.485537697291562 -1 1 -3
30 10 2 0.4238 17.56462092214219 19.96943502080967 16.955668515124025 3 1 0
28 10 1 -0.8476 17.98472970272077 20.729111790052478 16.45928202475176 3 1 0
2748 916 2 0.4238 20.2166282848287 30.415505375019137 17.32013888522723 1 1 0
2516 839 2 0.4238 22.129042986793603 15.55003163478415 23.238419420972317 0 0 -1
1863 621 2 0.4238 26.850226938918958 23.61442785279055 18.726729113851693 3 1 0
2894 965 2 0.4238 26.51901279472009 30.65542694899368 21.43781311564969 0 -2 -2
36 12 2 0.4238 15.773151079962293 19.28720854180653 19.083090936581787 -1 -2 -2
1344 448 2 0.4238 20.0561585655377 21.13035422132225 16.838858441233306 1 1 2
2623 875 1 -0.8476 20.570056856778688 18.12921253210347 16.140134302572598 -2 0 1
469 157 1 -0.8476 26.747398282809684 27.894239391892114 19.31236318046163 -1 -2 -1
132 44 2 0.4238 16.50137303454174 16.67649217312697 16.560577033142007 -1 1 -3
1399 467 1 -0.8476 23.037607192462172 29.775285533794488 19.209930670707205 -1 0 5
915 305 2 0.4238 23.913598533711358 22.555764665941226 15.926414208364001 1 1 -2
2288 763 2 0.4238 23.72408609095478 19.567389342267695 17.846549904560163 2 -2 -2
1529 510 2 0.4238 29.546480338607626 29.61274614171467 19.156865247996894 0 1 1
908 303 2 0.4238 27.446509314991854 16.23504486637927 18.63663233856837 -4 2 -1
2218 740 1 -0.8476 23.26489133054975 19.089330667852863 16.15706244220298 1 -1 -1
2289 763 2 0.4238 23.790409673094874 19.257554282968403 19.448495549955943 2 -2 -2
398 133 2 0.4238 30.268366762723748 16.25135883579964 16.288979067210047 0 1 0
2287 763 1 -0.8476 24.102001277013688 19.869626779649025 18.721668474615782 2 -2 -2
2164 722 1 -0.8476 24.23671062513551 16.888333421035718 21.101648697786203 0 -2 -1
2166 722 2 0.4238 24.950931240181927 16.203690532968967 21.247089158789358 0 -2 -1
962 321 2 0.4238 24.33171030256984 19.64497936037355 22.222925271593432 0 -1 2
961 321 1 -0.8476 25.087559019526893 19.24166469250681 21.70714434210954 0 -1 2
963 321 2 0.4238 24.837050652425695 18.318457771963466 21.41570899163168 0 -1 2
2165 722 2 0.4238 23.609937935974003 16.570220323026366 20.390339889761766 0 -2 -1
2507 836 2 0.4238 29.45470027189027 21.39493747303638 19.58687839909186 -1 -2 1
1044 348 2 0.4238 28.089112788175317 18.78122994320553 21.599488583095187 3 1 2
1042 348 1 -0.8476 27.60286571135718 19.648581302015327 21.493350107180447 3 1 2
2508 836 2 0.4238 28.476502325341492 21.099529364819855 20.860648336941622 -1 -2 1
2506 836 1 -0.8476 28.998491809615945 21.802681646119634 20.377839166350746 -1 -2 1
611 204 2 0.4238 27.176409459580203 19.80879808383528 19.760764482134352 -1 -1 -2
610 204 1 -0.8476 26.998188200811065 20.207241092441045 18.861052631132033 -1 -1 -2
612 204 2 0.4238 26.054471959153126 20.01457598627604 18.592201843590633 -1 -1 -2
1346 449 2 0.4238 29.66422524697718 20.315676867325838 17.35957864054279 0 -1 2
1347 449 2 0.4238 28.198959494341825 19.687641395304833 17.71340633656221 0 -1 2
1334 445 2 0.4238 28.635829039363156 17.07661478899697 20.603852770399744 1 -1 -3
1345 449 1 -0.8476 28.959466214290977 19.670599204283395 17.064299964255667 0 -1 2
1333 445 1 -0.8476 28.649513129483662 17.218247138187795 21.593677464211282 1 -1 -3
1335 445 2 0.4238 29.595013499034355 17.206167002783634 21.91907425302802 1 -1 -3
2240 747 2 0.4238 29.63326900796229 22.527390183349283 21.78137784816409 -1 1 1
907 303 1 -0.8476 28.343878611543506 16.64404243988721 18.802310735103703 -4 2 -1
2624 875 2 0.4238 20.640984955543978 17.223455756680593 15.722314078100876 -2 0 1
909 303 2 0.4238 28.730291921406916 16.961906574279947 17.93648916328395 -4 2 -1
2291 764 2 0.4238 25.66302531743947 23.35748605462529 16.954740324520756 -3 1 -1
2239 747 1 -0.8476 30.134910206064387 22.947190048318546 22.537766776033212 -1 1 1
2396 799 2 0.4238 27.374268913473106 16.026062625168652 21.950532778154113 -1 0 1
1862 621 2 0.4238 26.839326425142985 21.99033380073717 18.556946508371322 3 1 0
493 165 1 -0.8476 25.824528619369218 29.551949002614638 16.974507809161004 0 0 0
1043 348 2 0.4238 26.648983520680897 19.531960535312372 21.76995152177559 3 1 2
2220 740 2 0.4238 22.309478962911346 18.813236168838497 16.0523783516874 1 -1 -1
1978 660 1 -0.8476 18.485559984633976 24.08908024365273 21.49538164922809 -1 0 -1
1980 660 2 0.4238 17.856708564470235 24.330910284688812 22.234343657040586 -1 0 -1
635 212 2 0.4238 20.364247644356844 24.378886080423495 21.910167620398315 0 -1 -2
1979 660 2 0.4238 17.985672785422942 24.055406199021203 20.629945700920498 -1 0 -1
2936 979 2 0.4238 19.97711988606337 24.400969538406933 17.628645985387074 2 -2 0
1213 405 1 -0.8476 18.728935720707792 27.119926457780075 22.054988402841612 -2 2 -1
1400 467 2 0.4238 23.208704507443777 28.865621151417333 19.588396527244292 -1 0 5
2871 957 2 0.4238 15.694877994358349 25.35743475894419 22.689640830701293 -1 0 -3
1281 427 2 0.4238 30.890782328775256 30.347732730839745 16.07161010837566 1 -3 -2
2935 979 1 -0.8476 19.192163611633106 24.092619109008684 17.091278620269314 2 -2 0
2869 957 1 -0.8476 15.934116173380515 26.206302753570217 22.21827148677371 -1 0 -3
1441 481 1 -0.8476 16.05551421896399 29.777396238274015 20.367116008406068 -2 0 2
2209 737 1 -0.8476 18.369503704484945 30.006783004208252 17.935415355139675 0 1 1
2211 737 2 0.4238 18.32442966525605 29.009610489277705 17.875284992430338 0 1 1
2937 979 2 0.4238 19.469842031911934 23.963865771954527 16.139271637362135 2 -2 0
1215 405 2 0.4238 18.948029997555302 27.48181002244505 22.961100011292352 -2 2 -1
1442 481 2 0.4238 16.363531491804228 30.703197750921188 20.586246211267966 -2 0 2
208 70 1 -0.8476 21.794275357831236 25.100171265268585 17.520674651148884 -5 1 0
2643 881 2 0.4238 18.716839441285284 30.73761528219299 21.48335639663649 -1 -4 1
209 70 2 0.4238 21.973576198999883 25.549242498376486 16.645353637005098 -5 1 0
958 320 1 -0.8476 23.233443684159873 27.384761116756625 20.0189781254513 1 0 -1
1343 448 2 0.4238 19.832219175096153 22.494088240524725 17.70874745782821 1 1 2
10 4 1 -0.8476 20.766609266149715 26.21512875454063 20.287273873939203 -2 1 -3
634 212 1 -0.8476 21.21895158070395 24.218910382205042 22.404018718852505 0 -1 -2
1214 405 2 0.4238 17.75888474278665 26.87992749877183 22.01754423579128 -2 2 -1
2328 776 2 0.4238 17.19507121664079 26.572794077732304 19.691057722565382 0 -2 1
786 262 2 0.4238 18.016616823262233 24.02077203558286 18.365858493605423 0 -2 1
2646 882 2 0.4238 17.404389999945764 26.807515490421395 17.474515473318633 1 -3 0
784 262 1 -0.8476 17.23074556041272 24.05169974415093 18.98347455774409 0 -2 1
785 262 2 0.4238 16.42739445302121 23.67821256398626 18.519649312112392 0 -2 1
2326 776 1 -0.8476 17.31079579326389 27.375295639120345 19.105737905121686 0 -2 1
2645 882 2 0.4238 18.20128793333681 25.727274699715213 16.544644520917494 1 -3 0
2644 882 1 -0.8476 17.716232139153057 26.601754918067673 16.546928776029738 1 -3 0
2414 805 2 0.4238 22.585874391525945 23.364685520006947 21.752385803917566 -2 1 3
210 70 2 0.4238 22.594483419808597 25.19324900589594 18.113130623120448 -5 1 0
2327 776 2 0.4238 16.899557448672578 28.172417569899043 19.547869620748617 0 -2 1
2415 805 2 0.4238 23.450086568992443 22.638968394539674 20.572090007637943 -2 1 3
2413 805 1 -0.8476 23.473583388778316 22.96993304967955 21.51544058229749 -2 1 3
960 320 2 0.4238 22.269724432530356 27.123199621768862 19.965773110463754 1 0 -1
636 212 2 0.4238 21.561534384552687 25.085540089151806 22.766771930266625 0 -1 -2
11 4 2 0.4238 20.104025069759402 26.347639432476864 21.024447003582935 -2 1 -3
2557 853 1 -0.8476 24.208469101999576 25.155098020814258 19.018762146420947 0 1 -1
12 4 2 0.4238 20.31770933914333 25.77201728677146 19.511296329274288 -2 1 -3
2642 881 2 0.4238 18.707519648386562 29.851416360785834 22.854921321251364 -1 -4 1
2210 737 2 0.4238 18.1505397050931 30.294720914796034 18.867695568631245 0 1 1
2641 881 1 -0.8476 19.289192300429047 30.30928871939877 22.182604957355533 -1 -4 1
2558 853 2 0.4238 23.87208549683648 24.71877829438531 19.85331068733522 0 1 -1
1854 618 2 0.4238 22.021241804571567 28.630537440645046 21.617611059570756 -2 0 -1
397 133 1 -0.8476 30.952306384413706 16.259238940499028 17.01847517236982 0 1 0
1401 467 2 0.4238 22.55404719020936 29.68837331731194 18.338945032230786 -1 0 5
1434 478 2 0.4238 28.50425939191928 25.892962061788296 22.989864155671174 -2 -2 0
2339 780 2 0.4238 25.214915278856292 23.58922850397359 21.43362660957701 2 -2 1
2582 861 2 0.4238 27.868209306400797 22.973604804588557 16.85316153326185 -3 -1 4
1530 510 2 0.4238 28.333555039818553 28.519447597171304 19.14515993354036 0 1 1
2340 780 2 0.4238 26.540673434674886 24.531015573650922 21.285203495122946 2 -2 1
1568 523 2 0.4238 29.929067991425054 22.369923141591666 17.706741094846898 1 4 0
966 322 2 0.4238 30.857179924341754 24.4855298386815 21.145706583848607 3 -2 -1
2338 780 1 -0.8476 25.837136576791988 24.205193502623008 21.916770184366232 2 -2 1
2891 964 2 0.4238 17.620977464080728 30.300406775128288 16.45444211233993 3 1 2
845 282 2 0.4238 29.841403354595293 25.56092945809199 18.585092160580974 -1 1 -1
1528 510 1 -0.8476 29.033640857607953 28.968238597657006 18.589762323399224 0 1 1
844 282 1 -0.8476 30.08729301311546 25.37923016885286 17.63297681525174 -1 1 -1
959 320 2 0.4238 23.78368163841673 26.739557023663913 19.488931072407198 1 0 -1
2559 853 2 0.4238 24.47141813136661 24.452195822715524 18.357864048590518 0 1 -1
1230 410 2 0.4238 28.648320866972387 25.144467126538327 20.118554287484216 -2 -2 1
2290 764 1 -0.8476 24.94269647020707 23.7365364167529 16.37383839633154 -3 1 -1
964 322 1 -0.8476 30.315311968071637 25.210906408730775 20.721197609922108 3 -2 -1
2893 965 1 -0.8476 26.726296098133066 29.708002822385826 21.681577677170846 0 -2 -2
1279 427 1 -0.8476 30.932484842067304 29.59320092733367 16.72654708256353 1 -3 -2
2583 861 2 0.4238 29.04331447341565 24.00243463994141 16.376439903863798 -3 -1 4
470 157 2 0.4238 26.293688011322363 28.314268004683708 18.526409251072863 -1 -2 -1
1229 410 2 0.4238 27.2424112475859 25.834273147623055 19.655724484114064 -2 -2 1
2895 965 2 0.4238 26.714978772978107 29.60974738655455 22.67667468098101 0 -2 -2
495 165 2 0.4238 26.59768650679441 29.547216082957178 16.340311755008464 0 0 0
749 250 2 0.4238 29.43598264813755 27.59745681115527 21.80386732903735 1 -1 1
29 10 2 0.4238 17.273049128136734 21.263387706013106 16.003146280754894 3 1 0
748 250 1 -0.8476 28.500071612589895 27.36589175247723 22.06928809096079 1 -1 1
1228 410 1 -0.8476 27.683460451129662 24.975708546400572 19.917148176030107 -2 -2 1
1861 621 1 -0.8476 26.75147777735614 22.86224115639465 18.075220290052762 3 1 0
750 250 2 0.4238 27.869432407329487 28.045207404923907 21.69402223985883 1 -1 1
378 126 2 0.4238 28.515147352821888 27.963045369067572 17.24739482525734 0 0 -2
2292 764 2 0.4238 25.312378128001278 24.494255546436055 15.836067962238602 -3 1 -1
471 157 2 0.4238 26.60332963722643 28.461849159868393 20.122958193749227 -1 -2 -1
34 12 1 -0.8476 16.11998576220201 19.210421947609234 18.148313268561548 -1 -2 -2
914 305 2 0.4238 23.442873782490803 21.010807253243062 15.685268464799062 1 1 -2
35 12 2 0.4238 16.066489932630013 18.25739785322517 17.850180306830698 -1 -2 -2
376 126 1 -0.8476 28.281521882031885 27.112989577854147 16.775352208551034 0 0 -2
1567 523 1 -0.8476 30.455656182478233 21.601854647869633 18.07112539200415 1 4 0
1570 524 1 -0.8476 15.574997018214225 19.380294342093393 21.19554662785912 0 -2 -4
2241 747 2 0.4238 29.56929504691703 23.65521391496226 22.960592548151315 -1 1 1
1749 583 2 0.4238 26.22125994285438 26.891377836221626 16.011596226895676 0 -3 -1
965 322 2 0.4238 30.65376749414968 26.10132678396929 21.025498983887868 3 -2 -1
2747 916 2 0.4238 21.391541619114793 29.926814737932958 16.296719939805776 1 1 0
1852 618 1 -0.8476 21.473530038935863 28.847087443431008 22.425768170915553 -2 0 -1
2746 916 1 -0.8476 20.948903246894808 30.72164933077607 16.711821886501276 1 1 0
562 188 1 -0.8476 25.910727781621542 15.863600082626322 17.766572762161026 -1 -1 0
563 188 2 0.4238 25.376281990643406 16.457315716845606 17.165016763543452 -1 -1 0
2515 839 1 -0.8476 21.270023804087597 15.762202409226276 22.772511962829324 0 0 -1
2581 861 1 -0.8476 28.668182858254877 23.0824211871912 16.2630757605435 -3 -1 4
608 203 2 0.4238 23.725241875369854 29.14900740580443 16.383927652282452 2 0 1
377 126 2 0.4238 28.886828195561385 26.380941344763265 17.08793757688198 0 0 -2
607 203 1 -0.8476 22.906381697615718 28.645632005329535 16.65975618337293 2 0 1
757 253 1 -0.8476 30.108940166665292 30.67180413665046 20.4043855098262 1 4 -1
494 165 2 0.4238 25.919309941655836 30.318295887106764 17.60990543802947 0 0 0
980 327 2 0.4238 25.942153996440716 22.284696658853907 22.965711854596485 0 -3 0
2219 740 2 0.4238 23.85884420087724 18.39584784283147 15.749262490550144 1 -1 -1
609 203 2 0.4238 22.829008515615506 27.810736072748043 16.114813763797773 2 0 1
2669 890 2 0.4238 15.80584016801585 23.291798451373513 21.167056679214035 -1 -1 -2
759 253 2 0.4238 30.741011316955362 30.52408515090998 21.165085763727312 1 4 -1
486 162 2 0.4238 29.156963338485948 18.422376511427814 15.806858475449653 -3 -2 0
2890 964 1 -0.8476 17.136268212331068 30.371047442383244 15.58262401728143 3 1 2
3014 1014 3 2 20.428904026591738 17.47164562123298 23.22102006385836 0 0 -1
1323 441 2 0.4238 17.976240558816713 16.494497455098177 23.228688882208562 0 0 -1
1036 346 1 -0.8476 20.166441993370327 17.0632290929485 25.128428789701715 0 0 -1
1038 346 2 0.4238 20.493658646672113 17.677770048877694 25.84625103932079 0 0 -1
1643 548 2 0.4238 22.542170943779674 18.60175756267128 27.103566628493624 0 0 -1
3087 1032 5 -1 20.9081701028824 18.803260369488353 27.011197055528175 0 0 -1
3084 1032 4 2 20.2627359348027 19.29744692309702 28.194558557702354 0 0 -1
3085 1032 5 -1 20.082769208567147 20.7942386056009 28.111963520483904 0 0 -1
3086 1032 5 -1 21.054918595327983 18.97081735275216 29.496811371887222 0 0 -1
1298 433 2 0.4238 17.944398684149526 17.43758790110119 27.806993130886724 0 0 0
1037 346 2 0.4238 19.812241418684625 16.22504168004039 25.543138251565882 0 0 -1
1297 433 1 -0.8476 17.56607623574759 16.52360209890953 27.660356643436614 0 0 0
3088 1032 5 -1 18.99845533463903 18.630303616810966 28.303519037687764 0 0 -1
2995 999 1 -0.8476 22.33576625989853 16.5036231750379 29.99439321335546 0 1 0
2114 705 2 0.4238 19.742480495135315 16.767666038615474 28.986568660572537 0 1 0
2145 715 2 0.4238 19.90357465745676 21.23498628417474 26.52986317109188 -2 0 4
2143 715 1 -0.8476 19.632311015592553 21.5419453930679 25.617617486349687 -2 0 4
2372 791 2 0.4238 22.479440633197274 19.601765046627197 29.641810453522215 0 0 -1
1352 451 2 0.4238 16.16221635410975 20.029062568899427 29.106232871618435 1 0 3
1172 391 2 0.4238 22.888391792414172 30.926965276997368 27.50117096282574 -2 -2 -1
2997 999 2 0.4238 21.85064307193297 17.370746431065122 30.107321673331406 0 1 0
1351 451 1 -0.8476 16.404837509955296 19.304449911042237 28.46119685090902 1 0 3
2144 715 2 0.4238 20.361280295215593 22.101942230730476 25.223907804061675 -2 0 4
2760 920 2 0.4238 22.489550908110065 21.854967802634917 27.407357566663922 0 0 -1
903 301 2 0.4238 21.15102571005402 21.913188179088014 28.88621136981049 -2 0 1
1353 451 2 0.4238 17.38337674406628 19.11039867353736 28.530515639412076 1 0 3
112 38 1 -0.8476 16.346396902395472 16.509878104954087 30.155276048302266 0 0 0
2675 892 2 0.4238 18.18946113699333 22.402037778466713 26.066287567157424 0 3 -1
1557 519 2 0.4238 22.951971113185582 17.44681849292279 23.944177246237253 0 0 -1
901 301 1 -0.8476 21.761940230504397 22.69304409905781 29.02262341746332 -2 0 1
1555 519 1 -0.8476 22.298085092090055 18.092661422546243 23.550070620251557 0 0 -1
755 252 2 0.4238 19.664904072262992 20.032643261782173 24.48457591040638 0 0 -1
1714 572 1 -0.8476 16.994155361960246 15.816051765790027 24.27495602482558 1 -1 2
1006 336 1 -0.8476 16.98360706378875 19.271973333480933 25.618081290338033 0 1 -2
2734 912 1 -0.8476 18.529130138518166 22.452082040445347 29.47291180433753 1 -2 -4
2676 892 2 0.4238 16.595530535229628 22.752285280006188 26.008489704822413 0 3 -1
1008 336 2 0.4238 17.91765682261447 18.932320385314373 25.50768697087369 0 1 -2
1007 336 2 0.4238 16.71320579184079 19.197719504750225 26.577961324631858 0 1 -2
2736 912 2 0.4238 17.73948791723679 22.437349008359686 28.859521131569092 1 -2 -4
2735 912 2 0.4238 19.228758117230544 21.824849440689867 29.130713023434843 1 -2 -4
2100 700 2 0.4238 15.799329155273922 22.46549497434777 29.96555086105033 0 3 -3
2674 892 1 -0.8476 17.481546038747478 23.037918022257838 26.373718525308583 0 3 -1
2115 705 2 0.4238 19.377385681973525 16.27128313995233 30.498830651762447 0 1 0
2113 705 1 -0.8476 19.827182979775255 16.01760031929587 29.642485329844753 0 1 0
1716 572 2 0.4238 16.006723249586777 15.940126396183269 24.372850291905067 1 -1 2
2168 723 2 0.4238 16.738787262399292 26.43392131836803 30.612106066241058 0 -1 -2
2374 792 1 -0.8476 16.785806854513783 23.99538376771051 23.60998787809032 0 -6 2
1556 519 2 0.4238 22.635465778741104 19.025858207989483 23.673836510272313 0 0 -1
3059 1027 4 2 24.372933943860865 15.787168243453673 25.100311891701548 -1 0 -1
1299 433 2 0.4238 18.1516927838798 16.018192831550365 27.026625711195905 0 0 0
625 209 1 -0.8476 23.4369696825581 20.814310682592595 23.657719987612534 -1 0 2
2189 730 2 0.4238 23.524373401845008 25.48781530694864 30.642063025493105 0 1 -1
627 209 2 0.4238 22.756034437552582 21.321475947052487 24.18602890447373 -1 0 2
2320 774 1 -0.8476 29.316376553663506 29.91322652530772 23.751638289683875 0 -1 -1
301 101 1 -0.8476 29.962773524074713 19.117333610675452 29.9602846577653 1 0 -1
2371 791 1 -0.8476 23.375557692729682 20.02058883110239 29.494974024748505 0 0 -1
2996 999 2 0.4238 23.295633142796664 16.684190798967485 29.779798266638494 0 1 0
2758 920 1 -0.8476 23.446442841944528 21.634230883267954 27.21859035942731 0 0 -1
1642 548 1 -0.8476 23.534511797729238 18.723872705128674 27.08491724308146 0 0 -1
2373 791 2 0.4238 23.74115956216902 20.340604428560045 30.369002201206925 0 0 -1
2321 774 2 0.4238 30.280096244585483 30.17390038468492 23.694247581061163 0 -1 -1
2074 692 1 -0.8476 24.198060174649225 23.522522357219724 25.504771098388968 1 1 1
2075 692 2 0.4238 24.831197437473826 23.306772207798492 24.76140698224465 1 1 1
2759 920 2 0.4238 23.79786644783923 22.250414678472794 26.51373645120048 0 0 -1
1432 478 1 -0.8476 28.880677641981347 25.116048071273962 23.494557298680107 -2 -2 0
2302 768 1 -0.8476 30.120564488420975 20.948699765051657 24.557440907052335 -3 -1 -2
2303 768 2 0.4238 30.114369385796287 21.14265761090409 23.576450628522597 -3 -1 -2
874 292 1 -0.8476 27.96917517578767 22.408718998726588 25.79816184883788 -3 -1 2
1644 548 2 0.4238 23.929352655095038 18.136850433042376 26.378160027066187 0 0 -1
1975 659 1 -0.8476 30.60881529212218 18.313511470116552 27.257508441406113 -1 0 -1
1733 578 2 0.4238 25.463634992526845 18.225906613259113 24.660177968282973 0 -2 0
3007 1007 3 2 24.61363763990705 20.128901304430872 27.93602773568463 0 0 -1
3063 1027 5 -1 24.285089383904264 17.212870935390207 25.088699178322994 -1 0 -1
2225 742 2 0.4238 27.812265514236174 18.75174550007708 24.802222507286924 -1 0 -1
2224 742 1 -0.8476 28.64409164454013 18.652447555697258 25.348304218126188 -1 0 -1
3001 1001 3 2 29.408489536675898 17.08455105399447 26.34096669113348 -1 0 -1
2226 742 2 0.4238 29.255533601424045 19.422771504939632 25.167363033061207 -1 0 -1
1785 595 2 0.4238 25.869413410724714 19.847021461022713 25.647529719485036 0 0 -1
1783 595 1 -0.8476 25.76608227870121 20.458848191445803 26.43174317622682 0 0 -1
1784 595 2 0.4238 26.52585648273984 21.10878389426325 26.449816495525628 0 0 -1
3037 1022 5 -1 28.079339608123128 17.304689582982764 27.836865760692028 -1 0 -1
1167 389 2 0.4238 26.723690255776376 18.44824043309579 28.424040843829154 0 0 -1
1165 389 1 -0.8476 25.91116479874921 18.930095387905506 28.752093171035284 0 0 -1
1166 389 2 0.4238 25.745324256476895 18.69085006961811 29.708784802085535 0 0 -1
1984 662 1 -0.8476 25.43007903272865 21.67083894319721 28.896731429372956 0 0 -1
3034 1022 4 2 28.460121349998452 16.267662911598382 28.81091381441272 -1 0 -1
1732 578 1 -0.8476 26.149217388505093 18.89860743244097 24.38187864285634 0 -2 0
3038 1022 5 -1 28.935091365762 16.7166949231536 30.13020864619374 -1 0 -1
1986 662 2 0.4238 25.39049528425366 22.6610789828559 28.763098486629627 0 0 -1
1977 659 2 0.4238 30.204545285748363 18.78410736634379 28.041794941481424 -1 0 -1
1985 662 2 0.4238 26.23619003650806 21.439995763300303 29.44161348812535 0 0 -1
876 292 2 0.4238 28.768885698951646 21.901872277404628 25.476339826945534 -3 -1 2
670 224 1 -0.8476 30.903570079526496 23.500804137183778 27.29811262170635 1 0 1
1855 619 1 -0.8476 27.880487401317815 20.815822928417596 30.653457058527813 -6 1 1
2169 723 2 0.4238 16.202492272615743 27.716553005300913 29.755444097886283 0 -1 -2
1100 367 2 0.4238 28.546253856520178 22.411511709545355 29.630819158540945 0 -3 -1
2638 880 1 -0.8476 24.75154931373992 16.358737075310028 28.89114680616926 -3 0 -3
2167 723 1 -0.8476 15.927864811051355 26.88726429870185 30.242126399059153 0 -1 -2
979 327 1 -0.8476 25.831089392291137 22.01194237809499 23.92136347223084 0 -3 0
354 118 2 0.4238 30.903254896452555 27.04021313986001 24.966898308033016 2 0 -2
3035 1022 5 -1 29.520374012550256 15.822638941115498 27.87536642847886 -1 0 -1
2768 923 2 0.4238 28.662284795772727 29.061832635923395 30.774216144703885 -1 -3 -1
300 100 2 0.4238 29.90207433917252 26.79925674391396 29.005207627432945 2 3 1
626 209 2 0.4238 24.34679196414492 21.1856523752303 23.843000269494034 -1 0 2
2639 880 2 0.4238 24.321150570386514 16.201066197758877 28.002385499073288 -3 0 -3
1856 619 2 0.4238 28.57755680681944 20.119215581070474 30.48365324971841 -6 1 1
302 101 2 0.4238 29.75089809054133 18.21639814450452 30.339000757550984 1 0 -1
347 116 2 0.4238 21.61881677701998 30.767717899189574 25.170357596555878 -1 -2 3
2322 774 2 0.4238 29.207196240548676 29.18783967998812 24.43126622857517 0 -1 -1
2567 856 2 0.4238 16.075963691960812 30.447970319823284 25.36640368051459 -2 0 -1
1479 493 2 0.4238 21.79345910023067 24.153540837167746 29.985550938562135 1 -2 2
2589 863 2 0.4238 22.51557223761445 23.274323742572488 25.118006139271724 0 0 2
1734 578 2 0.4238 26.042084414954136 19.1005251165503 23.408353192417593 0 -2 0
2587 863 1 -0.8476 21.6415714349838 22.93337730780059 24.771771985910494 0 0 2
1667 556 2 0.4238 22.117407467906837 27.40032307082301 30.57786820264921 0 2 -3
253 85 1 -0.8476 17.177352659259526 29.769631944983267 30.927605326282443 2 -3 -2
867 289 2 0.4238 25.807370495031154 26.877739344477533 27.051075810143793 -1 -2 1
902 301 2 0.4238 21.567321923018007 23.393087212625336 28.33555507548023 -2 0 1
718 240 1 -0.8476 15.635485762674467 24.18310995410071 29.659239577645888 -1 -1 -1
274 92 1 -0.8476 18.358284883777312 28.82462258803809 24.229675850538314 0 -2 2
1668 556 2 0.4238 23.58398257185088 28.014329373947817 30.205336418396655 0 2 -3
993 331 2 0.4238 30.636399121125432 15.7619345239754 24.664488911065018 -1 0 -1
1778 593 2 0.4238 17.805629935552492 24.60428993858652 26.618321526357377 2 1 0
276 92 2 0.4238 17.726896666681082 29.22555600513595 24.893454291621282 0 -2 2
2588 863 2 0.4238 21.46803923995864 23.320292664060602 23.86613237212536 0 0 2
2566 856 1 -0.8476 16.11214440490958 29.847051618985937 26.164894476604918 -2 0 -1
448 150 1 -0.8476 21.773049391423278 27.829870054140983 27.0422667059658 0 -2 -1
2134 712 1 -0.8476 19.561624429406752 26.472936166405866 28.835825546577386 0 0 -4
2135 712 2 0.4238 19.24673961267285 25.681973906374267 28.31120557758723 0 0 -4
1666 556 1 -0.8476 22.636512597598568 27.92039601686974 29.899595701978658 0 2 -3
1694 565 2 0.4238 19.071557829817266 26.58667242233085 25.949555838617446 2 0 -2
1777 593 1 -0.8476 17.942401956458458 25.581300263872365 26.781857951571755 2 1 0
1376 459 2 0.4238 18.520329281748516 29.573108657852202 27.501065892728093 1 1 -2
1375 459 1 -0.8476 18.089169879773237 28.67647836158176 27.601840750899473 1 1 -2
275 92 2 0.4238 18.85958197723181 28.07300207041111 24.65835841999252 0 -2 2
1284 428 2 0.4238 21.550826080934414 25.61611165068059 26.925027326283356 -1 -2 0
1283 428 2 0.4238 20.696005051436355 24.300233492408932 26.472951901571548 -1 -2 0
1282 428 1 -0.8476 21.445154287993347 24.629321370474138 27.047823116563624 -1 -2 0
3010 1010 3 2 16.085032933072412 15.68674710760563 28.486246134152072 0 0 0
2610 870 2 0.4238 18.613325474777444 25.788954307730318 30.37714194807449 -1 0 -4
1470 490 2 0.4238 27.245666845465216 15.766965454300156 25.241012589610204 -1 0 -1
1377 459 2 0.4238 17.10843433250311 28.756303337073305 27.423555439616084 1 1 -2
1695 565 2 0.4238 20.44942083808999 27.456414302766323 26.057576088063684 2 0 -2
1779 593 2 0.4238 17.06671794521015 26.05796996913191 26.70463440935287 2 1 0
2136 712 2 0.4238 19.216580953083508 27.31143202277825 28.414079595377217 0 0 -4
449 150 2 0.4238 21.89330232426374 28.819821038783353 26.96785927371681 0 -2 -1
1693 565 1 -0.8476 19.910025823095133 26.850569335204447 25.472764676060258 2 0 -2
450 150 2 0.4238 21.68464240368097 27.576314922916602 28.005539371114914 0 -2 -1
1173 391 2 0.4238 22.735390712822014 29.69445925470558 28.56142846023144 -2 -2 -1
1484 495 2 0.4238 20.84041919348782 29.477404145588736 30.381908741327404 2 0 0
2052 684 2 0.4238 21.682025591412827 22.166917005859144 30.651102519995554 1 0 -2
348 116 2 0.4238 22.17029659059368 29.71211694435779 24.053127544465355 -1 -2 3
346 116 1 -0.8476 22.32000811243167 30.08365281113575 24.96939581799869 -1 -2 3
255 85 2 0.4238 18.1412691507893 29.524813781753718 30.823060831892885 2 -3 -2
981 327 2 0.4238 26.693042504439124 22.149066670786752 24.409456157675233 0 -3 0
357 119 2 0.4238 19.86249846787666 18.780128342962104 30.824611123042082 2 -1 -1
754 252 1 -0.8476 19.836431515799312 19.341082970564923 23.782918761758918 0 0 -1
1227 409 2 0.4238 21.308421473541344 26.117699184537415 24.327482137485234 1 1 3
1225 409 1 -0.8476 22.072863857176493 26.26277722361896 23.699325943544782 1 1 3
113 38 2 0.4238 15.620367781306772 16.957081316136577 30.677665741735098 0 0 0
1477 493 1 -0.8476 21.810286959184047 25.052480830489294 30.423299414572792 1 -2 2
1511 504 2 0.4238 24.25006178583517 30.429871301875632 25.173369949268697 1 -1 -2
1478 493 2 0.4238 21.41789430980365 25.73231302016146 29.803738156514793 1 -2 2
303 101 2 0.4238 30.6232045316722 19.580442338896738 30.551353293393802 1 0 -1
866 289 2 0.4238 25.399283029788272 26.02880670562559 25.717132612781374 -1 -2 1
2498 833 2 0.4238 27.167334583550574 27.933397440132957 24.82051000791264 0 -2 -2
2721 907 2 0.4238 29.05037162454895 27.69211154215795 26.943457778506012 0 -2 -2
14 5 2 0.4238 23.798371000552066 25.758743132334555 24.09269930937655 -1 0 -2
2720 907 2 0.4238 29.44111335500216 29.23782059254604 26.590284740580934 0 -2 -2
13 5 1 -0.8476 24.772428112633136 25.984981086154715 24.098093644409293 -1 0 -2
1099 367 1 -0.8476 28.631024533360975 23.329613144162497 29.243645366088305 0 -3 -1
298 100 1 -0.8476 29.959381240705444 26.553753890141163 28.037507162792934 2 3 1
735 245 2 0.4238 25.81037811852277 24.73323532700433 27.91634758550126 0 0 0
2376 792 2 0.4238 17.54439313834932 23.552890316965044 24.08826254536661 0 -6 2
865 289 1 -0.8476 25.90802684153317 26.00267365127393 26.57765384804064 -1 -2 1
875 292 2 0.4238 28.217945881796656 23.36623386464344 25.94403250271542 -3 -1 2
2497 833 1 -0.8476 26.372643634925385 28.36242836532236 24.39109308196529 0 -2 -2
228 76 2 0.4238 28.79178891948991 25.425958188884756 26.95995734753462 2 0 -2
1843 615 1 -0.8476 29.22342306402428 27.337759575064492 30.745352021245818 -3 -1 -5
2767 923 1 -0.8476 28.59213692350263 30.039233004649905 30.973637508051727 -1 -3 -1
1652 551 2 0.4238 16.379239981494226 30.956684125740978 29.55587099605298 1 -2 -1
1510 504 1 -0.8476 25.20438627650117 30.531966076241932 25.454157016893276 1 -1 -2
734 245 2 0.4238 25.547555812322862 24.516713661361628 29.51342898507457 0 0 0
2719 907 1 -0.8476 29.09476197845372 28.377386685456578 26.216527076314577 0 -2 -2
1433 478 2 0.4238 28.5950603704745 25.170200982223623 24.451370269333996 -2 -2 0
898 300 1 -0.8476 25.971774153092316 28.399077530408295 27.908378906605602 -1 1 2
1512 504 2 0.4238 25.726189844139157 29.73168968297853 25.15872753930442 1 -1 -2
900 300 2 0.4238 25.472662654971522 28.620456735585673 28.746161516350725 -1 1 2
2076 692 2 0.4238 24.42731650321645 24.416914488756035 25.88883359194646 1 1 1
1101 367 2 0.4238 27.72387039631873 23.67512994668171 29.003458948509437 0 -3 -1
227 76 2 0.4238 27.440720971429062 25.47189315609886 26.04391635468435 2 0 -2
226 76 1 -0.8476 28.37629349551196 25.123583806522753 26.10209195930779 2 0 -2
671 224 2 0.4238 30.09168636861822 23.66776660185568 27.85754823572119 1 0 1
899 300 2 0.4238 26.231301364813085 29.244581846529613 27.441722476455645 -1 1 2
1987 663 1 -0.8476 24.83485824265697 29.295598016843382 30.40080212485699 1 -2 -3
2499 833 2 0.4238 25.667511105941173 27.671909389168388 24.229933872099117 0 -2 -2
733 245 1 -0.8476 26.061004171874036 24.1921080901098 28.71907265545184 0 0 0
2188 730 1 -0.8476 24.516404018244465 25.55366422837465 30.749486593006697 0 1 -1
1483 495 1 -0.8476 20.07652653958372 29.803021764540002 30.939081308119533 2 0 0
114 38 2 0.4238 17.1900954002852 16.507221658253894 30.69208695074263 0 0 0
1468 490 1 -0.8476 28.23252121882023 15.876345258351302 25.359985525660807 -1 0 -1
2098 700 1 -0.8476 15.806934703545693 21.471118141933953 30.071179495753242 0 3 -3
2375 792 2 0.4238 15.932427934594934 23.522294427062786 23.828920256117886 0 -6 2
1988 663 2 0.4238 24.530475640421802 30.23212432982451 30.574784033497874 1 -2 -3
1171 391 1 -0.8476 22.26062507209569 30.45671824980852 28.121474862309444 -2 -2 -1
991 331 1 -0.8476 30.82737832911397 16.57887418804726 25.208673319485282 -1 0 -1
2967 989 2 0.4238 20.637324963268366 30.656073507567793 27.35625566162154 1 -2 0
2640 880 2 0.4238 25.69516283755111 16.028512478583632 28.867799517924766 -3 0 -3
2965 989 1 -0.8476 19.736521494654273 30.87306257534724 26.980132210424514 1 -2 0
299 100 2 0.4238 30.918742209420863 26.52745505702924 27.756553640492886 2 3 1
1110 370 2 0.4238 15.751126976995737 20.039165572710598 24.344277445804945 -1 1 -4
719 240 2 0.4238 16.635245416098275 24.19043417252329 29.63856924787308 -1 -1 -1
2873 958 2 0.4238 28.74213918155143 23.915257998573914 30.858455923774944 3 -3 -3
1953 651 2 0.4238 30.49913936962238 16.28751376535304 30.8714345122674 1 2 0
1226 409 2 0.4238 22.081582983156835 27.216778419125756 23.399649962947866 1 1 3
15 5 2 0.4238 25.223789354826227 25.533302087250895 23.328509996681746 -1 0 -2

Velocities

588 0.002936376724913812 -0.0011158881276376277 -0.019388580667219303
2601 0.01951525731668313 -0.007406812802482428 -0.008715854960959443
675 -0.01982041614848372 0.00012818729636985865 0.009307041824480037
2138 0.007490847486547413 -0.017818407904610613 0.005389477506572732
2600 0.008224335116126264 0.016282704714849987 -0.011167926100853766
2599 0.003937860744440121 0.001091964714744126 -0.006266737243166566
751 0.0012928920845524427 -0.00722277798807962 0.009814064301734591
2818 0.0008745714424388277 0.006749334846246716 0.0007085778362101681
2161 -0.0009489737751160592 0.004105213479417392 0.0030722443876692513
587 0.0024307665230098273 0.009225734099379294 0.017068741505099867
1524 -0.0184645344520614 -0.005776503051203144 -0.0030640691375229505
650 -0.002258978094118483 -0.006492486036854864 -0.009845894987010308
649 -0.004896588305691716 -0.006923971568037265 -0.006462067899948295
586 -0.0013838523639487911 -0.0055154049892835325 0.0004938549508361422
478 -0.004895399354682118 -0.002029874372511471 -0.0038746503979829082
651 -0.0059514158141779116 -0.0061643504060777685 -0.0024999275330515732
753 -0.004574939379228763 -0.0073686174318194474 0.003559941250403436
480 -0.009981722365649261 0.002584659228985731 -0.036969938519537796
781 1.4975711166017073e-05 0.00019345279997664866 0.002293629240983814
479 0.01015245545014194 -0.02499067021121116 -0.023003201327628994
752 0.00016853439910596886 -0.007287276186875537 0.012654895767137098
459 -0.00864621955639724 -0.017080053106804462 0.02126026839064951
2820 -0.006464421751155404 0.009146720120731281 0.008443732317120653
2679 -0.007863411225883679 -0.011971553183220317 0.006339411101224374
457 0.0006350111187811751 -0.0034340272578900787 -0.003716325888746905
576 -0.004861823038480819 0.010593665644983834 -0.008007223223678464
164 -0.029782202506412364 0.00013264142271423365 -0.007412583493437163
783 0.007486984627582894 0.0032463523912956834 -0.00427891827428863
782 0.0013947360611989853 -0.0015607399222751955 0.004619815642871894
648 0.0035065139970836476 -0.008851308352024849 0.002574605284592135
2137 -0.00021101491874529123 0.002133599333570151 -0.003609164486510714
1522 0.00703617266594687 6.47363769932673e-05 -0.0036280602388216745
1613 -0.002712614648445524 0.022321496439540473 0.011300950657291533
646 -0.008988189404294434 -0.0045002805229005065 0.00398815279732045
458 -0.024674277700880744 -0.0022609006295726025 -0.01418586313108066
90 0.0021639918851629404 -0.018295484286975156 -0.03593540817456863
2139 -0.008660461751722469 0.02394578703191978 -0.013562671160881605
2163 0.0022827645363633206 0.016183101866464586 -0.005149489835309501
590 0.0004638861374985048 0.023150378900537578 0.009488091244006267
864 -0.005459372374930578 0.0056049836659168625 0.0083104478249185
862 0.00024254461493454103 0.004533541483555106 0.00631134019611486
1576 -8.823586474658596e-06 0.0020091878784735534 0.0019596861783653546
2162 0.02392269415932353 -0.0017270028083189665 0.01678697040125448
2300 0.011129092083462454 0.0003127168063850822 -0.006971717014719333
2301 -0.009330976570986868 0.002749946660804397 0.0016673716241996461
2299 0.003995566722828127 -0.0030311331431303037 -0.005096188311635274
1577 0.007265310116880536 0.01002752479570512 -0.006006733658160411
2222 -0.007799174865840677 -0.02054168367311645 0.012724238700833746
1187 0.03579460301128081 -0.01383525458004404 0.007009848720157637
2819 0.006303669238817332 0.0008754503628352326 -0.022798200131809075
2223 0.03465192183474258 -0.006716922215176077 0.012354555529644033
1186 0.007430965593970664 0.0025260231792254657 0.0010782052353524353
2532 0.013682331748025587 2.1612000623759782e-07 -0.014174557498697104
2411 -0.0031987942154919754 0.014156177391755446 -0.007206344090477394
2952 0.0010817076969525947 -0.01233321963850847 -0.01371985701050706
939 -0.004132035014400558 -0.005596620367928953 -0.001286914432533208
937 -0.007086494763436177 -0.004604763170429562 -0.0012665245803355032
1962 0.002288916752307725 0.006519760726302826 0.0015713696917652419
985 -0.0010905797027058422 0.004384347325557986 0.0023550753510573254
53 0.000682329794974761 -0.006920534056612212 -0.002347715245697342
2112 0.023770819947467284 0.008184536062522113 -0.009281429798018371
2110 -0.0020637605267871404 -0.003102260637028963 -0.00025555337806850873
240 0.0009803736322632945 -0.007289819374911976 0.0034305251799681253
560 0.01776527470557536 -0.010894185051866248 -0.003693785163078624
559 0.00337211345347562 -0.006041000825334074 -0.002117400992512931
239 -0.0046997108589271345 -0.001957391327148564 -0.013786084595707954
238 -0.0003508099890094572 0.000622834581215518 -0.00044543627780816933
2813 0.015359194384947797 -0.018057312809864574 -0.0041089712742540686
2111 -0.0027455422886308303 -0.009273742033521677 0.001985491564131314
2812 0.003840933815367607 -0.0020776968303989466 0.0036875270014189586
2464 -0.0022904341384093804 0.0023708656418608455 -0.004091482769299365
2465 -0.005515319439534367 0.001656294545952828 -0.002298331974582426
2466 -0.0016041450150092948 0.010564525576323773 0.014619949973729928
561 -0.01781856407511516 0.0024079017681197055 -0.006255882167990409
1795 0.005477928236478749 0.0041984739196821285 -0.003245768539630434
1796 -0.004835525261212409 0.0027288926406864836 0.005882327524643762
987 -0.0045337377473616365 0.004332860596614079 -0.0020697239312497226
1552 -0.0016664962070430753 0.005446517410597354 0.0004047718555878117
1554 0.001368296420836298 0.015305120329397709 0.01401248010844352
2564 -0.0040632718007462525 -0.005052091583325262 0.006981638455531073
1553 0.011086478457314149 -0.0016115485462673779 -0.007552237104266447
986 0.0060130116197568036 0.0037070421058938495 -0.00044866958901994166
2814 0.009724597634531913 -0.008291911031678784 -0.0015833497976688261
2040 -0.006465303284047202 0.001638172787327844 -0.0043745077951843825
1120 -0.0015153776055590042 -0.002348321053589585 0.006903189195807087
127 -0.002423620010841234 -0.0004019231743435154 0.0007116745462864251
2215 0.002162799086468915 0.0036932484807596024 -0.005299849860959516
595 0.003238464916986277 0.004248998062755646 0.0011142426815644558
188 0.00031279722947405783 -0.004359694510475296 -0.008313650286487256
1188 -0.006232275081962413 0.010211507899081063 -0.006049048096932462
334 0.0028784749508109714 0.0002521859284256166 0.0032683706237960084
1517 -0.015853966102661893 -0.007414205725197518 0.0038432049323725735
444 -0.0073095780985699575 -0.008798456402815133 0.003381152690576406
456 -0.009638073572762808 0.020104352299987308 0.01868191106378481
290 0.0019015962357018783 -0.013839465770333317 0.02304076834635488
289 0.00731760436542754 -0.0012629375460065993 -0.000976736663359471
335 -0.01341164737671292 0.00033139190161732626 -0.006805759781884421
2364 -0.003720068711997651 0.00811611878848315 0.006374130591776452
2391 0.008836441190579324 -0.0017756840851720207 0.00808876579229695
2278 0.0003083921775322073 -0.001662168526663028 -0.00017538131124431285
2951 -0.022774535487363325 0.010235059912043295 0.0031765777213289673
336 0.017277975121736844 0.0010149618065599748 0.005914981631385005
3058 -0.0014603090980275313 0.00130038574312911 -0.004770161306168359
1460 -0.007994836368002575 0.0020616485962495655 -0.0150134112983117
3013 0.003441500139527428 0.0015512775854577864 -0.001275071886825647
589 0.0032901708159613513 0.005446108169350851 0.011298578494333342
2173 -0.004396039803193607 0.005520366305057415 0.005685009052775459
674 0.017967540801127307 0.017217170688846088 -0.025146179655299288
2946 0.0018476372388609096 0.0022581862139002466 0.01564605522856802
1580 0.0016769206539145774 0.010041197098074599 0.020497916527373095
2944 -0.0026772493756403986 -0.007216667497301755 0.002030314448469951
1589 -0.0046677396889701316 0.0004682634534282726 -0.0051801982922119435
1588 -0.0035513797504416285 -0.0011337605165586378 -0.004081629495425538
673 0.0015169270104426714 -0.0008968581609100334 -0.007272874503541624
49 -0.000594141212995992 0.0028454706239367795 0.0029095627598178034
2104 -0.0017750941763326825 0.0010544337901881985 -0.0034090116913626555
2078 -0.01198166429292041 -0.0006844598062705234 0.002159028276704137
1590 -0.010979832937987913 -0.002931471199928093 -0.003783940114069361
50 -0.01341617288736214 -0.007252795899080728 -0.010004836610092509
570 -0.0001352763360965049 -0.004479761008206483 -0.007192065087857473
51 -0.013444778272327113 0.017772592840961148 -0.0005199190992509326
568 -0.004751458757767547 0.005338196221472337 0.004144314935672033
569 0.01642873636638765 0.016696283371191813 -0.005946171977828331
1430 -0.006008562269304707 0.004312283939318978 0.00032001812117340875
1509 0.006040819363591217 -0.0024303038197657782 -0.02686172445502965
3071 0.0020510275729496126 -0.004566702655729988 -0.002473408712806463
1507 0.0026797531106869535 -0.005622491221173931 0.005032187932403221
1508 -0.01889120408262169 -0.00415079562485252 -0.008975067293714306
3072 -0.00486195493616823 -0.00017235713971172807 0.0021918101084254025
3069 0.002319738972692835 0.0013834332972870312 -0.0027199824085469794
2077 -0.005112997367755499 0.0012878286910254682 -0.004462801053826134
3073 -0.008449371282435524 0.00032250856314482986 -0.006644354638309774
3070 0.0012918412872868134 0.005008475876182831 -0.0020188610077876627
1429 0.00517964188065751 0.0004051264883196172 -0.007227113001905112
1431 0.004633272160723885 -0.011191675111184858 0.01697577885900163
3002 0.003998368456834581 0.0011143553199182774 0.0010219239497459645
2079 0.0034099525089900614 -0.006477675841344733 -0.01204481127785666
1160 -0.0035714136721637303 0.018587832592105655 0.012152059688203855
2105 -0.014316711711884466 -0.004356609006366634 -0.0005863599268147227
2106 -0.006195739624418235 0.020874269731163967 -0.011511403256340093
2174 0.006652056215088928 0.004567541965676201 0.0010660409241964282
580 -0.003023111307212566 0.00021974582982174458 -0.010302814171203184
1815 -0.016712055834909888 -0.004299776861231704 -0.00838675707225052
2334 -0.0020884428753386902 0.010475023404330952 -0.0037309003348315736
582 0.019027405746426456 -0.010300613787632449 -0.001510343302065134
1753 -0.002663364600204844 0.0021379863843547964 0.002486437090077801
2825 0.008574364520252493 0.0011772900348432777 0.005141966377608683
417 -0.0096086158196208 0.005299899705136563 0.0001634382270573878
2519 0.021126821292815075 -0.005297327049529168 -0.002271289220794701
1219 0.0015016748790051056 0.00012503608578035173 -0.0020525090757030915
2520 0.006358784851808487 0.010568350913733864 -0.03839069094304141
291 0.016169582665041454 0.018898037044504063 -0.03755874347415066
1755 -0.0082750074172524 -0.0036485667164426567 -0.0020938768611239197
2389 0.004018755809705838 0.0019590166971664882 0.005280577398833776
1813 -0.0036899583967284354 -7.934817062077589e-05 0.0009180013472463519
597 0.003123342205065317 0.004449125200867557 -0.0029535662494870355
717 -0.012538593270553818 0.010970500951084988 -0.02240008569962037
1814 -0.0035889672393572885 -0.0076162928048288964 -0.009699506782282352
328 0.004316925918858341 0.0008095447635461496 0.007215071462465787
2280 -0.011175057798608976 -0.003923062825023582 0.0019612894152674677
2039 -0.018974844076693385 -0.0013468543282576 -0.0038921082667869723
2410 -0.005957582078017712 0.0036579586441090107 -0.0006706780851451181
415 0.00046036278208436024 0.0011241276354180118 -0.006000774708964757
581 0.01608642673416943 0.003215124176700238 -0.018923809200626064
3054 -0.0013826439322267852 -0.0006871892350129945 0.0002122869905135802
836 -0.008391671940160227 -0.006244194617067914 -0.00913296057935037
492 0.000939986774725444 0.0024420917464934326 -0.0024232871456918203
1415 0.010524780492555813 -0.0032429604385331816 -0.009237328859409855
128 -0.007408372903567835 0.004893475130026191 -0.00488490959545922
490 -0.001270631457274732 0.005093341362186666 -0.00012361625410234193
1797 -0.012963941415635059 -0.003270326734613358 0.022349602701468334
491 0.000652934517048894 0.005600156750130277 -0.003638729142585015
3056 -0.008181862515143327 -0.0006997457715945702 -0.0019549018888120632
1121 0.004190740522230535 0.004789956513823397 0.0135565583664832
596 0.00043226909126313316 0.0021689370654615677 -0.009670453964647292
1754 -0.005176343522906101 -0.0031021081301490848 0.0025932200385636716
2518 -0.009820131940555093 -0.0019211352566312974 -0.004297696273928148
716 -0.0035504006230532305 0.004996835105419486 -0.0017038247859337459
129 -0.009143484776523636 0.006544654657499809 -0.0066953804204024445
2221 0.0012347782353936932 0.00215050812308904 0.004838449510883357
187 0.0005662189679615269 -0.007424808937441412 0.004398811979900121
2563 -0.002620913053925442 -0.001564275287345588 0.002754665589470152
2038 0.0019189381286245798 -0.001346680840327374 -0.0017803695932300718
715 -0.0035289575033181537 0.0015425930761326376 0.0038512206094576205
3055 0.000305042877463903 0.001463487380875922 0.0003213109804574446
2565 -0.0014525928860154506 -0.0011913467514153644 0.0009877066511513974
2509 0.004383203588646467 -0.002957742847002538 -0.0017502169506084405
1414 0.0022365118383316177 0.002609699042836484 -0.004262875187597059
330 -0.004802310502067231 0.010474830541801324 -0.02119428720484444
2950 0.0016829198005779645 0.00478115894457036 0.003204025879228239
647 -0.007352092584652656 -0.008530423880207173 0.004539905957995171
1578 -0.0059373258251668145 0.009295767253127668 -0.015399966907398515
2192 -0.01613070727469719 -0.005469745693341348 -0.009734932271219528
1523 0.0024966321058569516 0.0038167707993205283 -0.0041925127999314854
2332 -0.008435137453199985 0.004959352076103629 0.0014707577859282032
537 -0.012779958338526335 0.004118140356909162 0.0032665610025255656
1161 -0.031688110330644434 -0.020432935345176373 -0.016630358030588613
2510 0.005275339012665182 0.0007748785230989218 0.0048876910584461294
1835 -0.0014949477877700434 0.007392470896528335 0.004815257362780314
3106 -0.006870097599671818 0.00797930239812254 0.0027845433834951857
2252 0.004446214505346106 0.017512734040799772 0.007994580650435443
1834 0.00014779440784506856 -3.855761534444699e-05 0.008518697162272422
805 -0.0027398002448560752 0.003053665349400559 0.0005951819632930013
163 -0.00251079304082865 0.0072368649894948575 -0.0005714483984438848
1765 0.001468625481710777 0.0003382404013272632 0.0011414354925967005
1766 -0.0033507874761183336 -0.007512021689736254 -0.00827491483988902
1767 0.008011596000647154 -0.0022465328384092807 0.010762462137971038
295 -0.004043603684788425 -0.006586956068669678 -0.00031251956928935256
296 0.004805504881502318 -0.0012140190441952815 -0.008768777809099895
473 3.8661606790530075e-05 -0.0028940926432879923 0.00724110842121355
1175 -0.025261137624018798 0.015018707741387123 0.010406271974128566
297 -0.00011727634069812446 -0.005983369920294413 0.015231678506543682
278 -0.007229509694331267 0.010643415602477908 -0.014583282908835008
277 -0.003902682973246494 -0.004969652138463833 -0.005166232188206107
1236 0.0082306344402772 0.014057986077932124 0.005873598636166566
472 0.0020799792865669993 -0.0036663073893183893 0.0014564992918972026
279 -0.004227359149230715 -0.008946455702927717 0.0024328479268385197
970 -0.005527414396120302 0.0020723399516056704 -0.004692180916128535
972 -0.011651599537812364 -0.0005836258458483323 0.005698809160489315
665 -0.03383054473766284 -0.00641490724268347 0.029960956864675328
1140 0.004233710433949489 -0.024919617719139475 -0.01273585313551093
664 -0.001485395296775037 0.0027638082362199993 -0.005020070974607992
852 0.030164669512372726 0.032574563907000885 0.0017375915961220455
971 -0.0008004411443199958 -0.007350576838262752 0.002733363323829962
2171 -0.011667685367517937 -0.00837996042133892 -0.015337619176582372
474 -1.2503106761158926e-05 -0.00024765467805130655 0.002019141589897955
666 -0.005459080341288536 0.007240686179570712 0.008249045747750861
1220 0.005529601649291429 0.00764423892815997 -0.008780379638247638
1947 -0.0057710779515387734 -0.00786710329818693 -0.00788895231118827
2172 -0.006858597822528037 0.0064359916435477865 0.0018805850505135267
850 -0.0047401956506823535 0.002215873207584313 -0.004251223932471346
851 -0.008498311635130954 -0.00607264777197768 -0.03500421234681119
2170 0.0007424138889349864 -0.003761844015546159 0.006300592442152513
1277 0.0055311562542720094 0.0015051285313857333 0.004743929999525862
220 0.004337900100693184 -0.0005588252958265844 -0.0013679493082229693
1138 -0.0060023417921781 -0.00043514559488135295 -0.0013254979814951381
1139 -0.0022924860527773357 0.014631567847192141 -0.001129520896911017
434 0.004214712188064338 0.015084405171605605 -0.00992522055832859
222 0.001907360013947829 0.0098619559713083 0.004005633392677362
2549 0.0190305655086058 0.006960269379714681 0.011910757677661334
2548 0.0011354227118626633 -0.0015587655851072469 -0.007136381782015827
1355 0.011661747569597099 0.006802464733449039 0.007682569264656614
2550 -0.007119313993264548 -0.0052439772424547485 -0.01610354610728758
2088 0.007454821788617303 -0.02611356954916238 0.0009601355200267689
1948 -0.006269754028417741 -0.00755752318859938 0.0033674118701769668
2362 -0.0018596421336451027 -0.002573092456914847 -0.00011443443996444265
1024 0.0010077603925744128 -0.0009110324005648218 -0.007076254169924502
536 -0.0016813115189918168 0.003780826936365488 0.0023831005373023844
1276 0.0021751155342465637 -0.0007225894276689776 0.0006974489889025272
63 0.009735580602589975 -0.0001855092304514587 0.003759684542995627
221 0.008109499094145333 -0.007756722909272521 -0.002951048717748527
2981 -0.009029142078059436 0.0016674612497958468 -0.007203822553815443
1949 6.292576121973326e-05 0.002139140191461465 -0.006578710042835103
1945 -0.007328445029005036 0.00010499513852811969 -0.003200264254599877
85 -0.00516848103177717 -0.0024141984203259943 0.005568915478311796
1625 -0.008152699061728193 0.014164020094439567 0.004091213751945242
2702 0.0019334091836087542 0.007568052592704035 -0.003789899797496681
1488 0.000526611440390358 -0.013495231683860048 0.005708792981769371
1946 -0.00936249160656303 -0.0034594924945481917 0.0007910777296768692
857 0.0029721142676352444 -0.0030305950658727587 0.0007971286377732415
858 0.015137464514304403 -0.008121812351313212 0.0005876812284571157
856 0.008189794174696003 0.0040202131297093725 -0.0004335528014981049
1379 0.0021177067706932545 -0.007574115632101075 0.006278111149162176
2193 0.005557730031384377 -0.00435206483894151 -0.0046833698106154165
668 0.015024120071394384 -0.002619343917508317 0.00835235305811843
2330 -0.022577137864022198 0.02078760968001482 -0.008580771164453707
2945 -0.011299719812683268 -0.01680705248945305 -0.002506703210092742
1380 -0.009172013557578242 0.008301828921155328 -0.0027963616803565582
2783 -0.0012908698900848422 0.011660223523852443 7.853201605953436e-06
1378 -0.0017581116147175621 0.004998152257042825 0.007127281117802253
2352 0.02674051616485478 -0.009528193160520726 0.007596591242598704
2351 -0.002914093830847077 0.00425122660218404 -0.0037481771142884555
2350 0.008682794817866824 -0.0011910826694461426 0.00040868276928364384
2086 -0.0027607144170601903 0.003159958648744599 -0.0018717949276944202
810 0.007224190800242566 0.0039469644895578715 -0.027995735062939908
809 0.0007094249013025747 0.002215341289237155 0.022002428774450376
808 0.004217726843820644 0.0002977986174844539 -0.0026146887315119014
219 0.0033566227530233026 0.005625839499237034 -0.013661016885219954
218 -0.009750786921173434 -0.0005142122910839832 -0.012407990032685374
217 -0.003100348967686053 -0.002962153165582278 -0.0020622553772970164
2405 -0.019333425330151238 -0.026672805416131633 -0.008276038080866011
2329 0.00025558946617786326 0.0028093381350119653 -0.00024614833835893876
2404 -0.0014708749273573134 -0.0046453890150488664 0.00027200361240553453
2782 -0.0009035144620023919 -0.005359092535238843 0.00023416595274083625
2331 -0.0026351147771912714 -0.021661597493401834 0.00016537025334713962
1143 -0.024066444065547695 0.003077535565147169 0.0027154393942391045
2896 0.0015280132108502905 0.004823667101234919 -0.00037498691000887354
1278 -0.01476499113566208 -0.013851855777836153 0.021113170843799458
2897 -0.0065288256648724655 0.001926908142722659 0.0033264630995258346
532 -0.0024266990483335586 -0.0025489933058531196 -0.001595676477497421
2087 0.0012421215086785692 0.008144095411895983 -0.020230210837616808
1141 -0.00543291387784931 -0.006050237198850844 0.007092405393589647
1994 -0.019658014614437443 -0.007831189009306988 -0.0009752120359752234
2980 -0.0012763808481060597 0.004192990021326933 -0.007119406135655259
2982 0.0031435756243990043 -0.0038447271022664037 -0.006777972167099603
2406 0.005424041130119493 0.01658873288931179 -0.012834102712349475
1234 0.0046734287732878455 0.0005091876769016744 0.0009247775273737311
1271 0.0019646370160002 -0.00871155848261551 4.021337227305314e-05
518 -0.023105644644285668 -0.02753822274221745 0.0038895004665575024
533 0.0025089541863751556 -0.019068377279563217 0.005533316988992071
2989 -0.006577453524991375 0.0028381641044012383 -0.00036189971424433273
3000 -0.0007842371459350266 0.01820665512415961 -0.009096359392797215
249 -0.01945802411042074 -0.00922851402991593 -0.014644219335023268
247 0.002645204974840838 -0.006195040932422566 0.00490029126115826
1640 0.010005833795376572 0.006255415642078789 0.022343001470561803
2701 0.004039461975110285 -0.003024653211264069 0.001365575477031471
87 0.02654059684796177 0.013697751666206539 -0.007349749427541992
2256 0.02394751587734762 -0.002725838838276557 -0.003343003651621046
1272 -0.0006965649447351286 -0.00883827369249786 -0.010460282851122953
1270 -0.005919401614010891 -0.0012989720321732194 -0.002961125922838559
476 -0.017447963097104807 -0.00858324960556864 0.01851084013614294
2999 0.007025687447161011 0.008932855703601923 0.005433331517559146
1521 -0.01116535101529954 0.006689380344997367 -0.009295681957222385
2703 -0.0067710283971397014 -0.0017761244753408297 -0.00423962464986485
652 -0.006443052180570634 -0.005541430484895902 0.0058921039988675435
477 -0.013158619829561773 0.024357079980800986 -0.01778486317931603
1486 0.0028229538208702186 -5.311011799451373e-05 0.0013861146097333065
515 -0.0073310464450112535 0.013300805737116936 0.00046314567908703973
1639 0.005756172352989325 -0.0010958835012774457 -2.9388910068233822e-06
514 -0.0034834465033358715 -0.00666985572970985 -0.0010033023559522527
1641 0.003649113177936907 -0.015957678449699707 -0.002031558843391087
924 0.009797390491638183 0.007151136275185308 -0.023185972254175576
1921 0.0030336168016020055 -0.003338181926910595 0.003502484781878479
1295 0.002788262518064081 0.0059715377930997975 0.00498864318564772
654 -0.007628098597165165 -0.00239353244081975 -0.016659456705885166
653 -0.0033264183966264884 -0.003245622069522721 -0.01075299665078689
1154 -0.008812319336387781 0.010452225388745824 -0.011434465177991402
1153 -0.001925757665565047 0.008190121090916538 -0.004055122192657552
1155 0.005599231113080141 0.0014518264385486803 -0.013996932106302493
1296 -0.006404635479556876 -0.011746866601400755 0.010497238107978715
1294 0.00028824532444176487 -0.0014874341604071387 0.006967939350015193
2333 -0.0025425937774517108 0.010297396836764557 -0.0035734202753840614
1923 0.013861904014837917 -0.0030181557937417245 0.009913011504380705
1626 -0.010151069054240573 0.002877289741528626 0.0017224955832371579
1624 0.0006920419557530835 0.00042016459306122724 0.0018360984928489643
922 -0.0018995843408982347 0.0011717837302201949 0.0038881893111517873
923 -0.0127510759603287 0.00551869897788887 0.00843568696506497
545 -0.029270192772043745 -0.008404537247147119 0.01521912155149108
535 0.0024826543692515737 0.0007720437992340034 0.00036199562524633734
475 -0.0009731559059551698 -0.005519329657565744 0.005843736790697189
248 0.012220587244700888 -0.017379568773311642 0.02814225807717458
2379 -0.011323976115930114 0.007861178058961726 0.010547921518276427
2377 0.004909974050335062 0.006412516302098652 0.006843154186316289
1922 0.0013226474319452868 0.00013027677952460253 -0.0029407899791748975
1579 -0.0018438807087155949 -0.007335469911561471 0.002850720004213325
1221 0.009242352434625763 -0.011357043702153433 0.0025755463880414065
2255 0.007016414205373013 -0.009448869953177706 0.0010095020307415766
2998 -0.008561387402461618 -0.004345633033339001 0.0017811943216427004
2254 0.009299605772192292 0.0037179611118194557 -0.00023566376993012516
1895 -0.006879044222238831 -0.015259499317695283 0.006280380565441167
2191 -0.004569790926926116 0.004301130617210647 -0.0022467748004191463
1176 0.006887412254381209 0.0028949421615479354 -0.0062654058736164465
1751 -0.019012876637934294 -0.021749207107292605 -0.016030821923748807
1752 0.013182388870976834 0.012614894548341235 0.0009812833102105518
1519 -0.002385742572524179 0.0006694926306193993 -0.003091831480789469
1071 0.005248646374471681 0.002078474268195795 -0.013830416860852903
598 0.002627221772367988 0.0012227754951162628 -0.0005530720194776523
1520 0.004847218057523958 -0.004687603077593044 -0.007713286839606419
527 0.017980594347868143 0.018453180587936335 -0.0023543465688439726
1070 -0.005251640197775091 -0.006019562638303731 -0.019468053696400978
1480 -0.0010849048472645099 -0.003571476713830176 -0.003964873942358098
516 -0.008905460054126648 -0.004928141653591242 -0.030178098730915225
2453 -0.010319910102392684 0.0039324408453532455 0.001205054125064805
546 0.005827888801118302 -0.01207503185119157 -0.010632376670619734
1750 -0.0012458250781861382 0.004180553545304942 0.003261044666371246
519 0.003826103098762129 0.04536830407074218 -0.007126515026804918
544 -0.0022823563236363436 0.00019115761443779333 0.0019310656780976
591 -0.008856186926687763 0.002407858391308034 0.0055713880853078
105 -0.011111282110348661 0.008193075163963828 -0.014074936681196174
1794 0.008069094029237757 -0.0014282585350983026 0.008902356921741666
599 -0.002724921393041494 -0.00010678440094860614 -0.002313464721331234
2990 -0.009819718086415612 -0.0018081829714297127 0.003730508032766258
600 -0.00299574973198579 0.00044492180920596697 0.0005189545641721067
1069 -0.004770704449132144 -0.0037958208358859964 -0.00616436327579956
2027 0.0013984165489742291 -0.011718756875526261 0.006017471290869025
1416 -0.0061895834662920035 0.010075828259008738 -0.015984949619096724
2991 -0.013780936973399362 -0.012572643582204229 0.0120208268702261
517 -0.0034073539130983423 0.008374600651907526 -0.001247510146481796
2378 0.005369890455089186 0.015103343503626462 0.012552288959376549
2026 0.001508477825518121 -0.0013405781506804916 0.005087708716102643
1482 0.010381591534852427 -0.012113607487328612 -0.008492727507061575
2454 0.0011380125161714876 -0.01332505988391748 -0.008783249403808181
1581 -0.0019219938759109652 -0.0008370698868257462 0.00790584955489379
2452 0.002180377849326723 -0.005838355149799985 0.0018934428415750889
669 -0.0007940706985157315 0.001611550971039007 0.004625228881933196
2028 -0.009379311774670822 -0.02123186418683627 -0.0015079683252331754
1901 0.0024951925591718046 0.0030681461956533723 0.00421660627102728
2784 0.007651821503903243 0.0008563311445572298 0.008409909728117709
2511 -0.004038977135405487 0.0011539985014793013 -0.006949889516264447
1174 0.00402103012568653 -0.000664148949493147 0.0008814039364434232
488 -0.0050104005178198945 0.01473485796907781 0.011859601223715398
61 0.0020339369233226485 -0.00436506658668456 -0.0014531440392097034
542 -0.017418315457849245 -0.0006991243480538474 0.011450604325862548
667 -0.0018030929888851212 0.004078376978943842 -0.0040332775588003645
1481 -0.014313869386434802 0.003997840841653044 -0.0224231567013543
1900 0.0017890418574868549 0.006602413763834852 -0.01235538821107897
329 0.003741448552850364 -0.006206620160603579 0.005353602993236427
2590 -0.0044922301002583084 0.0015077731775855337 -0.004076806111676194
2592 -0.005586355616109549 4.302649435523266e-05 -0.003338183455482119
2312 0.002518895125807298 -0.020158641703043375 0.020191798959604573
2705 -0.008775151407020926 0.011728025896442036 0.007709402086182515
700 -0.00018247226842572065 -0.005176750355298913 -0.004242462985069178
2704 -0.00046550788945156935 0.003247989022198717 -0.002183601773983703
1604 -0.0014555618352038572 -0.0001469446385171972 -0.006713200146174596
1502 0.015789145942555764 -0.005944479722994922 0.006911046566584236
1603 0.0020233355588805176 -9.992900370931701e-06 0.004979921944065848
2706 0.0030333004965215887 0.0027242484194091613 -0.0060559624038217345
2577 0.009328547086277648 0.01576850575397653 -0.006678896948268307
1776 -0.009189490459101486 0.006046731313226229 0.013878353377131591
823 -0.0028873059758158523 -0.002033574799645325 0.0012813212372171454
1775 -0.013278882862734511 0.008516907771741824 -0.002011793973693847
1774 -0.004237879573803603 0.0010049943688482219 0.002110594535624006
825 -0.011594375013745136 0.003031758312243898 0.009389732973070879
824 -0.008971061493479723 -0.00046446721602283263 0.004100750989254384
1501 0.0024068407070746874 0.0012159962763448261 0.005498439459046808
2591 -0.007862015925698853 -0.01001591379948897 -0.010841701190832503
1503 0.0006831844119787787 0.01013906535928672 0.014017667896952045
1605 0.013102393405237741 0.0008394315505683051 0.006630047861939817
2003 0.004274594160664846 0.010032182699396658 0.0014070766372478497
343 0.005619954084508902 -0.0024971838564250325 0.0003200641179786186
1526 0.016508042788133226 -0.023306018649700895 0.007847088184491369
345 -0.002189101283045419 -0.012168818718275621 0.008045230181692023
1525 0.006183813660829822 -0.008225461984874928 0.0038333987727788006
2313 -0.019647434948584702 -0.0001776295425445276 -0.005444073220109446
1833 -0.007707894848452506 -0.001416756113469498 -0.006724850574457694
2576 -0.011715580923886023 0.03968543436294083 0.006802641324476787
888 -0.010905740599651118 -0.004462074894475057 -0.010380878654290328
886 -0.0012105837687936423 -0.0007363056530433646 -0.0037274927744482505
344 -0.01654229862563768 0.00038498417712865744 -0.008662699510492417
887 0.00644129789179631 -0.011131327872614368 0.013656283266399857
2197 -0.004883654275656684 -0.002848633905627789 -0.0010562602201445589
2311 0.0005383895489322479 0.00039958560836682885 0.009545903505275047
1769 0.002595401209013813 0.00684815072179186 -0.015558453508003273
1544 -0.0004131190154948067 -0.005179886609387864 0.0048466364828916395
740 -0.022304011497874036 -0.00014550242767681783 0.003149386669351677
1301 -0.003164675158026557 0.002064889432875273 0.008419195964116817
702 0.008692599338777375 -0.007778042882393036 -0.006568020786296868
1792 -0.002075727139348696 -0.0016912690309056461 -0.00022047333002645267
1793 -0.025340396360740453 -0.00257096936169973 -0.021547005741092223
504 0.007849848184807896 -0.008495231513005318 0.008575259242246952
2847 -0.006618516685948777 -0.0026473920757707427 0.002549656580907593
1084 -0.0001970988190526848 0.0033324807688713516 -0.004487253084525806
2096 -0.005269346764756464 0.011780052990371756 -0.0030623524928197615
1445 0.006361604299211993 0.008848174218780043 0.008557112088111246
1045 0.0017527946830660928 0.0017425210916853652 0.0025301231255733464
2912 -0.004707671751889447 -0.0019057337503020602 -0.007585386631423199
2064 -0.010416125209304784 -0.0025136062145075205 0.0011706755063116783
2846 -0.0055929210686604695 0.006964094571186797 0.002695293396139388
2845 -0.002439150873866033 -0.00021782379232395785 -3.170056138198475e-05
1514 -0.012051873480350818 0.007422892863007787 -0.002546799491777345
2879 0.007906014463792294 -0.007932895269485457 0.015831407291156757
1369 -0.0039613597833918135 0.0005720292548745444 -0.005160873320924144
66 0.004934201206381631 -0.01513835771070757 -0.0015067540585372683
1302 0.030271068948844643 -0.0009458711234839578 -0.026069768083919267
1082 0.00432964832800492 0.024436043464210043 0.0015225145060252896
1081 -0.004798908375115113 -0.001392735749585924 -0.007485860228728621
314 -0.015308131824325433 0.0011613816237849882 -0.020923558970798433
315 0.008106360816260533 -0.0067611973362797576 0.0007005173482198695
1911 -0.02158969287603848 0.008526955282302236 -0.014851317341687044
313 0.0009400585267470918 -0.0024865928023119627 -0.00323764712686172
75 0.003429993061859789 -0.0012264324286791095 0.00012145235276657713
339 0.0017099384410307055 -0.011214469855938637 0.006636574690118204
2629 0.002217502009779755 0.0038775912733574045 -0.0028018953566669173
2631 -0.00404067506124305 -0.0017424002642673945 -0.013143469043741626
1513 -0.0023386064910962145 -0.004307998575739008 -6.025106120418496e-06
338 0.008958173499059556 -0.005931639804350181 -0.0036977569830191136
337 0.008865338296576888 0.0028007706391814688 -0.0013766803783435014
1083 -0.003041044890179424 0.0007996304950710127 -0.006940069948249518
1370 -0.006409526306109294 -0.006633000842583198 -0.0037799684009519933
1515 -0.008589783810553028 -0.015928808968381038 0.007332529029667845
1910 0.00961778513270742 -0.0029302352087342506 0.029198086320947034
1909 0.0013151623664341963 -0.0028024648806776764 -0.001533692169010901
701 -0.004129804985722965 -0.0041588238712554826 -0.0031236557065130164
1300 -0.0036604239714443645 -0.004108317524064996 0.008620699531489025
1142 -0.01232341637771896 -0.0018325556760905386 0.00522394891737073
2095 0.007697360529959532 0.0006927726051064141 0.0025175741305684153
74 0.009023453514762931 0.027384240450400305 -0.014617220387025882
2913 0.016029509423856173 -0.009515870149351222 0.0008078877911447403
1182 0.0017731830790560603 0.015560727354755582 0.00988150217243193
1422 -0.0022807887043205183 0.002272006422552768 -0.004763271393269269
1371 -0.030626362425586657 0.00869272723783812 -0.006301628521132223
894 0.0070416648052933515 0.0019580366854466875 0.009336798689584529
64 -4.887257879037004e-05 -0.004879113487591243 0.005169548358824123
1768 -0.006039511719500344 0.0016377598393181654 0.0009943021911728758
2911 -0.001821012568240674 0.0005239137724180037 0.003339034870192094
2081 0.013045640069092722 -0.007097223055002872 -0.0015181798516332682
2063 0.004247747193583225 -0.00634313269659388 0.0015878336423240695
1427 0.013247198276891862 0.013203004387938828 4.238845898390285e-05
73 6.923308055104787e-05 -0.002304226267456709 0.003791608961509804
65 0.0008169374463653665 -0.0026449598564971437 0.0009342193168840356
768 -0.007091926047414786 0.002472377121358081 -0.009000213930051097
2810 0.012404574062879524 -0.0018672354231238067 -0.01921553560630491
1031 -0.01873142627803647 -0.006829478357512922 -0.01798193031320501
2002 -0.005083116894588495 -0.002096987936193355 0.0015448836799073066
2062 -0.0020353937313874527 -0.0016737098591896853 0.0018772518717579307
1527 -0.017138918973950198 0.01856420848729207 -0.002623042119558603
1420 0.0011860246184189401 -0.0029234964116076237 0.0010957180187144834
1030 0.003021082274548658 0.003835093516330773 -0.002588910820067707
1635 -0.016909743242993186 0.005488462431282812 0.0009577271150147828
1800 -0.004294421364493195 0.0022183697635937373 0.006422260953780304
526 0.009902241529107512 0.00021993110992597458 0.0004630647293485783
1533 0.006346766234294061 -0.015106005378080538 -0.011311236404290227
3004 0.0005742675531661924 -0.0012956892539744986 0.0010577292730692472
2285 -0.010778376444622883 0.009559721011945268 -0.009557043999640776
1902 0.0032373564173117614 0.007465599530745381 -0.011272547454697796
2284 0.0017032833130616472 -0.001267331578595289 -0.0068782167369236934
2259 0.019658115968529326 0.0012451814157642713 0.011192145328109152
1032 0.027509574886357815 -0.0010681865612510333 -0.017140303650668473
1928 -0.005156544604989731 -0.001976525340755869 0.017525913830577708
2686 -0.0065974786927774556 0.0027221134129438956 0.0015739403106480266
2688 0.011146494534041453 -0.01452191157950191 0.05196144588724066
3016 0.0021396380404372197 0.0012416100574104277 -0.0006141079372995546
2385 -0.0006239553940447787 -0.007665756556022831 0.010687191612453411
1531 -0.009543339875225716 0.00206390114722518 -0.0034824828256214105
566 0.00035346307561658096 -0.017908505621838634 0.0001306232874431937
2384 -0.0006438086988804344 0.0026810788830226168 0.003867213239226536
565 -0.008799696484083382 0.0063534791091786075 0.006773569731551948
895 -0.0023317956455395253 0.0016859563716571826 -0.003131818499496361
2306 0.021717944500192765 0.022911449441025564 -0.013995251717437191
2257 0.003817745224339568 -0.00044548758543928234 0.0019158484353687863
3068 0.004137619341135317 0.0028361893988042685 -0.002576737378715199
3067 -0.006670673775489722 0.0011565793850016359 4.714602430945619e-05
3065 0.003173373668906804 0.005090058436665472 -0.0008505794612728211
643 0.008492681729698408 -0.006081214351411078 0.0032306943361958195
644 0.01200020318319134 -0.014735329916793098 -0.004844476022642434
3066 -0.00026360706677664494 -0.001339581255291607 0.0064565858352528495
3064 -0.00399224743978631 -0.0032397511293050267 0.0011305070045112564
2305 0.0026634445611043284 -0.003855823263577284 -0.004752968770812863
2258 0.021001131596745423 0.0035210527016973324 0.012459504572301123
2307 -0.002794866208601441 0.017927850038745387 -0.01823509690810209
2687 0.010778952642217397 0.005506798167312319 -0.0075511087243014365
567 -0.0012482990821389352 -0.006961340639355904 0.004914477492810646
1832 -0.0008889496848264298 -0.006311091616023398 -0.00852219194100293
2383 0.002488162227360448 -0.002368383443057691 0.005704754987781457
896 -0.0073906513115231075 0.021059690700558336 0.010933750282499377
3047 -0.0006801143271704804 0.005876096104426784 -0.0035822719078060744
1532 -0.010255620292527431 -0.0005676353899415312 0.0032887993973228532
1927 -0.003178905394639769 -0.0038768029585787966 -0.00586320025483459
502 0.0016198028565247544 0.0034114940008266484 -0.0051531488948994356
1634 -0.008090925720685455 -0.004726481535655637 0.020020549801847285
1772 0.0026617195298439065 -0.0014147508953996123 0.0067670802655288124
1831 0.0006733252257830305 0.0015467760061295686 -0.004203168968121929
645 0.001512581197805709 -0.006664522720507676 0.00716239167758374
1417 -0.0007959328279652891 0.002158850155555073 0.003922315362976217
2361 0.016545229435218273 -0.015178558716932055 -0.008630262231115031
1929 0.007105558873150713 -0.021849397024320965 0.006927878542261649
1638 -0.010213003911999283 0.0006959918112637791 0.010183661843451293
1545 -0.0011193335232791669 -0.0035823902101526865 0.00486317906120782
2617 -0.006389118371392045 -0.005453317052897527 0.007569342147272886
1421 0.0065193895757681905 0.00336337276092596 0.004439354703040841
1085 -0.005510197909799697 0.004258282427151375 -0.0016151117051173237
2844 0.012483278423807687 -0.007155462588427282 -0.0028010926335552476
1047 -0.0022368503266828217 -0.006263192072464997 0.0031582062943560324
1086 -0.014335425329966817 -0.017292145139541183 -0.004334043817430862
2619 -0.012742600920135242 -0.007688150179971602 -0.011560226892219711
2898 -0.024097202752433277 -0.0020089275426700744 0.008146406713493898
1637 -0.03793967710391524 0.00549672614363311 -0.02444544800512194
893 0.02573474605360089 -0.003137348091055023 0.002011935619314677
261 0.0006599336005616524 -0.0003850357020899464 0.011102105894729842
168 0.004005620368670774 0.010188954501679521 0.0030151155568138295
897 0.020568731086980107 0.03065812515100317 -0.004723685083726623
2843 -0.016194310409489588 -0.002138806770841067 0.0023955979949853816
2618 0.010985775703281207 -0.008995400875531287 0.02427694782837045
166 0.0049960972282861865 -0.0015449644434835366 0.0029305651849853617
1181 -0.00027884905787766887 -0.008631707047039704 -0.005878533134945677
252 0.002853705861772867 0.0062353579588160235 -0.012288242836663391
251 -0.005284635786578823 0.005390180306153598 0.00930747058719055
1770 0.0053400809378139815 -0.01177172993672941 0.009591410192170918
2842 0.002411989579685552 0.005251280777141797 0.00040946060481719584
892 0.006581579235501099 -0.006127616427292545 -0.0015128138872589052
1798 -0.002632047925412257 0.0009932973924508415 -0.0008378157839696555
260 0.001327207869806492 0.0006985128981268562 0.007660055287396616
1636 -0.00736036719705515 0.004425076983046439 -1.7565819518424454e-05
2199 0.005312499161156446 0.005170421629279263 -0.024150307904881898
528 -0.00013770415132893413 -0.004317157276498282 -0.005785038918210026
1543 0.003433348953269158 -0.01010168927974357 0.0035968786372185366
1633 -0.004045635791370164 -0.00013010005827055935 0.008492935213890166
1180 0.0012241231140161096 -0.003967818108526672 0.0013437847512202078
259 0.0025253176275755506 0.0019171926905450986 0.0030424584543619847
250 -0.004443847160222676 -0.0032729920839160817 -0.001935280123118884
1799 0.006858869583101938 0.0037323344950726416 -0.00987508939928311
167 0.014943676169039685 -0.004815198095707899 0.008209039690459
1446 -0.012834332559318387 0.02809162655498909 0.009651243767937544
503 -0.007961131530722766 0.024268729270913045 0.005793407864879745
3046 0.0041318649833148565 0.004056045512724961 -0.0014722342037234747
2097 0.006303009259643341 0.008142807927679747 0.001948397400604218
78 -0.016812644905784005 -0.02070233794648273 0.015596683392755743
1119 0.004075776897818098 -0.01525952862741459 -0.0045175945390907865
76 -0.002506061904028828 0.003607104152111357 0.001319324897091137
1117 0.0031072314385813407 -0.007032517979853178 -0.003975608667276921
1118 1.4879619550938285e-05 -0.012298931180394202 0.003143326091149862
2057 0.0018849224172194825 0.013501131703187761 0.0067619229343451916
1990 -0.0035401683212830594 0.006638295406270246 -0.003764028311830271
1808 0.001230175948174226 -0.013466957099202865 -0.001951832501648992
1991 -0.00616634058891414 0.008235632226773431 0.00026107971811653233
1807 -0.0012019878111636316 0.0025849489428427935 0.0009320105293501599
1680 0.005479423475392521 0.010597217276471348 0.010563706155670864
1992 -0.0030457075599777113 0.011101561650594317 -0.006724386464364685
2130 -0.007891208435866165 0.0005863475135509888 0.0037631222775308163
1246 -0.0036945826836574176 -0.0049256984578866314 -0.004519490905777083
1247 0.007182124197814793 -0.013670287242562773 0.009599336525473758
2456 0.005556604416279845 -0.01642897802823058 0.016846702083907247
1248 0.00023189661059149185 0.01497573960391383 -0.007655774084064806
2876 0.0035695821674148996 -0.0015925334992591986 -0.006404972180837047
1809 -0.004882354698826685 0.0010597586571547244 0.006813976753886816
350 0.0036735413304642677 0.000621442270738426 -0.001863577266683263
2742 -0.015653642441804134 -0.014411478144098053 -0.004477468886570493
950 0.01006793841223768 -0.0008889048630137424 -0.0006881448378183636
351 0.00019375798196868103 -0.00469963378916915 0.006937117741277404
2875 0.003875375576823109 -0.0041201778639348005 -0.0053791019233014725
2988 0.015651838157303023 -0.005095745072097252 0.010843534760347384
197 0.016524476857087474 0.004786742356138964 0.0052952027539335126
2128 -0.0049858581636339746 -0.00023207210144572478 0.0036280731485806026
2129 0.007118673245713307 -0.005368478915063376 0.002221672519211905
2958 -0.002384170800844591 0.011244656899672427 -0.02726823580672427
1883 -0.010679212619503848 0.01274592872113327 0.001125870420370696
957 -0.00026608308310382674 0.005129370183768611 -0.024081148365342853
2056 0.0024893511793015097 -0.000197469920195205 -0.00086208980706118
2058 0.0016047861116079028 0.011551235936755076 0.0035390701730572743
2455 -0.005716746726712066 0.005638916309096746 0.0019162639795195138
2457 -0.027741094368781746 0.020505128805590873 0.014950933242378785
196 0.004679585206759352 0.0011576020356218913 -0.0008577848674949538
2859 -4.943505492617096e-05 0.001088277170482096 -0.007280658985925981
1960 -0.0017869324270029957 0.006180268067303221 -0.0022109494261663325
3052 -0.0031690973331836765 -0.007888209037371112 0.005392765078603796
1177 -0.0008074086037637109 0.001249089351346429 -0.007962992774200003
2080 0.005318933853693397 -0.003827887177381526 -0.006177109885257454
198 -0.010792489981729861 0.008945608292012111 -0.00654824801719221
1882 -0.003165376725453692 7.613282897425085e-05 0.00248287241767941
1387 0.0002331651766304796 0.0037503726264858585 0.000934188042430502
1884 0.004023589088188596 -0.003979371141388578 -0.008939382077423725
945 -0.002695178143798601 -0.012787623168587973 0.012858369924133176
1179 0.0076237429069383545 0.007715251822499455 -0.014726157329073163
2194 0.003034288722503383 0.005362367254232512 -0.0013777987932584435
1756 -0.0038923686916336672 -0.00841217252214617 -0.007859788272369635
2956 0.007315943643709173 0.0007541392701179882 0.003375430572820263
2195 -0.0010738254284474958 0.01624083345401198 0.010885451281713225
1062 -0.0021567943834975645 0.00744362088071664 -0.007337174844498859
2196 -0.0064968774565245906 -0.019616114178974943 -0.00671149258218671
1061 -0.0115365681207146 -0.002045673944338512 0.010296705215583448
2926 0.0013719994150136802 0.0030116842284073505 0.0073159876806270455
2978 -0.009870148756697646 0.004927659265836172 -0.0021214955205066323
905 -0.003367046887435122 -0.01144818352627414 0.0004924752469714825
190 0.0012977121162326202 -0.002194124009629107 0.002994424354545542
904 -0.008808773810444363 -0.0025903159051831695 -0.00396266284415163
906 -0.018916567611732788 0.004405118957571379 0.008834528871075144
657 -0.006568705214037213 0.020628206519627348 -0.002403136794780655
1210 -0.0032727703996367785 0.005775367845993581 -0.0004758131527492171
1211 -0.00490021304696872 -0.006392384393450273 0.018835566605092884
655 0.003006910246060733 -0.0018492821255728692 -0.0011751819442566314
656 -0.0026408533656065943 0.002359527978036286 -0.0018696664641899702
2957 -0.01748187245183226 0.00611501899153551 -0.003979981825020305
396 -0.004854406711204496 -0.01957530864596504 0.011395603376714419
191 -0.01338678169722689 -0.013179750230437624 -0.010448481205268076
2979 0.009443432729807013 -0.008302911284465055 0.009290960719564229
1212 0.018728118141827347 -0.0014176559967901453 -0.026322592170393316
2977 0.0014140017314205856 -0.0034088653145926255 0.0044509349877349105
1145 -0.012237205293752733 -0.0005963207486460045 -0.013217401086646787
1146 -0.015934815877262996 0.009281584430009397 0.005943864613805434
2928 0.022223173796382806 0.00819628934664767 -0.005684433822784031
1144 0.0006145528342558364 -0.0031630144558467514 0.0017108646571145872
1678 0.0031688858300477816 0.004594247741101699 0.0038765446497455334
1060 -0.010092186587525054 0.0001505627026668797 0.003825696505551727
1609 0.004610466198621745 0.004398934655434716 0.007423755560470409
1836 -3.852312602763593e-05 0.004646571950418659 0.0048701239448427
1610 -0.004190126159551317 -0.015088483653948822 -0.004584780206932219
1611 0.0006258022373749949 -0.003922088128146592 -0.026996698582877045
349 0.0011289877197863223 0.0012699693390540244 0.0007628063914624991
2877 0.009287990644750532 0.00968129999196386 -0.0031711065515134685
394 0.0041200883921162605 -0.0028092714728326232 0.0031490357951273525
2667 0.007412723719300216 -0.005158253433690313 -0.015349346289875119
1739 -0.03126289984872577 0.002485863089815267 -0.025700902770113165
2480 -0.006877588029472071 0.0027709259740352856 0.0038452603202021244
1178 -0.015301547378505021 0.014483282160814482 -0.0005801776254281815
1961 -0.00852103937159934 0.008637384153538541 -0.007000409201455088
1679 0.0037898965751659904 0.005548501929903262 0.002836049078568374
1316 0.006454609337451341 -0.0006728068162590568 0.002139770491734102
1317 -0.003308695963554293 0.0042862144579106564 -0.001594575574492562
1028 -0.009583504272379422 0.007028781136953619 -0.007850411857499323
944 0.0012492147375402587 0.017734950405491834 -0.006506788625615446
1698 -0.00455543057619499 0.002055396302483556 0.004738749898134298
943 -0.001683425376113914 -0.0036871648905102963 0.000941998955210217
2740 -0.005562175126108499 0.002908495474996655 -0.001619024974171269
1395 -0.0025310155587858004 0.0014017661345680076 -0.01524169308617412
2459 -0.003216974451543561 -0.003337630848200605 0.003675854583493072
1393 -0.004086838319160078 -0.001731728955908058 -0.0017985767034555677
1159 0.007606800509273142 -0.0012503733375519063 -0.004408615899544276
831 -0.013682309651430483 -0.0010116728550398685 -0.008039034361391357
949 -0.0027253063335158216 -0.002659617780487119 -0.0018170569515092185
404 0.026173511783157268 0.0032665192142031455 0.021554892038994734
951 -0.01886043591450843 -0.009620400083551642 -0.005589949737188332
1124 0.0028377610171124094 -0.009063746977844704 -0.013761172336246897
70 -0.001835288023581093 -0.004292293807461535 0.0031383003095205235
921 -0.004379529860132718 0.004138548204646936 0.0037415674160635455
1758 -0.007964194995444577 -0.00513892990750107 0.0002576926041386631
2560 -0.0017267966162412304 -0.003309167203296586 -0.0037174422368649457
2251 -0.0015060552405656436 -0.001935503403603011 0.0050307004701800094
3105 -0.0018928259319724056 -0.0039032265960640138 0.011628966323253826
2253 -0.002714381347859009 -0.023850598925906807 0.011505974613150362
2986 0.001429837612090477 0.004534468423456661 0.0011038427194760782
1697 -0.007021691026745429 0.005864052487909449 -0.0035923542685799884
2458 -0.0008371467850620229 -0.0017228934998146722 0.0010929670234029966
830 -0.006271717719885401 0.0017708471447205642 0.021051925627537226
2275 0.00045486056991523823 0.0010687058818503062 0.0007439167509950647
2277 -0.008584680061316425 -0.0034261426026286615 0.02406484835563877
2276 0.013213199653512264 0.0009215961216017059 -0.011464341644791601
736 0.001755524882837284 -0.0011165886028137542 -0.005955582954175692
738 -0.004867582861376369 -0.008375975339494262 0.0022542150879182846
3048 0.004237478763652004 -0.007001068876824454 -0.0044571989861280125
3003 0.000744384047027095 -0.000133864313307711 -0.001000861899813104
363 0.008610349845266195 -0.016547830515153242 -0.008119308169287904
361 0.0015825657572316842 0.003837005301803475 -0.003115835101765444
362 -0.006926001041516177 -0.02335121267934659 0.005184026070401179
3045 0.002502166039838407 0.0032774521519335423 0.0006536802994089281
3044 -0.004132304502330058 -0.0004099163171613234 -0.0025414639737426966
2562 -0.013830366110618855 -0.0007231241239625185 -0.007874077379446787
2561 -0.013793676051922669 -0.012438045373148163 -0.04916620209756256
3104 0.007300874751159286 0.0018359273549049737 0.006157043568700944
3108 0.0024890438236321965 0.00015839081141506695 0.0052093664227404685
737 0.010081875583789071 -0.008191150883266801 -0.019833041540477485
919 -0.0040075310239322285 -0.0024856177312609397 0.000875761817709628
920 -0.0042915378228935526 -0.0020948909219755704 0.001045266384648922
72 0.015927399855696932 -0.008571374810731575 -0.0033555967455076202
2460 -0.008789962954003673 0.012336622172148192 0.004418178911717724
1696 -0.004940785671984352 0.004737422366936427 -0.0010483923239285346
829 -0.008942211233574906 -0.0006778856310040597 -0.0009528539064843317
2987 -0.0038560000381951992 0.007037405121966195 -0.0026092263925568482
71 0.00591745669194304 -0.006099985371230925 0.00018037432506686556
1394 0.008835845889233607 -0.000776355034955735 0.0007823722933520976
2666 -0.013858248080983415 -0.002055650656434594 -0.002936998963288031
2412 -0.012683013708147608 -0.003229234241405923 0.0037366136135906056
1055 0.006333471981262632 -0.015296524739415398 0.0005885108195185716
1315 -0.004625812297555592 -6.66841862280789e-05 0.002809878593177017
1454 -0.016814898871173836 -0.007397746248657801 0.006206390615203007
1918 -0.010890390384236169 -0.00021830555675039505 -0.0013411942646362632
1738 -0.0019314512263000098 0.0012784216678077991 0.0016181992031733899
1157 -0.00265853985730634 -0.027309558752058156 0.004754883010957808
403 -0.00402070755582018 -0.0032660966766724932 -0.004589951280280911
1027 0.0010988703379994668 0.002186191504941263 0.0014252433262543225
1740 0.0289518341913499 -0.0224569054543919 0.00920318610251473
1516 0.003720692722581264 -0.005123562541216426 0.0005597330964407711
1790 -0.013429922274959864 0.0159659904692825 -0.017843779539420224
234 0.00681178394427468 0.007505457682375822 -0.007272596730821577
3050 0.00814629736317548 0.0013325657691879913 -0.00393718177738832
1407 -0.008971363636744145 -0.0016126954481233344 0.024502248450722276
1051 -0.0025386899981733662 -0.0037781509391690837 -0.0008559746364208826
863 -0.014967824875759948 -0.016497209705154132 -0.018267948974072495
2049 0.007141951770890613 0.0069310779067533095 0.008141053583644385
1406 0.014828514353209745 0.006364015500008336 0.007022004399464842
2739 -0.002327924578790456 0.006343117672612662 0.01998114536709305
1518 0.018707275258495405 -0.005227601881478131 0.004860296255445271
2082 -0.0012367446533741381 -0.00036122080114448527 0.00137219097967873
1455 0.020642043650956256 0.007932863268613243 -0.011692947040806041
3051 -0.0030205264173991816 0.0038386535779998555 -0.00797331005245551
1931 -0.0014358038161603024 -0.0028890126017339724 -0.001590559409910702
189 0.0071246265265808165 0.004318867576611223 0.007949042376183303
1029 -0.004845376065273381 0.002413464736661666 -0.01724265841572126
468 0.006392493624671702 0.013645439602014718 0.00575455867158042
3053 -0.00030606580334516936 0.0004209118488150958 0.002886668185347662
1405 -0.0031990141664685395 0.001464838398083363 0.005766454937886247
3049 0.002158189763938431 0.005440308799918064 -0.0004345739879479261
2055 0.008041882806532522 0.010189021987126897 -0.00041614782497747415
466 0.002128934759877843 0.003647007857504784 -0.000399650983452433
2204 0.003016682653802557 -0.003588172129810124 0.0009757419486953012
2203 0.0040120522016455235 0.0014345662328335309 0.0019374118442322254
2047 -0.00336719084105178 0.0008575092147472785 0.000723202645507689
232 0.004117171833936752 0.001664307974641016 -0.0024073048051459814
2738 -0.0032496419758936005 0.0014515955729508389 0.010662920469010425
405 -0.01262558163087018 0.0003137795651043405 -0.0006176084498196567
1053 0.011879751315214898 0.00015068424839209072 -0.002989255970651943
1056 -0.0011394039784101142 0.007424856098452206 -0.015291885018160081
2048 -0.0008029471017102529 -0.004235332161856788 0.004919809558872688
1054 -0.0008881872737993215 0.0016645546256603013 0.0037904435504875983
233 -0.00016487772361193414 -0.011760113817834735 -0.004155594880358014
2054 -0.0020018456659812145 0.0073106002483229555 0.011681231402995549
1052 -0.02510395137826921 -0.0025797934612955538 0.013481959906455846
2737 0.0007237590115686058 -0.0021277422894750335 -0.005581665339661506
1791 -0.004055798154666859 0.0029935592822315617 -0.008494286017022729
2205 0.0016529103751757564 -0.001190673935545641 0.0003264032952088721
1453 -0.006587138735458568 -0.003612310242924001 -0.0005043483496725888
3107 0.003633346617547974 0.003720028560017591 0.005318235655614249
2053 -0.0017594926290526076 0.007093572816699664 -0.002309456356410523
467 0.012440707807685145 -0.002744743308471007 -0.006428369356032822
1789 0.005655192278527334 0.000738031312228551 -0.002557219326723612
1149 0.005557924006975715 -0.00868192395224612 0.0027609807991388633
192 -0.011102189532036287 -0.02296237522925995 0.00406341212004797
1612 -0.003392090073671682 0.009947944080154123 -0.0018978227763238418
1614 -0.003624657208274436 0.0028035286010514608 -0.011509179760816838
2665 -0.007207574014901939 -0.0025422361717548675 -0.007290107864148518
938 -0.00574584462655208 -0.0062977062361963855 -0.0002469106764128595
1388 -0.015830972344087414 -0.01412993142868419 0.007763467697438501
1620 0.00861905602823182 0.019047003814059577 0.020941369768098763
1919 0.006254311016741132 -0.002587343455427756 0.0185949425229732
442 -0.001524318135725683 -0.005084191868330806 -0.0024521668694641977
1671 -0.005852279337101091 0.011178434244090867 0.009305163977063012
1810 -0.00173598462035293 -0.0026521285247275103 0.006035665174766864
2749 0.0004433434599790439 0.0005159697988967867 -0.00542070132812832
1892 -0.002457323672931375 0.008299034564082207 0.004195932137936097
1669 -0.0009383067037767544 0.004756220760871192 0.0010098369209097745
391 -0.0011740055608698834 0.004525289221607191 0.0018089080080531466
68 0.0017207619242505757 -0.013441367223723561 0.0014244969664412837
443 -0.005044740326487788 -0.01027359803427063 0.01159303314961464
1823 -0.0058801993853790655 0.004846982920555804 -0.00016042069676379674
1824 0.021321178382122552 -0.014179773976649674 0.008529627197691115
1822 0.0006275193432176369 -0.0073962352339178895 0.0035461328438703807
1670 0.003044973305377434 0.003041691476511331 -0.004555128166041552
2831 0.010420474232724552 -0.005423077953999199 0.03762529269943766
2830 0.0014059782603999395 0.0027674439665347533 0.004622514798907475
2832 -0.0018009995590092913 0.010981539048177226 -0.001834875993243074
988 -0.0013613591569373391 0.0016807342304470236 0.002617614861201574
122 0.000893308006333678 -0.004852170401116209 -0.009666555877811385
2884 0.001874340587801867 0.006753306750437824 0.000325058757611444
2865 -0.017557111588275165 -0.009649663877310853 0.00033490317518500344
2009 0.0025363088300424143 -0.0061533374455066785 0.0030829404501843626
990 -0.015061761407720238 -0.007431449726857979 -0.009830555584181071
2863 0.0055291787922869306 0.00518927841572452 -0.0017544943199051045
2837 0.002846849452694956 0.0021648759466468322 0.0011725339056703249
1202 0.006050587553267733 0.007132755084289519 0.0011188903236509055
2886 0.00014231091879805628 -0.016812295075661683 -0.009316275719814842
1201 -0.0014987920338217534 -0.0004460852993584994 -0.0022743099792908333
1203 0.004906653730499392 -0.0005337462778164352 0.005845329624719561
572 0.006345563286484911 0.010075777631234524 -0.01828104687316073
1597 -0.002153495576348314 -0.0028610301896076886 0.0026978561548575823
123 -0.004173781294261034 -0.004438092084967801 -0.029592848352030375
121 -0.0033650038983362766 0.0004966016979619135 -0.0049755830539352655
2662 0.0011137370494109231 -0.003887234139086771 -0.0008853345873089686
2673 0.01181508962743487 0.000567127010227209 0.000828969216191577
67 0.0003294691029058753 -0.005536117002715118 0.0002808425420348465
431 -0.0057154297029933495 -0.0008284525502222381 -0.004925983863931239
2626 -0.0024512920675363054 0.002451178319720938 0.004917193565212543
2142 -0.0019736914195787178 0.00037672353617597545 -0.005528148585388103
2390 -0.020013993225118952 0.020300783879715227 -0.00873422199215934
416 0.018230738190784825 0.0017839456412169982 0.011389351540659695
2671 0.0011093951489547069 -0.005867985291328805 -0.0035149091426417704
548 -0.00033407754607703635 0.008356056135031221 0.004441083545059351
2175 -0.008771655975090059 0.0037276724336297437 -0.00485200884633269
989 -0.014345935904256512 -0.002486556657702056 -0.026143814790645092
2342 -0.008041415350805221 0.011764828483309769 0.000797784535451003
2140 -0.0028286502066325494 -0.0030542628734574156 -0.004458879526789142
2864 0.005793631931939155 0.013669416919129327 0.004945701884764059
2141 0.008582047180423274 0.010135577651093316 -0.00651549599183287
2216 -0.001701353400220102 -0.0003176687013975138 -0.0037789756701276695
2975 0.01848891663046566 0.018684418529566794 0.014715421197298392
2663 -0.003468472104085165 -0.007091810902711164 0.006584928812238542
1763 -0.00020039749212940827 -0.01258725789135276 0.0017302196563370614
547 -0.00827464078044398 0.006372830531626358 0.0023094749427550664
69 -0.005590683974966845 -0.0034061548401695192 0.011671043916554623
697 0.004518329434418818 0.0021275745482095725 0.00204691667117682
699 -0.0017463614508433133 -0.0019365257946834438 -0.008739676921727883
2418 -0.0054172662166349795 -0.0011395740923242066 0.018297347017721628
235 -0.006291324797432617 0.005734070718338949 0.005585169052634684
1764 0.0025256700232889513 -0.013898838479972251 -0.003778534544749394
237 -0.010702755308382621 -0.009895943935614595 -0.007217435893140896
1232 -0.0056511282594556254 -0.008156549478514307 -0.006397680145798234
1231 -0.003054661078834797 -0.0009748714830713932 0.00042337333181292577
374 0.00436912372049678 0.010214243234683054 0.006609210650050197
375 0.009124928641201648 -0.0026296038259033456 -0.01093340765918072
373 0.0013967905627431066 -0.0019371296971939218 0.0022143784578085974
1233 0.016635729537031043 -0.021733419348014673 0.01934665369359929
109 0.0041701454154011485 0.0004281284018358037 0.003443055038553833
3057 0.008154041468434172 -0.0002892598447210391 -0.0034297514704355165
549 -0.004811873982710938 -0.0017289210159804815 -0.010291765720946621
2416 -0.004586233631233217 0.0009166112399792329 0.0013159942214389562
2417 -0.012950583518300194 0.02346122668093785 -0.016426123739982083
236 0.0002978807436666169 -0.0026005678638696132 0.02395311364402339
1746 0.015645998208622593 0.005553111792404321 0.010944061463884144
698 0.0014870266206470902 -0.00829449207906513 0.01359175800166984
2470 -0.004315088849575247 0.0031891414450702597 -0.0005366842232472264
2974 -0.0027813263662389985 0.0006996764377349317 0.005863741348764618
110 -0.010856013959892824 0.0006848499667164326 0.011555918395819315
1941 0.010214379691399681 0.009809812339232416 3.4476297747954655e-05
2775 -0.018316384112626104 0.024538929708770144 0.006624876390570144
3011 0.00023177197724386743 0.0022074104641728854 -0.0015932285766206628
111 -0.001732327887139127 -0.0030438717070139345 -0.0027022575711490152
2750 -0.002160883740944449 -0.0064331312104641625 -0.013853450036806924
2472 -0.0052747258619682165 0.016120353904781438 -0.008333175298410163
2471 -0.013504799637401548 0.0030636277874475574 -0.02003383581390987
1762 -0.0026666871149269547 0.0009256523945409592 0.0013857139987253975
815 0.025888040408258144 0.016576570930438246 -0.01138425495150402
392 0.0017110449511481532 -6.755806248979831e-05 -0.0018548664665036998
2628 -0.009617686491248197 0.016782185711098185 -0.0011504066749294735
2800 -0.0038100241623033855 -0.006241297218129954 0.0019833169190974368
2801 -0.007544171582249164 -0.013267130733185665 -0.004433864842611022
2802 0.0014999046847205127 0.0007257154887268068 -0.0033576481186131046
2627 0.01311392425913986 -0.010301834134138299 -0.0031666779306971185
1396 -0.003603237428958728 0.0013940829500446775 0.0017298553127581366
2043 0.012360539308285415 0.017066156162048183 0.0019486044561367235
3021 -0.0029258116778572685 -0.002134650419956046 0.005683315999611099
724 -0.004144772706379004 0.006219335661983778 0.0027153222434623306
1381 -0.004064436682811608 -0.006202665176696559 0.003917840095894959
1274 -0.005331499801331864 0.004659858966305943 0.0014871891256008057
1338 -0.023028535633597188 0.006947988575421952 -0.0014717770393541303
2751 0.0027275665694492753 -0.015008555035270368 -0.006204312652734993
1383 0.006597747862813247 0.010280436694142232 0.013861482225157274
1736 0.017224199736046594 0.0033166334284604193 -0.00794868349329889
855 -0.007828591344505276 0.007741053763465147 -0.005817176913385525
393 -0.0006019042004033636 0.010844567263335193 -0.004981766504271453
2001 0.0001907016710916086 -0.015934786660041687 -0.0035114403162406207
1440 -0.022135814798969502 -0.029223107758661517 0.006612936370240841
1438 0.003331992164196215 -0.00685612092995973 -0.004951792852492782
1439 0.01345457586290719 -0.011025908098338113 0.0033174887683154624
82 0.002022494985627757 0.003744676161430723 -0.0014688324998505967
1290 0.009047676324347404 0.008588972874117647 -0.0025758529183628766
288 0.009955077273714473 -0.009206118914987514 -0.010411887749743526
2131 -0.0023444058012445238 -0.0005642825669098318 0.004968905307783043
814 -0.0005407541337174743 0.0022863118593523047 -0.005644054884936321
816 0.002502162164005648 0.0027878181272053826 0.008757382304193536
1737 -0.013698424298319729 0.008232830374566446 -0.018931616611025694
2929 -0.00034435388448906244 -0.0006602892626108585 0.002336021030767565
2931 -0.0069868001527309915 0.009492830840078187 -0.0019442133335351177
2930 -0.0004622346802867253 0.0011563808397027295 -0.003948988549085274
1658 0.004644695016056825 -0.0002690405203539118 -0.0014777605353143068
1657 0.004962486486355425 0.005411961400772204 0.003195889024357243
1659 -0.005371443005202929 0.0047750414639802195 0.0025399209952730087
1336 -0.005305251526886118 0.00016202445101920726 -0.0019683065049655
1337 0.015378586557182373 -0.008789331713019322 -0.0020679613094950968
2838 0.0036681883801506325 0.018560286957112305 0.003695441955610702
500 -0.004570136159205888 0.0006613246977183131 0.011456047990329243
83 -0.03517699120776136 -0.002113221435841936 -0.015530993946492478
807 0.013019731455805457 0.012767156309849297 -0.013129609664819656
2133 -0.016842704423129722 0.00352600481201551 -0.00010918669247263732
286 0.003078682363860522 0.0007501917964963077 -0.001488677989197538
430 0.0017970165279552273 0.001392984984005057 -0.004113227597341528
2132 -0.0023918371804503282 -0.007592191406813885 0.014022304057499867
165 0.011343155547877206 0.0031825227424555538 -0.02161459494555465
1288 0.0018538017767291038 0.0031922216832808545 0.0017078668992661595
84 0.006018136100698936 0.005323006170185131 0.003529797960470314
1735 0.0016579964722886742 -0.007222508002912368 -0.004578324886773342
1122 -0.007376924285818499 -0.001378103930406376 0.011856578202979133
725 -0.011958184419653347 0.011881794528322545 0.005610493178592579
2436 -0.009785895751360784 -0.017899005097103363 0.017972699652329446
1361 0.003344478221984903 0.001181077038196054 -0.009605090501271913
2349 -0.01673433768321169 -0.01317545402428832 0.001170584380539848
287 -0.007800116372518765 0.004369244453527206 -0.0011144255953231136
2584 0.010565852887411534 -0.003981648008704276 0.003292208829700865
1599 -0.00849092561764209 -0.0024554784617462884 -0.005991865116887463
1382 -0.006722653130038221 0.023409376344632065 0.005722063563760745
2586 0.008932358761301716 -0.009227120330813816 0.001581635488476804
2585 -0.0016882821751410025 -0.017505002105315037 -0.004053571213919905
2689 -0.0005071703005235721 -0.004314920133111272 -0.007144129234988833
2042 0.015319245683153173 0.008911016078167492 0.010029405190442755
1744 -0.00014602304758424466 0.0038085860418701992 -0.00506900851857169
1373 0.006759875684900014 0.007302668070390905 -0.005688596371921913
2836 -0.0005904678122191601 -0.0012760203158021569 -0.002606444947747365
2927 -0.013854780187220066 -0.004775920681822388 -0.009992857138255285
1745 0.008619583376970474 0.011338359635857017 -0.009890451469603673
1289 -0.013065634883085448 -0.002301153316784051 -0.0021870845257086
308 0.010424266232978352 0.003538798891306315 0.0041417269853125886
432 0.01631025661096949 0.011891745879013881 0.003425131352518181
2885 0.0018753721588407343 0.014415061638503765 -0.0039622725320833455
2824 0.008125149095374372 0.007821515501863052 -0.001303469501071226
507 0.01250763486607999 -0.0058086772320600135 -0.014099196531779705
1073 0.0023674993374896976 -0.0047987686209126305 -0.003470196631901554
2233 -0.0019481095989816919 -6.164467494748688e-05 0.001245804666024722
506 -0.016697697971885396 -0.005093095088922856 -0.024073552663334018
309 0.008629887179930032 0.0027998706314278443 0.0037349108071153517
1397 -0.004695358086830905 0.002811335929685165 0.006082552835120104
1398 0.011430639375996 -0.007337773996779816 -0.01679476336793325
2234 -0.006950261878336367 0.020776885513238825 0.006359831151215507
2826 0.004747279983925595 -0.01157383253339716 0.009543598086708377
307 -0.004678174653631904 -0.0034780345873317068 0.003389934300072184
1072 0.000835235039765151 0.004812951940468705 -0.009142017117750681
1811 0.006149407663162729 -0.01757719925396612 0.003100143013442872
1971 0.00898918468506553 -0.013395778176076097 0.006782643555974292
1969 0.006590778529824411 -0.005165217704537487 -0.003921032262421867
1970 0.003889427400399794 -0.0029217212831785483 -0.011288662370936542
505 0.00434181646478892 -0.0015350475900173276 0.0033596546962067772
1074 0.01778699084356172 0.01240109849508989 0.00043247966238135885
2235 -0.0061336279464530305 0.02099299563453345 0.000627728770999206
2435 -0.01534238049249742 0.013161322293003274 -0.010475669485458755
2434 0.0028819222492609876 -0.00014631330595726104 0.004335496580962597
2041 0.0008353008903966224 0.002585222997094565 -0.0016335198472764152
571 0.006298281032470292 0.008399616393399588 -0.004189584321967066
854 -0.0037313217265750567 -0.013190660487310173 0.004735509577190714
499 -0.000583584228308493 0.0016843114339567316 0.0002746098300004091
726 -8.35018612051225e-05 0.006261732660367974 0.008113181121709865
2008 0.0008628955583273177 -0.0032951840055014947 0.0028039375394953007
1952 0.008364682357890655 0.012539172424304643 -0.018361900750023308
2691 0.014142615691322639 -0.02327850448069733 0.003975464244604109
1002 -0.013369281913146132 0.00039275799707043363 -0.029191950702192954
2672 0.0018566219158660734 -0.015683031318895018 -0.0009207623024603939
1000 0.0010104303417557475 -0.0007617914510790009 -0.0025010338838303827
1951 0.00798272528161127 -0.0035677501698196568 -0.0021821956147339847
2217 0.0002478500470526731 0.03252098997172173 0.0001514664321189626
1584 0.007716713267466951 -0.006140461965123166 -0.0016307863461168513
1313 0.005868510608418187 0.008420296338945555 -0.007804975772454596
1583 0.002820347310200797 -0.001387753501752165 -0.0020445486796081182
2855 -0.0029563326356598784 -0.012962056819448824 0.006782794864275227
1582 -0.0014728302438640616 0.0020921141286715465 -0.006197733622185706
2743 -0.0011386759853947706 -0.0006486166433111958 -0.002207686405311377
2310 0.0002519732895778262 -0.0030750067207144954 0.013363538634003138
1837 -0.0007615348974166886 0.0011788532830929184 -0.0034299717533017565
1692 0.006313530110223555 -0.006719930027038723 0.023338555075751475
1471 0.003789383221205524 0.0015327054043545454 -0.0006896188964357801
1472 0.018446302285203192 -0.0032830045121449236 -8.180294385406142e-05
203 0.005381965456404374 -0.004811820718447567 0.0038334497926716124
1690 0.00826464125774526 0.003812613685025278 0.001602109188932956
2120 -0.026223077390414608 0.012569246222613241 -0.029282030854074003
438 -0.008686256911122542 -0.00832945022598019 -0.004540422568538484
2179 0.0008289191695002122 0.0001178993620189078 0.003616349430527689
2181 -0.000267395663865761 -0.008367310837849464 0.0037004673365035857
2180 0.0004155094433525262 -0.002782313020530153 0.0033883467235664264
1473 0.00529743677358596 0.012381503113361999 -0.003468300982786141
2650 -0.0033260646219666896 -0.002140995393028942 0.0037103617849624762
245 0.012825205912434886 -0.015895467570178515 0.003368791793481077
2652 0.006181012966969037 0.0027408451029998547 0.004050988302182081
2651 -0.005666877945986139 -0.006557644995318635 0.008722116406197414
186 0.014683020732823909 -0.010839397301874162 -0.015934347379074332
202 -0.002125342348947764 0.004247026280638213 0.0034133241593900924
2065 0.000636245107981427 0.007685333118661649 0.0002280531431522059
2745 -0.00021946269738832425 0.02188627710887776 -0.0023620664369054726
1360 -0.001983394083020494 -0.0016525348339498926 -0.003681072623381242
204 0.018935132359462006 -0.013577040009914528 -0.003324199524775781
934 -0.005483907116465191 0.003859027980962947 0.004547503365032843
935 0.01600623034931299 -0.028727894278181117 -0.024387099636954384
2678 0.0043494663467941305 -0.0008303144614027388 -0.002713277629928954
1362 -0.000268968519851561 0.00563599581490924 -0.012834119490305489
1838 0.010296375585701772 -0.0022842456086135843 -0.009729613429375134
2985 -0.0017292562833700037 0.004546567840106099 -0.0015285778978083797
2433 -0.01808470409703256 -0.004141325381891971 -0.013076187468324275
45 0.009818943649181155 0.01893692536666964 -0.0032835866848570498
1839 0.0182350951984831 0.0013571779674568115 -0.013896632587721126
18 0.002814616255562764 -0.020677934233377167 0.018235655330198827
2854 0.0036312684496074862 0.0067977038476217016 -0.0009851997616203401
2398 0.00015469656037000415 0.007876003951140418 0.0010918289543935258
2400 -0.008373464783086796 -0.018798094128750432 0.02425929305250427
96 0.007405608973749368 0.009523949748323195 -0.001780787526718399
936 0.005831054226276172 -0.01214903940349778 0.003933729616887864
1691 0.010943358302572787 -0.007204064389282241 0.028998279354012866
2059 -0.004631251834315816 -0.0016150839541693393 -3.910502248441453e-05
437 0.006950240514361197 0.015559825464060031 0.000611719553288945
2089 0.001758288803116009 0.0031159858232285716 -0.003958629741854554
682 0.0005435220660029666 0.003963271753457484 -0.0017047478393128709
2744 0.0024494783832381423 0.024878544979860695 -0.008043466752085579
2066 -0.004586116042537324 -0.0052435424334801705 -0.011169322522454735
780 0.0025473059552153948 -0.003657996476941332 -0.016741311009935197
1936 0.0007115586034702324 0.006181097640327541 -0.007002366846887283
27 0.009768297772426836 -0.0014944665439529875 0.012789356880968798
1938 -0.005029130362522494 0.027172668584077606 0.00994950704108041
778 0.002226316205585369 0.0001464571142762872 0.004734687363619314
1402 0.005217524451632727 0.004801989951364311 0.005153698764541027
2005 -0.004328455162881035 -0.0032986462950012024 -0.005053277149133647
2528 0.007820119707026639 -0.006360456322428651 0.006346030803061473
1025 -0.0034243594994772496 -0.0014944901832932662 -0.017347279678601824
2421 0.019770220277325716 -0.019316136151613976 0.005313635069905475
246 -0.0034839350200680254 0.011330584324732175 -0.0018542092126042126
1035 0.0029622818301021786 -0.006389839114244632 -0.0090894453709298
2315 0.014112072472921072 1.361103252628915e-05 0.0018056185866102904
2314 0.0005493621389462255 0.000952163174518354 0.0030596459572137073
2316 -0.008430509703153365 0.0045527692215491045 -0.013477146333178066
1033 0.003513543338483989 -0.00394535133014247 -0.008408171657922852
244 0.0025164805704896652 -0.005512382014955743 0.0018009865340185977
1950 0.010973439815657203 -0.012964470627955183 -0.0031924792470398615
2420 -0.0074869097983024935 0.0075741950440405955 -7.857823437892955e-05
1034 0.00605719716602965 -0.0075251480083966754 -0.006237626805828371
1404 0.0030417253928734186 0.0022834400739662414 -0.0034142145039269315
2677 -0.0030200092499191246 -0.004712455809847282 0.003065376051652791
25 0.004198331498394975 -0.0016620062203768296 0.002866794494229409
26 -0.0023697185146851515 -0.0022803349003356786 0.01035820923995105
2527 -0.0054316760538665135 -0.0022945898733938335 0.0014196802139150129
2529 0.0037526996993556424 0.0008666186430096204 -0.00768351632372081
1937 0.00608513753361525 -0.0043844836387176254 -0.011182767970541414
2432 0.020018694931443093 0.0036147659509820538 -0.018792753147783677
2419 -0.0028854740262375415 0.002388009206233486 0.002522885177371588
779 -0.009245315709135693 -0.002126841710744411 0.015583295619928406
1908 0.00391643605688972 0.004550208522235765 -0.023816693141156066
433 0.0017656155911879754 0.00025531399173205776 0.0034670237646504255
1812 0.008188876649576191 0.024145381540503625 -0.019216314866067966
1403 0.0039830214575618875 0.0021491052029721535 0.008034593936546475
94 -0.0006245747824409428 0.002631201249843252 0.001707900795380032
708 -0.0008106095172771478 -0.014557921939264331 -0.01204841543151503
2431 0.005174796759094117 0.004134064837300492 -0.003875641845317648
1647 -0.00038173083848540236 -0.0186811606202301 -0.01580564432664269
62 0.0035081917031064905 -0.003756601537910909 -0.004484143284234368
269 -0.003663506778001494 -0.0032462640578045034 0.0073570390241516365
2202 -0.021296622354553495 -0.001103017980909072 -0.030995446447089015
1896 0.004547852027451348 -0.0042112069725228 -0.003691272652998214
2007 0.0012897274118059973 -0.016941048229330513 -0.008257896547805859
2060 0.020322452902684626 0.014234200728186255 -0.011197799474354508
2152 0.0047092615439607525 0.0025736523079423076 -0.0017150804869348303
1314 0.013736919280419275 0.0057589608053905126 0.01225170074124965
975 0.013797972120082103 0.0038253158986518696 0.0149764532601413
684 0.00305557297928735 0.01721653803107353 -0.00459164584178566
435 0.006472353186843216 -0.004381708694235813 0.015428456707450336
2309 -0.01904525348234688 -0.031189233428430267 0.0025491054340198785
2552 0.012592621443682351 -0.003694563100113846 -0.011518737550644193
1963 0.0029082316901143782 0.003634066757700439 0.0035603496677623966
1964 0.012361674540886599 0.017728155380567014 -0.002951463080245443
2178 -0.007670260749286663 -0.010847183609547985 -0.0007355123478640785
2308 0.0031964017957514133 -0.0011057216884871935 -0.001169961317228644
2994 0.008477283794720368 -0.004154927220107507 0.009497944569518019
1235 -0.006844707634305326 0.0023612585124525207 -0.014282609518020087
1358 0.0009916149839665957 0.0066640441434646525 0.013150762594238233
2176 -0.0011341673140881463 0.00042845960570554845 0.004737336089085921
1209 -0.02246228576441699 -0.0021175873460310968 -0.004387337973232379
1357 -0.0025191986557339453 -0.0017313767978795228 -0.001191382260861039
2399 -0.02079483014259128 0.024128711293243434 -0.02088272169207676
2983 0.0004748045366388104 -0.003938925023449623 -0.00027967800453382335
2984 0.0009377042491226666 -0.015376855987305225 -0.027451800042440206
1965 0.0006917088327091982 -0.01179275663357489 -0.0005154021265616538
912 -0.0031971698222676174 -0.005845648035555359 -0.0006921367993043769
911 0.007774566152608848 0.025244308846068163 0.00465386553472852
910 -0.005047417963967061 0.0011811531645625662 -0.002618931317803859
2353 -0.006158057738766121 0.0006867970125442348 0.0053528522721198474
1359 0.0013260506877069388 -0.004224141596484991 -0.006047506806322864
2355 -0.008111388317567478 0.008825352941583688 0.004433297186652449
2354 -0.004865743242896425 -0.015500886783913412 0.0024603157638283003
2553 -0.010378076726391851 0.00014162281683994512 0.002214429024008863
2551 -0.0021377415930101226 -0.0002816733985580623 0.001989963415870266
2992 -0.0021208605893608965 0.0032184219530138744 0.005349414196216608
2177 -0.0061642569248697284 0.005724693796311735 -0.004235307547891824
1458 -0.007722333376483139 -0.005563900599567374 0.002577200791831527
1456 -0.0033110005151138883 0.006859726163306511 -0.002901731249611114
2993 -0.00805431121742928 0.009170582166264296 -0.018277703366171686
95 -0.006849210988621693 0.007959794861071469 0.006234169653253694
1894 0.002011821488889098 -0.006473793566232729 -0.001713754929771553
573 -0.010310848246568338 0.00086644235842039 -0.00839644154453524
796 -0.0009767536437716691 0.0010803305044633494 0.0034208756218523156
2117 -0.011476774801844832 0.014540012366689958 0.009579560236688957
205 0.0007120314628488727 -0.0005544788774973402 -0.00034818843662166377
1312 0.001611551936577748 0.002411333433044855 0.005213678181518761
103 -0.0035268912490135544 -0.001836094841372909 0.0043851830201977575
1207 0.00118919219843422 -0.0034008529385016494 0.0036147349494934193
17 0.027742733441114546 -0.004167980102134088 0.000424490587083057
2207 -0.010548283086264976 0.0031857788247625714 0.012573801259043706
370 -0.00405180756793522 0.0026764739548375514 -0.0020526993793744414
104 0.0011133655786483593 -0.0009494794626392748 -0.006802361860638836
2154 0.006359023563820963 0.013807359928086073 -0.0035971805106139025
1208 -0.007008640098590474 -0.0030027487463682137 0.0008015743511396758
270 0.005530454567218479 -0.014759943549815194 0.0038670694252559857
99 -0.008642766271943323 -0.0252654779870544 -0.009164763732924776
853 0.0020141993632729793 -0.0028943795245357463 -0.0018945669848300349
1974 -0.0012711322022340708 0.007693950136658714 0.005009070574111044
2208 -0.0005959987480642251 -0.01158832237005195 6.516355724573628e-06
541 -0.002982268206407398 -0.00617031649301313 -0.006866510063736718
683 -0.00949779565511489 0.026688789104452226 0.02633502058599315
974 -0.019491603694696984 -0.00018696519508139888 0.0302622894457268
371 -0.0027726077943319785 0.0021337694994981197 0.019753079693678986
2200 -0.0003609615994285918 0.006220241244254504 -0.004139442697189694
97 0.00036917796193725955 0.0010546846162440375 0.00016584973383833326
826 -0.0023590268275161183 -0.0006315450933316929 -0.0005005359583004365
268 0.0044474386491903505 0.004691079315892052 0.002984823604475517
2206 -0.002559072570175816 -0.007809118424794161 0.0009587818936711966
199 -0.004187939738561586 0.0031231401465626083 -0.003644238578320149
973 -0.0008675406931711032 -0.001068805280298249 0.0026098494210522565
1645 0.0014455125364391294 -0.007526420142162447 0.004785626590117541
201 -0.009136675797604353 -0.01214943819194482 0.00355123179424469
2347 -0.0018001352488266366 -0.004969966818925413 0.005254004884263412
2348 0.004085832000328506 -0.0019123376015050223 0.007866491340731611
1646 0.02008246309087303 0.008425784200065149 0.0030775283196915236
828 0.006981110141105305 -0.018106145047074713 0.004076939196322464
1972 -0.0014707666047525736 0.002818038697496193 -0.001141927588842889
98 0.017218972984300467 -0.015006144064255966 -0.027510742120064813
16 0.004972989147847345 -0.00682388097095393 0.00565331469581501
2201 0.017070335478171057 0.005526166282400696 0.011244066687950327
372 0.021074814024608136 0.005709116741908748 -0.007046585045999779
1457 -0.0009910584859069058 0.008201205625647813 -0.006706673180980028
200 0.0056531985809970655 -0.008347726060894838 -0.018151337346862275
827 0.002289304830487706 -0.0003511929446562672 -0.0009979552403456572
2153 0.013746444461605955 -0.0036575951139929353 -0.005347902794388661
1973 0.0064355463353025985 -0.0005199965662772868 -0.008758318363231822
1026 0.006679385068072881 0.008796571437605812 -0.012299376365529104
436 8.442172954299758e-05 0.0024501515377130054 -0.0014606148102155327
1341 -0.014283074798710904 0.010166663013583132 -0.0073292379069488656
2006 0.0042330035199071355 -0.008993831150849091 -0.0049903396022827565
2121 -0.014838468159410458 0.028828296557258555 -0.01223820391032682
1487 0.0090511351163501 0.01300327383712319 -0.004423452907657978
2119 -0.006452794657756143 0.004463489204740257 -0.0030954567560455832
206 -0.004767321451735015 -0.0037346398961942808 -0.003493007989999348
207 -0.00940818337584503 -0.0057557660059856025 -0.009341153368241773
2501 0.012080773037696316 -0.035095537937347605 0.012075785861093933
2500 0.003127223599799555 -0.005253501395601947 -0.000951216576494784
839 0.0026033171542540695 0.015316663011785721 0.004401039068474574
2502 -0.021675990691633992 -0.006002640106302869 -0.006502518510517966
838 0.0003692014243427668 0.0021278204000160453 0.0036329312080320923
840 0.0015320071932704666 -0.018198745067883444 0.00872313117836617
2380 -0.005706731558607355 -0.0014674078424308423 -0.0028029778333907586
767 0.001396570984292607 -0.000829492902842585 0.0038302425934738627
2382 0.005154164694334812 -0.0005928547326085597 -0.020653258604778436
263 0.01100819624102303 0.0015897845751495446 0.01853206090145925
2381 -0.010509312700471202 0.002476282216000715 -0.010665660938529671
262 -0.0006969672723580549 0.003926558840965009 0.0023579591688404886
147 0.0042367907102266985 -0.0010154160603225912 -0.014696752407097
1879 -0.006420948728231761 0.0005581481666785932 -0.00324457797557839
1880 -0.002665547639669758 -0.0003289487815628184 0.0039319875077053115
1881 -0.011942956915547932 0.009067790147934188 0.008032071863350414
264 -0.024108103317888485 0.014958678868853785 -0.0033406086375385655
798 0.005544622409335568 0.010592575823391053 -0.0050884520077143156
1011 -0.00958001315366516 -1.1918017605962722e-06 -0.009741168909398365
557 0.012425250416236364 0.018650390318755122 0.017787574525126013
1983 -0.011823509207702346 0.013813444201533824 -0.0090461039557806
2630 -0.004741119583268192 -0.009065749656494865 -0.008397296904550551
131 0.005248512327397639 -0.013576131569100772 0.00577673532060086
1982 0.01220697681416243 0.00919984614680389 0.006273159348303679
1206 0.005359207989769643 -0.012580056872518262 -0.009151832047088948
2091 0.010948434066746561 0.0003848232997813807 -0.004689717119528904
1673 0.008591810001401084 0.013377141262149233 -0.004023192099450963
1046 0.019145181710405506 -0.0016697747467507211 0.00718991689279596
766 -0.0004042955232192198 0.00037931912772648806 0.000437082751380716
2487 0.0060774535682868915 0.025096690844323193 0.0016093549861268689
145 -0.004631883402989144 -0.0045967540072245575 -0.001408954829097387
185 0.0007890083509937226 0.019518460340800094 0.0026004730734680323
558 0.012971324485852396 0.02114786230086504 0.020145860874756557
2598 0.002802415845801458 0.0011127949297741109 0.002127195938645954
1665 0.0032358612019592744 0.0016491913671370063 -0.007788770884045965
1569 -0.006827983203280506 0.002105958553407316 0.010801081234137666
1538 0.011675793625244247 -0.020218047874488578 -0.02251227834274807
2661 -0.009339975498226911 -0.0032346964202687825 0.0053032340290571954
1664 0.0005198126460247785 0.003076851813301756 -0.004429679550743828
2659 -0.0019102850103036308 0.0026895557589624295 -0.002317860931866888
44 -0.006887846004266615 0.01636736535016213 -0.005599544425181008
184 0.007293843583037458 -0.002449840003873077 -0.00418472880952498
1663 0.0006479833137322948 0.0016456550961852763 -0.006122167909690421
2485 0.0047922521939004 0.00546979754090636 -0.0042286587005431475
1780 0.003227814677785702 -0.0048075497436045975 0.0038966616649351075
997 0.0010400010623247498 -0.001209243284371604 0.007730977476980268
1437 0.009028372315761672 0.004944673045976927 0.015824884914088927
366 -0.01005543595178378 0.0228367760889388 0.015639122707701656
2360 -0.022182233639034068 0.0043346067846445815 0.001287897899035012
1981 0.0036031896672647098 0.0040145121299727405 0.0037215008150753865
1009 0.0028055408724581414 -0.0022224261294618913 -0.0031011414943432087
1010 0.01580657087299594 -0.01050347569499844 0.010249026273447657
159 0.011916315528126895 -0.014419570218419973 0.024912178323350825
2442 -0.006942865927723494 0.013644273925329702 0.00014207030139832953
1539 -0.01832959890876861 0.022407042903322134 -0.020220031220938253
2067 -0.005910196236879321 0.0011427060746375646 -0.00684773429457206
1419 -0.021593299353666013 0.007001168088432893 -0.0006040479351968573
2694 -0.004975795970297803 0.004813299103841943 0.0154573962501873
556 0.011864014827409047 -0.004308621654630855 -0.0015340559572251734
1571 0.008220726861400615 -0.003065085304808355 -0.0007855057961892646
364 -0.0005861522414042723 0.0062969004748689925 0.0013157614565557695
1536 0.015467069079380365 0.005289595708297679 0.00928350839175608
2514 -0.00658139993638781 0.0012383042180235306 -0.002770944616580456
2513 -0.0005613611726980347 0.019295510744095152 0.011340318239253059
2367 0.014168466733096729 0.01639959693140401 -0.0019419354835838447
2612 0.0013958717554255087 -0.013030956934303613 -0.0010740482314126343
2611 -0.0006206899213989866 -0.004456507921112129 0.005268211684832724
871 -0.006929567889932203 0.006587246133243556 -0.00245301442011732
873 0.018963878563684283 -0.00158493100744537 -0.02165457081817168
115 -0.0005053694994863273 0.00023999916323449143 0.0004669345316979345
117 0.01836823547267101 0.017481792428383963 0.01444875541614125
2512 -0.004992631192865191 0.0028378350147713065 -0.0004166886660789073
872 -0.0069075548954434345 -0.01865152266226325 0.003597873126143336
1534 0.00022077937852959186 0.002053606682850505 0.002407919429561065
365 0.013319691287984804 -0.014613624013952636 -0.01094066264463623
116 -0.009922364458602164 -0.014612908784892454 -0.01110203554951349
2668 -0.003028152112467906 0.0011533601839824456 -0.0030399182935841357
2693 -0.0011891793381891113 -0.015664703701427064 0.006945145815245699
797 0.0045033833235945874 0.015283781069134533 0.0020687561990410832
2692 0.0033454986186347746 0.005356906608970624 -0.0015844284901981932
1537 0.00033729771772639505 5.197819412639839e-05 -0.0030909613439366003
2670 0.015955521311943315 -0.022133494444786985 0.010260497398408888
1535 -0.01262025356445675 0.003688148956637132 -0.006805460440821866
1572 -0.015575823485397645 0.008857715938171749 -0.012698805223094394
1408 0.0016034089861176623 -0.0065396450972799725 0.001838439975113134
1287 -0.009256617522606689 -0.02023058520228371 -0.01290344907628552
157 0.00343674616398259 -0.005203149502629931 0.0017950082961575857
158 0.022985792577044684 -0.0036318804556565412 -0.014390321760133261
764 9.95228030375826e-05 -0.004051721473683968 0.0163376513608627
1935 0.0029618677316945387 0.005240414796175732 0.011833166700703992
1933 0.0022931855860181135 0.006616510164986414 0.001231476797530096
39 -0.011746564934211817 -0.014231389146644053 -0.014913803126191647
1443 -0.004351890715647479 0.015001269394020791 0.03384770700386196
508 -0.008820978172662086 0.0034676770846848656 -0.006208014461165632
2268 -0.021104065559228193 0.0006015992706998844 -0.005520073567049021
2266 -0.00044545852257889674 0.0018648622547544627 -0.0013330697599414692
2267 -0.024141936655472162 0.001473283514567329 -0.0056019572476432205
1204 0.002543009824522532 0.0001653269837759774 0.0019293125496480203
1806 0.011020343409520916 -0.006767841934650321 -0.018232836050108926
465 0.0024240662272345314 0.0032390247162485675 0.012783750856694386
1205 -0.017371462828357036 0.007248381525337753 0.002996660635085298
846 -0.009487119588332997 -0.03200432388541706 -0.0014958784283847885
1168 0.0016920793955242533 0.0013830328867004344 -0.003965471037634832
1435 0.007275811917190292 -0.0030339546096359153 0.001970829776761267
266 -0.013651858837692338 0.004673116344472964 0.014190836667898905
2359 0.00647820551251465 0.004686291706086153 0.004251315244915787
2440 -0.0004344381687798667 0.005227311387010538 -0.0016847488819888392
2660 -0.006800431157397978 -0.0104258273139948 0.009355754808563427
776 -0.002241267383186502 0.005038146916663666 0.011629585688612795
777 -0.007718213792300984 -0.0046641647073440585 -0.004464564398551491
775 -0.007207459868839756 -0.0018641750626867744 -0.0009814319595660402
384 0.021248631831331702 0.00149358507454927 -0.010037723217493105
383 -0.02591055568189322 0.012217859366091917 -0.013892562491578381
382 -0.0033281898211440144 0.005680857946571195 -0.0052629920462689194
419 0.010792157155950968 -0.0033253283001025095 0.0014986890894197055
1607 0.006602517219696948 0.009709791976894049 0.0077333049940097875
418 -0.0007089269651178021 -3.952847455381291e-05 0.00252336398341094
1245 -0.011647801988885483 0.005306293360372554 0.0013233544134962172
1244 0.009953453271980422 0.008971867399254131 -0.014747034465236968
2597 -0.0018951836665737965 0.018300046101754213 -0.005580844490981161
2596 0.0051273240132781684 0.0029830191553126776 -0.0018377561924625752
2116 0.002641144300097816 -0.0022110900027452816 0.0035805656571450627
420 -0.014474758862343893 0.0030999256655418455 0.004582117488068583
2118 0.008724049903979136 0.02350689459887414 -0.0036059839488992076
1243 -0.002066433262262682 -0.0022029408901472554 0.0034271029435614634
1782 0.0011293845264701066 -0.002816012971110359 0.012272405081456335
2366 0.004496623175404405 -0.015294173389083593 -0.010644029207659295
1684 -0.0011094784698360146 -0.0017198845936948353 -0.0030337601956715926
998 -0.025480020427415297 -0.01981445519608575 -0.003439038774957104
801 -0.014640083289125985 -0.012732379390446628 -0.000398567285696981
1685 -0.017657500567742814 -0.014582765528226056 0.002865701837074452
1606 -0.003844970444112585 0.004195411671844645 -0.001641385721196043
1608 -0.01687493239569054 0.0029272643053481814 0.00440881723103019
265 -0.0007639565536407079 0.0029292891324168477 -0.005558923357632629
1326 0.0012509075778573172 -0.008286285119586942 -0.006669766288321894
2236 0.0004241346943210543 0.002013071982344021 0.005600179255007978
267 0.004620339826549252 -0.017201186902383543 -0.0071653653613716435
1686 0.0026044365405521203 -0.009526009757508386 -0.003469990700157099
1170 -0.006274871819480641 -0.02481454181754281 0.012998998715145824
1324 -0.00041070912298155293 -0.006783163667699792 -0.006772463325011234
1325 -0.005005777311339857 -0.0020888211698203694 -0.02361413602075781
2365 -2.8600334081104632e-05 0.005105273984863217 0.003295501957362685
2441 0.0017337231475428006 0.007971260088328514 0.0027641907924676173
999 -0.020396560318339037 -0.002619736473419393 0.008273069434275311
1410 -0.00509556929174999 0.016872554931201513 0.026582365115857237
510 0.00600434021742797 -0.013115182808740827 0.003142649421532358
2870 0.00950197293411129 0.0003617079797778198 0.0070681027401261224
2345 0.010009798458126275 -0.01614832412275147 -0.006120433432042078
1674 0.024768591789765752 0.029105368562279525 0.008460165362369213
1436 -0.007077143484473529 -0.02619470547922163 -0.02084778369598397
1285 -0.0005117636380654486 -0.0036296781094899365 -0.004812112419143304
2344 0.006210127383687847 -0.005788003795437216 -0.0005834396769971497
763 -0.000838278851855685 0.0024033917462229133 -0.0015982042863556777
2198 0.0009268697705167908 -0.0014217389839375968 -0.0068861815553754565
509 -0.0016891349287825356 -0.012690876521130209 0.007444092923548184
2187 0.0031029787069436535 -0.0067471835146828245 0.007782789981810781
43 -0.002456140320764856 0.0024544654874440962 -0.00022776214520562918
463 -0.002119688153858573 -0.0011298626018135733 -0.00017408137854030295
2186 0.010434051477782492 0.0004371890044061588 0.0002291827627592412
2185 0.001177114767909002 -0.0024705473852519202 0.00011104684678441457
1689 -0.006265995624476152 0.003933237162535645 0.013630702292526794
1418 -0.008628792094727986 -0.012677676955586728 0.0008066366110859235
1687 0.008099537444966044 -0.0017303239563940453 -0.0009149503216641898
1286 0.01089985707451868 -0.00704008954187649 0.020154719246505616
1409 0.0034836968443942374 -0.008024606312061987 -0.002831614822710454
2346 0.00819904131660378 -0.0014615277157031743 0.024693714233517388
38 0.004864635826077639 -0.016603776983298502 -0.004112408122292336
37 -0.0043199409787198955 -0.0009548076781991138 0.0010146609969002116
1805 0.015232219212933716 -0.013276885384876112 -0.0267442864664757
1804 0.0008586124527107602 0.0025952963484629876 -0.0011128227753323587
2238 0.0044952563359253305 -0.00033347163437464603 -0.0025972490988496167
1169 0.007135930341999471 0.025044306513420957 0.02369962611892458
1672 -0.008750115377034406 -0.008035980052336569 0.003211861108934737
1688 0.008860311044692759 -0.0028821936300713192 -0.010885446016729318
765 -0.005961574676775167 -0.00256044799359643 -0.006343857162855186
2237 -0.007699548683878604 -0.002229247799036861 0.0070378153310806865
464 -0.012444714564975973 -0.012554216318480704 0.0011391728194516458
421 0.0036849184623616153 0.0003065086621649402 0.005519259757919727
422 0.005864605122505807 0.014520368805684922 -0.020727309099557226
399 0.0121555505350564 -0.010870590675812065 0.010375543573820475
2090 -0.015109790816201469 0.0002647875135429937 -0.0008983481647450564
3091 0.007154339197959534 -0.005682932097333003 0.0036851083972509187
2479 -0.002178385847529208 -0.0011497622201443018 0.0005541711412580488
2683 0.0010091570060406824 0.0023694388827774663 0.0002676716937232203
2481 0.004356424420148168 0.005022654364156381 -0.00217404617955745
2754 -0.010478840774537354 0.009687944864452304 0.0020108454991766404
2752 0.0010329546159929498 0.004269876716937453 0.0019606948988222283
2570 0.038810175010709484 -0.006166082400406562 -0.028496948308315097
3090 0.0007646439612296497 -0.0049138607840661895 0.0034382535824657966
3089 0.000713770371236548 0.0009460953578461585 -0.002626382300272798
956 0.004915759450300271 -0.0031514574370819404 -0.011484115988216706
445 -0.004190304955746861 0.0003001290994387801 0.00306399628712062
2710 0.0039647712644131 0.00015036320274203186 0.0038315345266272376
2712 -0.0026092859954349626 -0.0089099244450351 -0.0038563679883201994
3093 -0.0024620727206245497 0.0070779658373663215 0.004566009918724632
3092 0.0002283594077443912 0.005278504171067866 0.0003509862119500994
2723 -0.009422035984338344 -0.017576492796386782 0.011578553690439437
2109 0.011472150776572352 3.346286839240491e-05 0.0036216556823651246
2724 0.01527188366382646 -0.0065932169305127734 0.012884427888623368
2722 0.005859690462022564 0.0007928304646570976 0.0013810626098065873
2108 -0.006014430086180001 0.0035032770124482087 -0.01734100531162906
2569 -0.0030624370177845008 0.0102240660987606 0.0015023445441683105
2571 0.012763665050612414 0.004627811378985047 -0.015215395385112119
447 0.0003266717002336208 -0.013329229994145441 -0.0077766860064082165
1389 0.006215061326089124 0.009383280699408582 0.022380635068472987
386 0.0036709694562618357 0.020123637639002344 -0.004159379973305651
385 -0.0007664339541411342 -0.0008095320958795656 0.00903805828340319
2107 -0.0036988662782764426 0.0005108856620526657 -0.00037005398898076346
1022 0.005273138065302551 0.018369657532157538 0.008739705091452195
2341 -0.0032493795157596842 -0.0027197044697001337 -0.003907479236130947
446 -0.02242730956612374 0.00586542679130144 0.0027889076070338717
1108 0.00251635525000473 0.002827453177286628 0.005662902301111144
387 -0.02086591473922976 0.01094228014773521 0.030219836950299443
2711 0.006773562078375564 -0.007245072690735835 0.008680546678298647
992 0.009631003750698601 -0.007478608491588997 0.0006836305080751903
1021 0.0018813694097460107 0.0010543290691428903 0.006947231727201472
530 0.005983695014291676 0.0022993003402561616 0.012372679963686599
2753 -0.008238714597886115 0.003076812722915109 0.017791705827665122
1123 0.006236287591662282 0.0002513129941921758 0.0017232588828671206
1065 -0.00927057923091602 0.005747249045353149 -0.014206053121027358
146 -0.02050162826320062 0.007166021663702693 -0.0030929373863467246
179 0.022681616807536234 -0.016626181509867864 0.014454584455659373
2574 -0.00012656744614382103 -0.00014517490263693016 -0.029685806011180038
2580 -0.013807254224882172 -0.010628458506686124 -0.0339504590683269
2578 0.008183326762597622 -0.004534811643249138 -0.0006712402246094631
2579 -0.01298516495473173 0.013401308571006442 0.0039658931700225775
955 -0.004717975436637318 -0.0003170130805053843 0.0009186181126103917
3008 0.0012845755057356374 -0.0008003150449267355 -0.0038671333189366853
1014 0.010462925665986163 0.011623671707613744 0.0010462186913383158
1976 -0.005413057349488276 0.025600215885971493 -0.016270388774590343
2761 0.0011578136406628686 -0.0015388859601196845 0.0015556298005471936
531 0.005649660531982571 0.004667032969746818 0.012760672953924284
2484 -0.0022018725652667606 -0.003978346108041604 0.000758043176806378
2482 -0.001273990866979302 -0.002625701665026834 0.0023611841502415337
2483 -0.009973766626829738 -0.008505624561636088 0.00032207169957647336
1706 0.0010289572547418446 0.018860389623155675 -0.005462063590885538
1148 -0.0006168303371761321 -0.0009486078969090265 0.004848994434950598
1847 -0.010380050821084431 0.009645635032931503 -0.004108485618953235
729 0.02423999771889588 -0.00013237189448451727 -0.00040420605862103186
2763 0.003237017080425224 0.00010179237009270749 -0.01737363454300813
727 -0.0003851032875590744 0.0015791668031638023 9.236924082561976e-05
178 -0.0037745135873391896 0.0002675727740595577 -0.005273332192931675
180 0.015455763048375551 -0.025969662304127922 0.010665040672700644
728 0.016178737557179426 0.02089056934366901 0.007144734338833727
2572 -0.0021200663055978806 0.0013765467394125429 -0.004028453356831904
618 0.004838657573569926 -0.009851707535527688 0.01622157102572147
616 0.005834660148011948 5.453874369113705e-05 -0.0015912002196097964
617 0.008697893679099036 -0.0063035327735769 -0.0017313851838850047
1830 -0.0010731750393168345 0.015427161360573696 0.01357575150570558
1828 -0.002999556313998624 0.00032939217657243665 -0.004671864458419552
662 0.009011516005797825 -0.013994371281903017 -0.022495169372337344
661 0.0017574409169911179 -0.0011222421313159465 0.0034364602796886205
1063 0.0046107059763887005 -0.0007314068975873257 -0.004462176191284707
663 0.024638343913891577 -0.01704942831949304 0.010128444114223957
2774 -0.001398978357692122 -0.00047979742728964655 -0.004680023634167208
2325 0.008273901713265384 0.0051721168243805075 0.0010947786960389286
2323 0.0011831896730732682 0.002314921464744983 -0.0018558410600340806
1829 0.008033073018522716 -0.00687619169620893 0.025762570214254172
1264 0.007402133160661243 0.00011197049931593391 0.004077800691761325
1064 0.004871699924525375 -0.016000227076972913 -0.008049587267933263
2573 0.006810507591775084 0.015717230497104107 0.018065626954022748
2324 0.012724530525057566 0.005817120697634842 -0.011858683956395452
995 0.0012034405133843492 -0.0059966280823406486 -0.0023802732977376596
1266 -0.027121651027005637 0.01389297810719647 -0.013502532280761294
406 -0.004047520833185791 0.0051537064430009355 -0.0017916175131451105
1265 -0.0239477072832714 -0.003471073756906365 0.021494111387607984
175 -0.004186844974964436 0.003913280476119846 0.0011082718056332735
176 -0.003714985907484253 0.007104275299429858 -0.0028201656724301982
1023 0.011084801752742736 0.002596430221768107 0.015094051209646357
1331 -0.0019216456326071332 -0.0079692971404178 -0.00015831428113867742
1330 0.00169240855678687 -0.0022019606910206185 -0.0006211480049610333
1125 0.011917893851011165 0.010406939557301112 0.024612602485581527
1781 0.005052459905605726 -0.01119822459395989 0.004347748503680209
996 -0.012009440692351553 0.0006236208045071619 -0.004568446066232248
1332 0.022113382200619574 0.02789724488689414 -0.0010629765803462899
2000 0.0007138606392878192 -0.0002007329964307577 0.006063649110216425
407 0.0031405429463939867 0.0006439810239190216 -0.0034501079919094257
1012 0.0009102821138635602 -0.0024659782969277213 0.0037854426672409985
2685 0.002860449413592539 0.009552618666052183 0.003454421832779388
408 -0.011065019952664176 -0.002860827835568512 -0.001252964351811452
1109 -0.0067742960952129234 0.0010702045478905475 0.010852594022497079
817 -0.0009871708935173394 0.00018094660265413525 -0.004774690079734843
2544 -0.01214078232073505 -0.00021360396002679694 -0.00713651736394256
177 0.0013279416493095135 -0.010835362505034715 -0.01679792936665835
368 0.004655354404254074 -0.0017433135155722824 -0.004898797608034891
1275 0.01869360286988095 0.002486543266570055 -0.00850366755917705
1858 -0.000575659679004471 -0.0007834140099377626 0.00012359517557124656
1705 -0.005386795771036378 -0.0007925593645450615 -0.00857021131071691
954 0.01617071681135409 -0.005492827875671725 -0.016899581562728406
1859 -4.904264005565251e-05 -0.005715726308619464 0.003132959672002064
818 -0.013714085568569375 -0.001267777742408647 -0.03871764074235697
1127 0.010682254566921482 0.006680801969661474 0.003024223778445532
1846 0.00252181986965174 -0.0038651021151312726 0.001892715952866019
819 -0.02740219951799342 -0.017620741421252088 0.014748754005460241
2762 -0.01360619801716043 0.002485508756224845 -0.007591016329435453
77 -0.006185973678427302 -0.011819220336938371 -0.021815715142062184
953 -0.005444996567298545 0.002153411219429606 0.004620342344346322
2486 0.00632203759519099 -0.01760572270142958 0.018588993877725803
1200 -0.010103354066258641 -0.004104107683109353 -0.005587680136825935
1372 -0.0049108964622120105 -0.004774250208585542 0.0013678332567649788
2883 0.005109632160263988 0.0006375430518821708 -0.008122426202415095
1126 0.0023378748144552712 -0.0014235067517444357 0.0009865068252543892
1128 0.0202171909909218 -0.021632520865175104 -0.015596708166116092
32 -0.022543104134927383 -0.010043651189087153 -0.019683171635719705
800 -0.013062305292485865 0.00104244344501585 -0.00407875893159094
3023 -0.0009490034029146014 -0.0012238544832393961 0.008354887378584227
353 -0.0020911218251237528 -0.000783412604700777 0.00040494482573978104
1262 -0.0054229846936234 0.00482162511911334 -0.010025681432678972
2242 -0.005095982350347195 0.0013595355650860958 -0.003814553732764275
31 0.0010638870183632253 -0.0048472125351182675 -0.0004595163735728207
2394 0.011701951237953805 -0.0031814447966608023 -0.007539481687375758
2613 0.016063614167278133 0.00044861554002748435 0.0020897843409347144
1681 0.0008846394264566573 -0.00785237984518528 -0.002529352524801383
1683 -0.008735386298343459 -0.009530720246279257 0.008124344588974826
1682 0.001241695001045881 -0.007932614300335787 0.00621752434124201
720 -0.013732910754088137 -0.012117885903345013 -0.006701055037555093
367 -0.0028804778262684658 0.0014700784609212021 -0.0016652161184856264
2393 0.012321225962721375 -0.004459332600178783 0.0072091801375412795
2392 0.0028249610327587184 0.004207456945381419 6.451063254366929e-05
33 -0.008945833331731481 0.013282702868330597 0.0019676453629412665
2243 -0.012661131773216929 -0.003158701432093846 -0.004128642836779106
848 -0.00784700275985113 0.00948517752583585 -0.009154316054262004
1261 -0.0006582054058389408 0.0030138321521209262 0.006763966142054825
1999 0.0022607656443222675 0.005007641045531005 -0.005908487783086619
849 0.014697894137271557 0.015978574007599403 0.0007756386640556041
847 -2.367399236363691e-05 0.003917421862450472 -0.001976919011125992
2244 -0.005239853536951518 0.00647588277390337 0.0033447285229611314
3019 0.0016898473282894659 -0.0006175121503685385 -0.0007548197852363383
2568 -0.005580201446644254 0.012549504318616254 -0.009920607036889082
352 0.0006456329214943988 0.00010986340714409676 0.0018113923026575967
2881 0.003013711744482931 0.004753321585255286 0.007773015468889807
3022 0.0012049037258394426 -0.006645484385968001 -0.0018219633601366774
1095 -0.0017914906479562977 0.0010956457737090316 0.003893288853197816
672 0.025308621749699237 0.015909816324777563 0.01630862233049989
2882 0.006400296290902582 0.010418040910751346 -0.0034819329757315776
369 0.0025826200521079823 0.007814756299111483 -1.1657153011675764e-05
1263 -0.008951088447150493 -0.027264740175953407 0.005112860890824144
1998 0.004848096948839474 0.004564109522879723 -0.012760573753456536
1093 -0.0035407573750196523 -0.009983732165663093 -0.0010373174215707404
153 -0.003107746718307338 -0.011572881027544194 -0.027269890440703454
2542 -0.0017590849796698552 -0.0022217768368427947 -0.0026526191355704535
1587 0.0021813148148435335 -0.02145417945763815 0.004165381655255061
799 -0.0020913004379678876 0.004826476202485584 -0.0008257629969650385
1147 0.0008116018451946052 -0.0033668219546847057 0.004094949357018002
1198 0.0021958730146028112 0.004965417524033847 0.00010741691974040646
501 0.012664973535238032 0.0022770703827773983 0.0015924624085798776
1585 -0.0069362971820658365 0.0036791744303059314 -0.0017753381056133226
1273 0.001220485902961556 -0.0002817444923187516 0.001372211835816283
529 0.0018357490637380667 0.010088893966779196 0.0020006699736322916
1199 0.0077973227994521145 0.013201479086352417 0.020858926099466272
152 -0.006832811482690656 0.019646405970090434 0.0019949057391195793
151 -0.008610199683937333 -0.0016878951299734632 -0.0005003567890395936
1997 0.001069531621666628 -0.005890182383896809 -0.00235176843743394
1707 -0.01484430216043478 -0.030751141325784603 -0.016725349037716206
1934 0.005353129089797183 0.015935137490692395 -0.001322884670916111
994 -0.0027294169661904693 0.0007699040053050865 0.00014006258180763987
2543 6.640123891157979e-07 0.0023738322481254848 -0.00426461718123937
1586 -0.00230164301781189 -0.008035671624580631 -0.010550512821511634
952 -0.004889207812734026 -0.005493438924884219 0.007917627082013807
1094 0.015243169484788417 0.005652466173057367 0.0035194947460896295
1860 -0.00039002854212059126 -0.006020611461180045 0.0034228515574122116
1996 0.003909986886927753 -0.000320583519495291 -0.007601399459671695
2304 -0.0006147716848092598 0.0037330958512183897 0.006722475930173945
2690 -5.484312443739127e-05 0.021501440489331516 0.0026823563188906278
1848 0.0019394276914030402 -0.0009482746170628771 -0.0006364030268846582
1374 -0.0158855764285178 -0.004855487335301281 -0.0037416854800817545
2684 0.0013471119852320947 -0.015478867758603455 -0.01751351431351196
423 -0.007541403948260416 -0.012427362269581192 0.005742536077526994
2343 -0.011488650409496851 -0.002911785324603746 -0.019705883912178816
1013 0.011555710239905568 -0.012586684855729294 0.010854023645956294
2664 0.008141004819213947 0.00584436430096807 -0.005214982312579343
3020 0.005561990230996653 0.0024595631553059874 -0.0016451359558213186
2773 -0.004922864102719399 8.601206347658025e-06 -0.004595031787392447
409 0.0025481975537507942 0.0035052025219156615 -0.006226435081659197
411 0.005023324060433505 0.004468618157887105 0.0017598285663398645
2317 0.0013012180602449655 0.004897427402824999 -0.004358122120322232
1252 -0.001537156739832192 -0.0010644920325981566 0.0016983570750418238
1506 -0.0020826483191435812 -0.0006559450715487297 -0.014216061438084215
1254 0.0010793442320028354 0.0004836999470959438 -0.0033477503857201113
410 -0.007713782382775674 -0.001711672689812841 -0.021530812641865897
1802 -0.011284623203402688 0.0018148538346463797 0.008504499411611946
1801 0.0024455351612606684 -0.0002752387202051139 -0.006193258317821806
2273 0.009766463592968235 0.0032901698476359136 -0.003458179044102841
2953 0.0048648476182990615 0.0015943999575041283 -0.0006303851069474585
1803 0.002909461217725163 -0.009248696255784795 -0.02488291417585469
2954 -0.011415907435679466 -0.004433950639263398 0.0054874065424693926
1475 -0.019188713087161073 0.00313123741128313 -0.010097645894366826
2272 0.007466028400192277 0.0010620899872847193 0.00578745044640234
1425 -0.007858776510127669 0.004799551905713386 -7.127402532158364e-05
1627 0.0016502740905311906 0.003986246800488654 -0.001984764368741112
1238 0.002195567362139872 -0.007546687411283805 0.008327103260743988
108 -0.028803045939086287 0.016194572049319563 0.006005621958456412
1904 -0.003185355473375299 -0.007236307760262562 0.01708449121809996
2274 0.005507360057581875 0.003245052051468279 0.014477139359498199
1253 -0.009218399647791302 -0.005197771829973426 0.012663897254473975
1596 -0.004569355528987114 -0.004550214432052245 0.0009183284620367814
1594 0.000549182520502246 -0.0052992438506864895 0.0032824842205687287
1886 0.0013833665228408338 0.009389410483696427 0.0013410801794117215
2955 0.013446437229046057 -0.015836926221565364 -0.0083350684166967
835 -0.0022794878828581253 -0.0006528561230037586 -0.00011367426227110204
1239 0.008832916344620528 0.005550234886244756 -0.00013231464154441093
3 0.011792812194578926 -0.001954864481276101 0.008718576073935273
2725 -0.012310147652855704 -0.0012051312964233255 -0.0014359093576615963
2816 1.2244537626796392e-05 -0.005154140465695061 -0.0007881268564815265
106 -0.008474641106446504 -0.004608822230709869 -0.005978331612397628
107 -0.004818101288034767 2.4975062425618518e-05 -0.004062560051130601
52 -0.001676476430548373 -7.371409852329058e-05 0.004525812076367364
1329 0.0025256416958581236 -0.007383200448782936 0.005803560366338231
1268 -0.00010561641028638401 -0.0015033705227560454 -0.0012616301141348159
1237 0.004247393010204221 -0.001099693579231731 0.0012763590187762853
1424 0.023788268758599167 0.007786664779863685 -0.0019625346509994624
723 -0.007122801601509843 -0.002168521170430197 -0.004070925789962289
1474 -0.0027292044134624794 -0.004841053404990468 -0.0017824921362171898
2279 -0.011437856827725945 0.008917301636780301 -0.006292448767551238
2296 0.0032973487133117906 0.0028695260411062753 0.010340977216225308
1595 0.002656872916123212 0.00013015368577971577 0.0025534779885295986
2318 -0.02188191063705021 -0.003193522808175482 0.006848754965268718
1476 -0.005237337712914418 0.0009483799660447571 -0.002325209324743948
1722 -0.0011504427383171414 0.005720260106820938 -0.00011633918904269678
2700 -0.00983247971908595 -0.00041950989491989317 0.007970662771187796
1113 -0.017450505423761666 0.008699344565991777 -0.01910476853240351
2726 -0.02104987540156999 -0.003351237678274675 -0.01367985167485893
540 -0.022788741103900327 0.005959504180754515 -0.012831746496320389
1327 -0.0014700287999478907 0.005872394387456595 0.0003497680996464642
1903 -0.0014260482394769943 -0.006314396256982858 0.0023206839919625126
539 0.013764555168140406 -0.011460464138363387 0.0073733509149755865
1112 0.011292616339428166 0.019581763499150247 -0.0026345984837118385
1305 0.006182242201463207 0.0066712838695508845 0.0015768965191660979
1905 0.006012917865833712 0.0018657484620916288 -0.00916769869524335
2781 -0.017510049887595486 -0.007735021191252246 -0.007732682278857213
1111 -0.0010227637772549075 0.0030679374789309446 -0.006677329900998455
1133 0.003136570154823252 -0.001674546840174352 0.0073726119003825925
2150 -0.00467616503366146 0.011876011126962979 -0.016809733757950068
2149 0.007537412055286298 0.005074959748782918 -0.0023822050028402784
2151 0.0006275814136450889 0.005882675418422148 -0.0004772824492382998
2425 0.007640412306866902 0.0011118025935639994 0.0016351199525260402
1447 0.005013622479664427 0.008396839679162167 -0.003584556367568084
1721 -0.003440306169028033 0.0008464069361227836 -0.00141867889718049
2780 0.006073402640426027 -0.011535053247114326 0.008281969986797779
2779 -0.0053113216662725145 -0.001368855222616914 -0.0003070604560596628
2427 0.004348619121283051 0.00017004665249574304 1.51929342203472e-05
1132 0.005846487635227688 -0.0012810685118989586 0.00023695450959362082
2426 0.001350729191569674 -0.010056163222477673 -0.0027580340186092508
1449 0.005534267861015126 0.00629905148051775 -0.0037269321334340564
1303 0.002075186356331036 -0.0014595666466553 -0.0007734862241542887
538 -0.00026175239532388324 -0.0071387634250139175 0.0031704124161984985
1448 0.00682503594754313 -0.00042427990063557725 -0.0035675647366830055
1328 -0.00778590490374154 0.014194922706610507 -1.8351542850194393e-05
2045 -0.001010680685576356 -0.012216222780438421 0.0034423433874094674
928 -0.00013190400357435223 0.0007259407032335703 0.0001376131848302668
454 0.0071579020768914306 -0.0009162687872820179 -0.0016783925076842823
2044 -0.000345493244935358 0.0034930856096482936 -0.005699665790946251
1720 -0.00036940616333752663 0.0035856384584951745 0.0009148731210969771
721 -0.002407606588691164 0.0013223751688455389 -0.0017792403435325497
918 0.009568793779648971 -0.008948674931550188 -0.0035236581209603596
1304 2.4761928095317682e-05 0.0003801158743347497 -0.011196430994328517
119 -0.0015843660103602197 0.002650442455771137 0.00613068106636949
916 0.006194529520687904 -0.004883178348518171 0.0005166522322159103
2655 0.0049861043822508645 -0.008579527373899106 -0.005094716356224082
2887 0.00028748013784792384 0.008610507117855121 -0.0015775471621507775
1134 0.019118976063401044 -0.001709840755227435 0.006884624430530589
553 0.006373625881430402 0.0050620086502514835 -0.0015803628245928461
1742 0.00922086091234281 0.012749711248971911 0.00422583607640226
2298 0.003702087635693548 -0.0016719329082752615 0.010093096831278061
2815 -0.00012360572216205695 0.000449337872895598 0.0016227604262202897
2449 -0.0059077431908607725 -0.0012658908044193699 0.0034009848905824907
455 0.0031477762492343937 -0.021954372879068876 0.012896148723281528
183 -0.010468523149435313 0.016207121166932723 -0.003643768827256254
554 -0.006614267676133536 -0.0008089063962784963 0.0008840571387113934
660 -0.022760785218226505 0.009081344990279138 0.002439056209613241
2556 0.014659252064675716 0.01846814027514449 0.002213541518762879
2297 -0.0009048291391819151 -0.020849248620482673 0.019535961221146727
1505 -0.0171177643996892 -0.010901680635855223 -0.0014100095481419709
2888 0.0009885389932205175 -0.006846421741094983 0.001547509087559609
1504 0.0025716609544853696 -0.0055608138916112965 -0.001580173739316982
878 0.0007232015309001134 0.003861883642730638 0.005342573268027683
2 -0.0046489421309463385 0.008241259131707281 0.0012728559637103553
575 0.005066334827707207 -0.011054761995339352 -0.004127300608591776
1731 0.0002544444505061461 -0.001974366689746434 -0.0018351291430111548
2451 -0.010847954358862575 -0.008166161692977745 0.008886413963593914
3005 0.00033731318534758906 0.0029366390776781937 -0.0006481160745204056
1050 -0.014059741647987995 0.009584820839098148 0.0004488539018268745
1048 -0.004357187368628642 0.0023686937320285518 0.005148208207721722
2245 0.0038637956964190315 -0.0017855236984007374 0.0007735086741709748
2246 -0.018726017189060033 -0.007196261477507033 0.01629732438537689
2450 -0.01103762386147246 -0.018297500933777272 -0.006916404530608111
89 -0.022955221408683852 0.0062458446583083535 0.004196248951799357
2103 -0.0024110006126902062 0.003598768631547634 -0.0024405431940230948
3079 0.0002255405696308171 -0.0032330821493779466 0.001000049157811352
1218 0.006178937355755555 0.008791488036395987 -0.005280623419387325
1216 0.004782886896216191 -0.004751209222232466 0.0008594074772084562
3081 0.0007750030508512681 -0.0004286774627149704 0.001626686906645035
1864 0.0023457297943606206 -0.0031218487740779914 4.384186855826858e-05
574 -0.0025206647044968256 -0.0027070044209775933 0.00243230565831788
2247 0.013222499342007423 -0.019161048452270697 0.006884662763564292
1049 0.005523443718455122 0.009287692677084727 0.006879285054418759
2101 -0.0018897923139118806 -0.00435725309087368 -0.000888240521387969
1217 0.00383044956910306 -0.02904836332969945 -0.017393556442919057
3080 -0.00521997489012257 -0.0015841200823258795 0.002158342034820715
1730 0.001937965648503815 -0.005693549072704853 0.022151544412490034
811 0.003625526716830847 0.00681355926510616 -0.0034442022392898687
813 -0.0015764166994434554 -0.001725081957141848 -0.0068899870802944475
1865 -0.018196579318129128 0.002945213218767048 0.002308279053813091
1887 -0.014633008219766902 -0.0037125714805442116 -0.0038035226940513855
628 0.0005338124285728664 -0.002154597926240269 0.00552855862764301
877 -0.0011019904029986257 -0.0007854942786526634 -0.0007352723727946411
2817 -0.0098728784067908 0.0012426952784975892 0.0008078784240251277
802 0.0058375791253234225 0.003173436428618599 0.003492303391296583
837 0.005028037187345539 0.013419634767986074 0.012826624864177493
1885 -0.0003076757554464402 0.005556635186339726 -0.0005930971502248746
803 0.009517337349882762 -0.0027396562991834133 0.006749229348794462
3083 -0.0019324189413627044 -0.01271602017650566 0.0005387168868733606
2889 0.0012431698676710103 0.006168753423459708 -0.0017492617085326392
1866 0.016186939690610105 0.0237621620370214 -0.012445859752808373
1729 -0.003081236077892804 0.0032844754874661705 0.005828861173823793
2622 0.02160439484456893 -0.0024504540565293462 0.003221726416540451
424 -0.009072425331202718 -0.0009199710348426787 -0.004239204009961688
624 0.006642181794284214 0.01053464060882564 0.025546789402043676
2656 -0.0031449526447635177 0.0037337002330036085 0.004247006307342026
1163 0.03096747495443777 0.015635170232258796 0.0033601181860445947
917 0.00672225947770419 -0.006674067478390594 -0.00521691989138346
524 0.0018048949863389624 -0.008145555458152993 -0.008282448211854272
1310 0.0018425019305715765 0.001950863666177987 -0.003131596996309499
623 -0.025410420765594702 -0.006769011712681176 0.00022544977556018014
2657 -0.006376797111641874 -0.002945881380132548 -0.008206680740680872
88 0.0016994145131493047 -0.001545825033257365 -0.002497113111460671
2046 0.007827658266303536 0.010974381630948906 -0.003826417144264915
426 -0.008225576152120781 0.015092195378135666 -0.011789680880687523
1890 0.0030386352668471026 -0.0005613696542500297 0.0034712590207437955
523 -0.000778822331055667 0.0028195161369487095 0.0006011875417077641
2530 0.0048756785004939705 -0.003542578794542028 -0.003982147934206516
2031 -0.019771747526696946 -0.0005104247481521171 -0.00576104624458716
1005 -0.033379775385718756 0.00435298881942606 0.005213442298671402
1311 0.008956228683825966 0.010702724076970128 0.0059069404903437685
1309 0.00465329619040954 0.005568728895238628 0.002483347539687604
622 0.0010825867157868013 -0.0033209601037874235 -0.00020821275774364503
425 -0.010545678182373827 -0.00028920830212865987 -0.010726032219371327
41 0.010696070891933179 0.0036030250249415746 0.0047587636290558335
9 0.009182450380239128 0.0025382477267383483 -0.005631796910832246
2658 0.004121718955846956 0.009864291571000935 0.007364646833983485
930 0.0007118707393240086 -0.01581062327568015 -0.003914826930654206
2102 -0.0024067503917769824 -0.025643242243713525 0.020892910064337706
1106 -0.005076435218463764 0.0010342743864820338 0.0022007934601396
1105 0.0033111460279987097 -0.0025545145171073495 0.0031671922847521243
1107 0.007754661677588603 0.005743034365818254 0.010868338945980325
1003 0.0009361190667197703 0.008211505291328117 0.0036537064736558208
40 0.0015750659183560974 -0.001429421284412289 -0.0020667438640044303
1741 0.007646960385772847 -0.00045958132014500114 0.006699429886371202
42 0.00031326080554472407 0.008981707420725802 0.005027496112133548
1004 0.010817607595293752 -0.011948398690599 -0.00977938851157648
2029 -0.0038928393768555246 0.005471319337914191 0.0005090603587292125
2030 0.007446478007552162 0.009130274011395378 0.005631953338315942
1888 7.706474997565191e-05 0.0026494463786319073 0.001836471885705995
812 -0.006646019510448318 -0.008147055102079338 -0.003848048570540315
1162 -0.0012103944377104448 0.011331131066426204 0.008011230240469345
2531 -0.008662992598889509 0.02226337349253088 0.010196759663864205
1267 0.0022795455357441535 -3.676094105311254e-05 0.002514092579544513
1889 -0.003600369921528655 0.0038052983759902523 0.003054516406984577
1628 -0.0069927646462974065 0.011790432976477135 -0.00709475052595015
1164 0.0016860513193360596 -0.005022243647028777 -0.037569697712944126
630 -0.004932775581315156 0.001045672058779799 0.006558983259643004
2358 0.0073488734721731536 0.004451053858287052 0.001665667377473006
879 -0.008556798559671846 0.0018023456925697241 -0.0179515721364701
629 0.0028756260695192055 -0.00030719447317684677 0.002231621164568056
91 -0.0004746211462828232 -0.0038771835606771343 0.0017075715753651557
2356 0.0020363132981983103 0.006142953316437397 0.001444528131014712
93 -0.02664078121932468 -0.013340065221482242 -0.007861066570233258
2025 0.02129163234340976 -0.007779798971255627 -0.010481440381024335
2916 -0.0012653232660228928 0.009738095920284235 -0.031836944345186184
2914 -0.002104119419392191 -0.0031677460723805798 -0.0035091329699005716
2915 -0.007136605855318602 -0.0028794008489318595 -0.015399332946810729
81 0.006416946438485838 -0.0041633071958144 -0.0051883252085754405
79 -0.00170800528987957 0.004238337157374735 0.005567550191752717
80 -0.014245197840874888 0.005374529633327373 0.00816774030114031
2852 0.007518145077903193 -0.0015171878678299352 0.00902353182042678
1490 -0.00423922082755791 -0.004128249720142633 -0.0038317326511060354
1489 -0.0009418788826984995 0.0007926189530280277 -0.005241349020042687
2092 -0.002045047814846697 -0.0026576488975995063 0.007238553457193123
3009 -0.001798756828281722 -0.00016112555466922909 0.0005007780137678983
1491 -0.00912912285083065 0.003709218958086719 -0.015081167083797167
2036 0.001677963409342917 0.01793674675133826 0.01758060177553569
2632 0.002204458565671982 -0.0030081796016335877 0.0016614694471028325
2093 -0.008948022950333308 -0.029774938400062668 -0.007774670436063073
2727 -0.006361200268268618 -0.01226391312623398 -0.006517958326641359
613 0.0008221959996421067 3.792034324528587e-05 -0.0014305740460993888
2756 -0.004421756682497961 0.014522212818098417 0.004060594392784232
774 0.015689420118849367 -0.001997259654660528 0.0015658662652599934
2094 0.006173513623021083 0.019059892115591226 -0.014550955600682465
773 -0.015061589122548985 -0.004577213747546222 -0.008486814315435224
772 -0.004488369855905488 -0.005364541959191092 0.0039975161451364745
614 0.0048908812026777874 -0.011822592918182957 -0.00934385699434095
321 0.020481382063417965 -0.004798713306674924 -0.0010312142084886566
319 0.012172033510230908 0.0023813010844594483 0.005180049381859358
320 0.004251988093146822 0.010119710997065842 0.008137503521050932
522 -0.0010428131164717227 -0.002880654447999967 0.0021657090537862017
520 -0.005736266931670296 0.0010894626644857872 -0.0015215814678253168
513 -0.00992157074430175 -0.01732174667854208 -0.005905391374680514
2755 -0.0011405891134391303 -0.0033035841531870135 -0.0010278623847621345
511 0.0027867760501278697 0.00034165168722605503 -0.004206270776508978
1090 6.765857232440503e-05 -0.0016245553508317829 -0.005787670299259176
2620 0.000637736327090309 0.003924790775137776 0.002175474757592905
1092 -0.0032807555730805437 0.0017070436220178425 0.012303336473348088
821 0.019079764469352237 -0.009023543005936666 -0.011151038128150303
2653 -0.0036539618105157034 -0.004762331556868136 0.001995024614931955
822 -0.020798395551019408 -0.011818281082319748 0.004838815194754313
2757 0.041167728314244346 -0.005367727440796994 -0.021591603396054596
1356 -0.0024730722189021392 -0.006081658954811752 -0.0068546802662487775
820 0.0017522324922379811 0.004453912638360509 0.0063282205180748285
2851 -0.0008966103413309182 0.0005901674549392719 0.004423063329888837
552 0.02087820883338687 -0.012851982067060244 -0.0012255017312308536
2037 0.00027519742990994513 -0.022849506498667165 0.004264402933914887
2862 -0.011353538270516807 0.013628685317532137 0.013319522179484757
1743 -0.031201663017755888 0.013314007947715471 -0.011734113351563843
2621 0.00980602873304426 -0.027144010800432432 0.014319292826546278
2023 0.0030364070589201054 -0.00871880946272387 0.00027089427419576
543 -0.005153361780625262 -0.004489590061361534 -0.00698735140780749
732 -0.019528823594124837 -0.0003915911247114687 0.0022092280887612116
1649 0.0025732271914692345 -5.060086560282312e-05 0.005192680530837598
2469 -0.004472622650595368 -0.009013377324362564 0.010245647339215694
1600 0.0065261667336623174 0.0034011326578004476 0.0004807579240861363
2605 0.001758304075234165 -0.0007416620988996314 -0.0031636109357044374
679 -0.0014703194555135506 0.0005389204464127304 -0.0013486661995434429
1541 -0.007575253251589226 0.00449251851480807 0.0009602514372127624
2853 -0.005919119096682437 0.004102386703763202 -0.005936856231719818
2555 -0.007728567414834173 -0.007177384158157947 -0.008701347044303068
1542 0.007455972016518621 -0.006942178418446699 -0.003739622356172983
285 0.005924446021486167 0.005673695671504181 0.0008683021047622757
284 0.007139628445520907 -0.004563089230638078 0.0008167872372313689
1059 0.02170359932991289 -0.02918045622282927 -0.0035116549209620825
1057 0.0024759795739248856 0.0015628379782410026 0.006791029008711154
793 0.0017789368160810645 0.004834064568477639 -0.006477270886417307
933 -0.017187552916197033 -0.0036935300941225014 0.004165243693683768
931 -0.0028802171014004597 -0.000151916553730298 0.006317982278610115
2828 -0.010030292671809361 0.014360810239813119 -0.00765685679778326
932 -0.0038007246311526424 0.009838621158177477 0.005442828529442734
2827 -0.001720022552462011 0.0018625396306854857 -0.0009472465973480868
795 -0.0065356703430492725 0.0018053770224198728 0.017121988617384655
2829 0.010748958121999927 0.00795086440843946 0.0033372148430086315
1411 0.003879952655075905 -0.005094386928384982 0.004147072283978197
182 0.022230100012573115 0.014499388758438344 0.008972099136206573
1412 -7.284195982857399e-05 -0.029632102256438645 0.014178699659940225
680 0.012693380537229234 0.010956420341568858 -0.004118878506578497
794 0.0007434374407674965 0.000286733913217531 0.00707482244367916
1413 -0.023780727227202706 -0.0009630044796116241 0.021869773015277046
283 0.002761927908656859 0.0014405944231612173 -0.0028262658417149682
1995 0.0026131439605574084 -0.011746198700567716 0.017067301453154934
1017 0.004873002265857709 0.017385855875246603 -0.0026172170450990584
1058 -0.008603180074226663 0.004403965165278351 -0.007896092621636028
1819 0.0063737666964166955 -0.00010729646421518045 -0.002216091118376167
731 0.004913895043724269 -0.011928138808123396 0.04281382852235118
1820 0.007679804827224812 0.016403446957643984 -0.0022314177816565584
1540 0.002433519746198875 -0.0032720269776098073 0.0015252768341673072
1601 0.02189552446173801 -0.007295075626907166 6.0318692181309104e-05
2282 -0.005463089414557744 0.0022692148155024432 -0.0016238689420399104
2467 0.001532133884595565 -0.0018372083533688588 -0.0007544875135679378
1136 -1.0655739676380913e-05 0.007380640597300092 0.00835259164549662
1821 0.010023342119910272 -0.006383896637494395 0.01455432484170253
1648 0.00220260717994203 0.00012872343555642734 0.004905957636265323
257 -0.0006050954347387392 -0.005348029607343194 -0.008764052340792187
1650 0.0052588953226069155 -0.0012963931965603156 0.007369295351673534
1251 0.0058133270842893586 0.0013970288324004626 0.02900676810044914
2468 -0.0027774580852442704 0.014235374796169663 0.00016611410533740734
1602 -0.0011015855332669189 0.0017790864000107273 -0.01570017411090966
2633 0.0010479993803931302 -0.0018195591759567755 -0.0052211276993590705
730 -0.003556406707475531 0.0034683178665338233 0.006725832965613083
2822 0.02452666277048825 0.0033431349531455553 0.015406272394294354
2526 0.008668720467910179 0.0029692558543599566 -0.01307255652771327
512 0.015768221652487365 0.001182344013942905 -0.000525820669819555
1676 -0.012860472926711683 -0.0007666232096933494 -0.015338376446447751
2281 0.0013407930158174585 0.0006487837261876502 0.0008738525242163317
880 -0.0037307925771830983 0.0005749162926631205 0.0043201684804306415
982 -0.0057015938300949845 0.0030948945453528535 -0.0018591601156171973
615 -0.005198438580677168 -0.007631406237390536 0.004998219054997681
1091 -0.00325870816492571 0.0012227965104902767 0.013884477181323105
1629 -0.0017361381366930953 -0.00892629354825669 -0.0036574554174641015
2524 0.0018220352100404467 -0.005481916661842304 -0.004453061305845885
834 -2.2513667253519466e-05 0.013526073089023363 -0.011622262021543246
2901 0.009032253843964085 -0.0018534883715480618 0.0025407112965085514
1724 -0.006243509625761908 -0.016484401072726543 0.005648698621976406
2860 0.002997447036790587 -0.003982522701610453 -0.008004325001082084
804 0.010211454129198251 -0.013312936774551032 -0.011642310514424688
2835 0.007632147325919419 0.004591552266896885 -0.006220416354681036
293 0.00733686120117008 -0.0047088281718546425 0.018507711874579506
1135 9.541120224368248e-05 0.005420123478834482 0.001662214621285677
688 -0.0035903161448677377 0.0013228583515209284 -0.00634691398176587
141 -0.0009630073307756185 0.028175910606429128 0.025038259602212527
1495 0.00040560273620078547 0.004419404470888114 -0.005273586462379704
428 -0.019614190475286706 0.008878740634568782 0.0018350814124842064
585 0.001652045117494939 0.0026156185852925914 -0.006810697954036387
2602 -0.001922383501512292 0.001971737329986715 -0.0041265661182240424
139 -0.01010330833566534 0.0005223917063506839 -0.004502329987940232
1497 0.009556623659355995 0.0015295775374767862 0.013376835487234826
1849 -0.005517552045715872 -0.001737625621970995 -0.004300722434379629
1850 -0.005951146949122317 0.02188903351641456 -0.01042363593834464
140 0.0006937372119093554 0.007852291973422743 0.003600676721988299
2261 -0.015699116099027428 0.02849611811853322 -0.00737619513060432
143 -0.0030269552852216068 0.010536742122676579 0.005553402157490193
142 0.0002605073902331343 0.003196725059636652 0.0031412966374258664
3098 -0.0010083617697237085 -0.01128050938840692 0.0013909016886026482
1250 0.012996483697509841 1.6842397981025374e-06 0.0012636193956424267
1249 0.004745807138958795 0.0031404327374133316 0.0023698864506695866
1851 0.006102229519288845 -0.008756996633648578 -0.012471791493071639
3097 0.0053047152059124926 -0.00014093720616500924 0.0005945288633205661
2821 0.01018667149969792 -0.003061680137394706 -0.006151632486768858
2262 0.0007505311518073185 0.003952657790328959 -0.0013856583037947434
3006 -0.0014434617391010838 0.001755581665764699 0.0033723406419455646
2260 0.003277760296970687 4.6827505090687154e-05 -0.0007662239293399739
3096 -0.00043444701820196464 0.008933084642510664 0.001577881899146185
3094 -0.003217930143666641 0.00037252136473516737 0.004593439806853146
3095 0.003979002686334332 0.004126650724516815 -0.004832087086587601
1492 -0.00037155122793529317 0.002689597540850771 -0.003901064995575862
1354 0.0032187705872078467 0.0008492278749865402 -0.000324704317149147
144 0.004326237507429382 -0.01857339004667045 -0.0019325036483657779
1493 -0.0016533027495233951 0.0036708186095072417 -0.005951880331869803
2604 0.00429838890906189 -0.004288277184660474 0.00507620064896392
323 0.0032260418236904932 -0.0012359203347517298 -0.00021284137045650466
489 0.00038569132849577525 -0.004469789974052824 0.003393228832581648
427 5.502627032333737e-05 0.005655344465643223 -0.003952651009090252
1494 0.010095022252828035 -0.0030759856155245717 0.010774944589570875
833 -0.016765386707209975 0.004181999444868267 -0.003504141086774354
2603 0.007858479842337568 0.012320698765463935 0.02030078511717774
487 0.0020432728268481707 0.0036583716434227726 0.004675476995164869
1496 -0.0019286382539194903 0.005417391207579857 -0.009560259076796692
681 -0.016670071125748597 -0.012916529810084463 0.002917224656059038
2823 0.0006124468522754542 -0.01076665088713713 -0.010675677368118648
2024 0.013124016022894959 0.012046762754924672 0.0014159554387636777
2183 -0.0027399363464594823 0.004560738961981561 -0.010303393368718395
832 -0.0003108810232763409 0.0036013803320002853 -0.0037714421182071614
429 0.00788801029946362 0.024484264733933152 0.007703769428483444
2283 0.010510121426602544 -0.0009012142674595152 0.002751343013861418
2861 0.022706305102635826 0.002732765991640508 0.011883127724682764
135 -0.001605136581229725 -0.02165663104629867 -0.00098657374378297
2032 0.0011555037700741266 -0.0011140022426407187 0.001449746488378783
86 -0.004926831108217177 -0.009361833870484964 -0.002422732147013693
2834 0.008556056638793592 0.012598870214622295 0.007744949593782114
1015 0.0010933451431060382 -0.0007080910843730968 -0.0033877069577561763
882 0.011115496824339002 -0.0058450887024142405 3.561239095991892e-05
2968 -0.0020701057212471766 -0.011111291244095158 0.0005697171363706954
2969 0.005794424709191645 -0.011578683391965874 0.00124461168951567
2606 -0.002589754988906698 -0.00018042094713306638 0.0039051909327521843
3043 -0.0015745860768393999 -0.005977253177583469 -0.004248947097756683
593 0.020310044942365758 -0.004593727536487486 0.010943553137647706
1725 0.012843167754327731 0.0037798210577202752 -0.006752356545400637
594 -0.008212804546537708 0.010129661136612624 -0.0034502779377759167
2033 0.007072818622082592 -0.00820711426245715 -0.0034753681465734517
174 -0.005113043146288048 0.006764430961024004 -0.008928933752133706
172 0.0005795805369005552 -0.0005727652521639986 -0.00010692343183198294
1016 -0.009032377635860386 -0.004398053359866673 -0.00916335036354324
2525 0.01353983666641546 -0.018481652333980247 -0.008949787692539294
592 0.0029982328970463577 0.00255605845888592 -0.0005795347459872398
2833 0.002882791020525384 0.0019580070524264654 -4.184099660651408e-05
550 0.005131999492750809 0.000887547266024897 0.0017102051489687243
2900 0.0005924492271301324 -0.007132467282716601 -0.010587742353795662
173 -0.0026669106234595047 -0.00885942707639922 0.006775817233073961
134 0.005349669384816803 -0.009718868834160906 -0.001931615852719107
2034 0.0011975199145064783 0.0026330801477553577 0.008539914722484257
2899 0.004334639762692216 -0.0006149312808742175 -0.006644252793600509
689 0.007010400612076187 0.007064097389935365 -0.011056100947960003
551 0.00896279528686378 0.01526740763520777 0.017377677896731548
2970 -0.002319734422929714 -0.006454562829894411 0.0012016045640001222
1723 -0.0022382517466173354 -0.0026599418051457937 0.003766934684211265
2607 -0.008203346099151104 -0.000701268276426721 0.01607943227866933
133 -0.0026843672524810925 -0.004263452677512823 0.0025460456307497877
2035 -0.0024992810063178316 -0.0009412494805495988 0.0035895716627799956
1675 0.0029023963572795495 0.00046855463255470923 -0.0013019795793996767
2363 0.020039768861388245 -0.005416085344631456 -0.012394412617929632
2554 0.0004178006013474309 0.0005972154328279249 0.003825505486180722
1993 -0.001159740998309227 -0.004522347078747757 0.006817757681895143
534 0.014500497361138615 0.015897403917926423 -0.01783622290391198
181 0.002595000444894646 1.4363463805769208e-05 0.0038589789742871756
758 -0.024410557958581068 -0.026413114421061132 -0.02096060365468471
243 -0.02114576467145538 -0.009242763687302835 0.036776953675621
1959 -0.00922146343388279 0.00535390044649219 0.007801161569206991
1958 -0.017039166728026283 0.007596500250414102 0.014110809681384201
1957 0.006173842508749655 0.0026434115131236755 -0.0014150451464825372
22 -0.004494062690632966 0.0065764787584693014 0.0025007254626143493
23 -0.008255461184072575 0.0069894082158122785 0.006989248241831208
24 -0.003736669488895467 0.005204432817138322 0.008049205500986905
1786 -0.0001944810622646588 -0.0004940091626133632 -0.006016677919949957
1467 0.004824390764087377 -0.008251791827055002 0.0013790492582553176
1787 0.011599123986037404 0.008988496290485998 0.004924422538605366
440 -0.0005596493914093624 0.0033018842239305344 -0.004054959301496595
439 -0.0011020394244732538 0.0026030960319086364 -0.0021379787240763913
691 0.0031655650010740805 0.0011904957168130037 0.00036172836507123704
1712 0.011012795637898093 0.012396276172001702 0.01580617032695505
1713 0.005925980691159857 -0.011883147348700853 0.001755836522969126
1711 0.00751818246541837 0.0008004226409454244 0.0013139264999585702
441 -0.007901173706724515 -0.00017722165572886466 0.014909383635934779
2147 0.0057367037371998 0.01763745137570409 0.004501625683974739
692 0.017766135877759753 -0.03635404814963854 -0.004784600511782146
741 0.0050408855928824195 -0.013003248362828288 -0.019846687900338
693 0.0064733616864275055 0.012305789729680544 0.005748117546046247
2395 0.0029274973822494923 0.0010663146337341754 -0.002665615351477904
1019 -0.0016247871694808002 -0.004615063267192385 -0.0006794404478505188
2918 -0.0009942522204337266 0.005596885281009604 0.006865720863190574
2917 -0.002739063801086157 0.009282367980598285 0.0011651861316964265
2919 0.0013574276430232419 0.0051721126499897595 -0.001170273263352959
1349 0.01099365586306318 0.002481116890980591 -0.020432677336057206
1773 0.002216687969269279 -0.02011538637376415 0.0007688487033565856
2388 -0.009738073357832023 0.007605620662108318 -0.016165147348817955
5 0.014071219515824025 0.006339973643132868 -0.015388738901704717
1080 -0.0017467405760043418 0.0049624483423056955 -0.010831226092198512
1788 -0.022610109188384443 -0.014146601746320119 0.00011804962438445963
2764 -0.0026065816939594396 -0.0008359173815760902 0.0005823113981910588
2286 -0.03690388255716435 0.025329653913845028 -0.006168186370446556
2733 0.008912079196307685 0.010676813383362444 0.015875204659274327
2925 -0.0033369821649997617 -0.009700554267880152 -0.0017898989057426931
2146 0.005147285204703892 -0.0015846720909783677 -0.0002668971806696352
868 -0.002405122983249382 0.005884230245876771 0.0009001396807930262
869 0.014264752633164833 0.010706548902375417 -0.006039446856316134
870 0.00746346127737699 -0.0008616628765827259 0.0020714551782537224
2878 0.0010528498711055137 -0.004974686888993242 0.008334200388839813
1129 -0.0023067825551479635 0.0026579735463574815 0.0023391151301988718
1874 0.004017163729465153 -0.011559013078272317 -0.019704770548688574
2880 -0.006068578678738156 -0.009189998056366604 0.011077695712031385
690 0.02030317993634972 0.016363418142508898 -0.01712706395053576
1151 0.013517788486915181 0.005701719578872772 -0.020041024008300337
1131 -0.01690762486431336 -0.012730745576782564 -0.009798014227162677
1771 -0.005135855650971134 0.00011367780810858081 -0.0037258622049877854
2923 -0.002004446042345865 -0.0032101913255942146 -0.001322313959163934
1152 0.0006534802540150607 0.0028444647450353057 -0.006916242237152746
583 -0.0020990896419299638 -0.0018420919925815592 -0.003376278207263608
1426 -0.006537386615128992 -0.004037408298317467 0.0013260379561918234
2971 0.00032675989362476125 0.0007978612223687552 0.001350045723205136
2973 0.012189126607274255 0.0032754819835840204 0.013246171220941644
2148 -0.0016853957542988243 -0.02068389882090557 -0.006372405145153538
1873 0.001461726930421591 -0.0045612347349752395 -0.0026040723322923306
1130 -0.015513959504494513 -0.005986796184144392 -0.005161945993880012
1291 0.0033273254123526 -0.0030108177629608332 0.0008449744370391501
1293 0.005748890129901757 0.0023244962423364227 0.003556175662201871
2386 -0.0013994200208759917 -0.0009742477495636426 -0.003410999003263095
2490 0.01601712690034468 -0.013972164851122874 0.012305493974868421
2488 0.00014987511492432402 0.003708527189192662 0.0009391676287190773
2489 -0.011193224501324052 -0.008588437552371875 -0.02075848525845088
215 -0.0027594377133823254 0.0006020190978811371 -0.0071944589088094426
2964 0.008862785916749999 -0.004157474133378192 -0.012497214756832168
2696 0.002923617872088934 -0.006732852533969507 -0.008408324627327372
2695 0.0034968701911868385 0.0037850121903117272 -0.0047948561977007075
2697 0.0019083683480289675 0.001357331667396795 -0.004796652446058339
2963 -0.0027882072216895166 0.011043655804260536 0.02594029922889191
2962 0.0010168484537795652 0.0022007496312070633 -0.0011818616493794543
216 -0.0074688617739122444 0.0019267243913428747 -0.012191042631299305
891 -0.00821039789695585 0.0034155655482710928 0.0011743588740393029
890 0.021962271090253428 0.0029488086697426856 0.003855493136766547
214 -0.0009316818081227813 -0.0005269532895750276 -0.003772693613359121
2387 -0.0037212785587194524 -0.033923728409133436 0.019224168767889845
889 -0.0005454437300678218 0.0007862389083138183 0.0025449002799881213
461 0.0015713049894146033 -0.003979171764445196 0.003733753045720573
2122 -0.001446980530908525 0.004526505090200577 0.004288121187699881
1875 -0.016467188359433345 0.002220006688068049 0.008528588285326913
2972 -0.015453636466661862 -0.0024987523459231477 0.006419537084978627
2731 0.0002455403975206053 -0.005451496593403402 0.0015279792797126127
2517 -0.002119386758867971 0.0025087574752001547 -0.004663667179214567
2123 -0.0006145742765721205 0.00024325098600401406 -0.010457637552015366
1466 0.02614284549782375 -0.019005926947757823 -0.0013613817708955135
1841 -0.0019030804225279399 -0.0011416068810325248 0.012076055941433558
1079 0.0021253195681001803 0.014288321585047403 -0.008071309328607609
1292 0.003703409352383918 -0.0003760781451909657 0.01855872418447075
6 0.002187180385960771 0.0008166705024966283 0.011528126826401183
2575 0.0017625280558074355 0.004383681340296343 0.0011560631609983324
1150 -0.0011764942479646693 0.0013579356702257887 -0.005025184336285513
978 0.01695453175243413 0.0010139721626218877 -0.01371804745174971
1942 0.0006921782163627039 -0.002324973131559028 0.003855839926842069
1428 -0.03097209385073024 -0.028823330312745515 0.001633001505317045
2766 -0.009859779198188357 -0.0024180212736955946 -0.010484926646007689
2397 0.007260665094503876 0.0023763089413373615 -0.001538608064153114
632 -0.010957322213389204 0.01926731731351327 -0.011578840425189542
631 -0.0020379429653239528 0.006791486222558061 0.00720052404439713
3012 -0.0007400924438092467 0.0012778720629045663 -0.001620678784102382
1348 -0.0026322465127759666 -0.0023073190911455173 0.00043567529500691425
21 -0.010585128563711889 -0.017989596935263263 -0.008654480005494352
19 -0.002013205386892279 -0.0038764791772775043 -0.0026835063104668237
1462 0.0003803422632507483 -0.0037627617590442865 0.0011600615740393178
1463 0.008873833488445924 0.0018275053710679356 -0.004308230472596608
1308 0.00850829733567448 -0.00026296031510512896 0.011125433384492006
102 -0.003612586448767943 0.00340125703674145 -0.017166647291282224
1593 -0.025928001815916438 -0.0017428555808471737 0.006427162117179544
1350 0.005261165343515695 0.009316895510479454 0.010562114357396714
2294 -0.0015243898609274952 0.006191359179475093 -0.014544679260891572
2716 -0.00011710419299290811 -0.003141060349541341 -0.006902846147414638
2840 0.016551677668300714 0.015332143039654085 0.010896537517516413
2293 0.0014785361822931848 0.0038062532066578674 0.0029944206938365314
2022 -0.004682807112354641 -0.005676245207449848 -0.006789230825150764
2020 -0.0018332745603249125 -0.003144989682094159 0.0031748458564742907
2021 0.016142379386880693 0.0074732719746474375 0.013815094105453486
2804 0.03266420642563706 0.003059042436256403 -0.0015468303408936205
1306 -0.004016903223547079 -0.003419501424573122 -0.0006611745246078596
1307 -0.0006569371330312531 -0.009889861382834014 -0.0035958405143705647
2803 0.007336085868304129 0.0013205404958877085 0.005779326259295255
713 -0.011705487311888576 0.01089218042688465 0.017863665550530698
712 0.0004184104173137547 -0.004851801415940274 -0.003643332949113186
100 -0.0023346163236419417 -0.005744950365951353 -0.009454726635043795
2295 -0.009275141763407213 -0.015359231676745197 0.003031179826162987
2717 -0.006879575760897458 0.00927972535939618 -0.006956498421204557
2959 0.004294228863299809 -0.0020193718020531156 0.005516067386309873
2227 -0.007248142733299778 -0.001583728825561774 0.0007850129552038
2229 0.019425117687757485 -0.014981039069009269 0.010158508283440877
1591 0.003494241136689084 -0.0023684522198489043 0.0019241487790745532
1464 -0.0014213021695324434 0.004184463802073914 -0.006476260135303495
294 0.017696707479851675 0.0009515619144460334 -0.008656916749208985
1592 -0.011049873509960293 0.006537719546065946 0.014605716543026379
3042 -0.002092672897234211 -0.004228152590529123 -0.0017219166668364602
2004 -0.003368009375180897 -0.0009271680450984591 -0.00045793063484942813
2805 -0.012556064243357338 -0.0020696215185006615 0.008112266826220637
1078 0.0013478744962198883 -0.0022777712709022855 -0.00522756109443549
322 -0.003176121370319057 -0.0007871186443807877 -0.0022607975806445825
584 -0.008422142721015054 0.007533422038003095 -0.005311726151809995
881 0.0030725706933193357 0.0019081728024678431 0.0019516405220148805
564 0.01029344036386245 -0.007498586972831611 -0.004395925835165021
324 0.002492990653435543 0.0006740539479706044 -0.0002963722828547806
2924 -0.001355969114529474 0.009192671251783576 -0.006357086247349189
1840 0.004190353368926659 0.0032754691568342045 0.0059259455614808585
3028 -0.0038214552474579505 -0.0034808318114005494 -0.0010058685921661024
2841 0.015281851383408346 -0.021437546929601814 -0.00242183724427496
3039 0.001068294008751169 -0.0027442811413016517 0.00013022469632795544
462 0.01731247306599903 -0.010848717399204998 0.003740772556018064
2960 0.011238667216073113 -0.04418852758142853 -0.0015566428036313583
3027 -0.0035068522380486476 0.005997527396003204 0.0005387617289702314
2839 0.0026443759975281348 -0.0018458093364288582 0.009440606974417473
2811 -0.00460420888033443 -0.013666289124261493 0.011002362850620163
2765 -0.015600188240618377 -0.0035646780600514386 -0.01894244831245257
1943 0.0009119957037561079 0.008364902690966704 0.009134258165591023
2941 -0.00369124633168172 -0.0031040669549250977 9.725010382642004e-05
2438 -0.0057905599847761 0.0002548006857238937 0.01844663216438709
1944 -0.0012633707842127037 -0.0019194847166498466 -0.00709421365287432
3041 -0.007696608921841228 -0.003654417746102492 -0.0068653032673809886
633 -0.014520142489060254 0.002628501763215908 0.02609206762328992
460 0.005784695919212776 -0.007488339893563598 -0.0028677964988195566
984 -0.01464712756411068 0.010806375451422396 -0.00705600068769049
2439 -0.008442364683330896 -0.008634659080057599 0.003849716933801268
977 0.006916648074307084 -0.025410635778549278 -0.028768439728650886
2437 -0.0017684044311170564 -0.002644176915543447 0.0094043351374048
714 -0.008433154681011105 -0.013853515102901197 -0.027572049428368803
2961 -0.0064246450180397 0.018999671825454777 -0.01080921024536362
2718 -0.007754991319641475 0.002334256843040881 0.00797904911485195
1842 0.007951560350386406 0.008256506309736341 0.009810756508380113
3040 -0.0016887002004298288 0.002888260530434716 0.00116095212176432
1465 -0.0003273457950589133 0.00458064722648739 -0.0013396270811948917
2943 0.0027026092280905585 0.006688775052163682 0.03281183856042192
976 0.001971591625228838 -0.007361075218097739 -0.0037179259708472537
2942 0.002599382288338049 0.008279282087016074 0.021508787348472058
2124 -0.005493099738516516 0.00782238809119253 0.009802360239193078
2903 -0.021456898489797257 -0.01901509205246291 0.007690149771049996
2732 -0.023620804609636063 -0.0009626606114006524 -0.00268184083977071
739 0.0031339013395886143 -0.001189980749791788 -0.0023921383284598516
2809 0.0012143937156144573 0.0027927548989081646 -0.004156346856966159
1137 -0.006234567294963707 0.0007086273503023805 -0.004362648000830627
2228 -0.005248501192253804 0.010533488213467529 0.00051123923293201
1444 -0.0050930834075876156 -0.00018579127216550052 0.001544765115082909
3024 0.00016269115461451915 -0.0023465511547048857 -0.0009719468560879068
983 0.006616625680436912 0.004279794193379897 0.005014402657821647
521 0.03485469247784151 -0.021457733921036535 0.019145737244812167
2159 0.01565961941679012 -0.0031219533081467492 0.0149407237170936
2932 -0.010197320562509644 0.0008811428168862942 -0.002750784121790196
2158 0.0015651958033398349 -0.0005220711556230981 0.0007838659190386715
2160 -0.011892130902719995 0.004489950483771682 -0.014305897438037988
2933 0.001306863023942853 0.01982145349388078 0.0014094030089486101
884 0.005927299192380934 0.008784390332997173 0.00881682891529788
2934 -0.014581593228446063 -0.009627553104450872 -0.0012373224880134702
1040 0.014656833205104925 0.004011289931827496 0.017413605018030985
1039 -0.004525486883757464 0.015639657164947092 -0.005198304360454633
2369 0.011242755182832414 -0.0160604930024264 0.009019933184270091
2772 -0.0066071411846601365 0.013305852988003776 0.015081167975348857
3077 0.0005970848435407436 0.006894992273082434 0.0024528780222334333
2368 -0.0027003827631392344 -0.0004829602248624035 0.003062465370854298
2370 0.0008967406256716584 -0.004917704566219074 -0.005168847364267452
1041 -0.019937531116538655 0.0026907514039466148 -0.02121154541529498
2443 0.003564715069673378 -0.0007939105768209245 -0.0012629671940307147
2770 -0.0010046850949873055 0.00040160888007086066 -0.0043243407321256885
2777 -0.006672743679115311 0.010982538651142673 0.008553157220744064
2213 0.03304347173003692 -0.004069501136373323 -0.00653696242107619
2771 -0.00584044758126776 -0.00584607582679775 0.004354089866223291
2212 0.008941621422100763 -0.004263503767826781 -9.055382423367822e-05
2214 -0.03281509042623062 -0.0006163749386178193 -0.005219601968411063
2778 0.005256312967491804 -0.013556047377257267 0.009630745256681644
2429 -0.0149813676188684 0.0007429148840182869 0.00531952727471873
695 0.007262615334193318 -0.013940885191185597 0.012388694387391319
55 0.0007339702726442202 -0.000815300757758055 0.00014039188569437113
2776 0.006636183377486491 -4.601629286040787e-06 0.0023239233757751878
2787 0.0010959640514119399 0.009504810273943818 0.011285995993349127
3075 0.0002069828551269902 -0.00047438382557331077 0.0007721573555759027
1560 -0.0008787904298476126 0.01570935497809767 -0.015626193067693094
2428 0.0015881381523305876 0.005734920804848394 -0.004770337097189769
1018 0.0035749528669586344 -0.005253504122486924 -0.000595036741907278
2430 -0.005347480384141502 0.0017990452908671249 0.0005364993342857002
1459 0.0024324770415143884 -0.007551402801629623 -0.00029319225097193785
2534 -0.01729740965398158 0.001568472911130761 0.016005929620605708
1461 0.006512157207447816 -0.0134779916536012 0.013321995186238923
1020 0.004657126055068533 -0.00806243707942434 0.0005813605114618553
2012 -0.00694442238552973 0.00926786518448889 0.0002500963764392296
1924 -0.000586023162051604 0.0014886812320781492 -0.0006617224039805041
2966 0.00394569085809354 0.013296506568005502 0.0038562135128420074
4 -0.002714893121995377 0.0017209977358910967 -0.0069668414504074835
1368 -0.00017995628663074163 0.005841071672059186 0.0008820867675816474
883 0.005489672644810092 0.00955586692105845 0.00971514273056437
2536 -0.004249123222938074 0.001239126941166329 -0.0012322965868111016
2538 0.04615765894268915 -0.00618169499449053 -0.0003241184156071614
2537 -0.005161567219833555 -0.009967789958553373 -0.013190888621502276
1871 -0.0006272149129572701 -0.0007600341015702608 0.00032403141006993614
1870 -0.003945786179876584 -0.0019359297848384777 0.00031823410598340996
1925 -0.023658475193796696 -0.022013030457383426 -0.006660431268149839
2785 0.0009610399831272254 -0.001691370257712258 -0.0018001676252775997
2858 -0.01050037045079582 0.0005762082380747015 0.010853354730686583
2715 -0.007757350881082447 -0.006488898133217303 0.0014757106838147382
2015 0.008301149959575966 -0.010401970709723067 0.0005402436025573435
2016 -0.002685271374603157 0.004397139675085528 0.012680350080457611
2017 0.002255550995913947 -0.007552219608428807 -0.0007343954166352596
1872 -0.0002686848079512273 0.0008808672139362494 -0.002542930890099737
638 -0.016677272279511473 0.0013876834524456517 -0.009985150800932537
2127 -0.005222282255504677 4.941904897909942e-05 0.0008857183182985525
2126 0.017488501762024815 -0.007974535039671033 0.011583557917469895
2125 0.008524825512626615 -0.003634696802873118 0.0050334974420566956
1719 0.010354537244123886 0.005413159283172363 0.006603721353490565
1386 0.014326881563918814 7.100748345471275e-05 0.009488918844866802
1718 0.029661664359576106 0.012131588504520733 0.005553715946858539
1717 -0.0017981267559599352 0.0003844908343091562 0.0052203140285171454
2018 -0.0006492044473017987 0.003956504116467441 -0.010608077450813028
2335 -0.006705945109282741 -0.00417453524361833 0.004756058414381735
282 0.006043014542954282 -0.002075193132468485 -0.006481090672463233
2019 -0.010517114790475584 -0.015266524257913985 -0.016909889995843957
281 -0.00942704049778062 -0.010842765291759454 0.0018828678023802953
1547 0.0023471143326199194 0.0009220590983932185 0.0148210427380075
280 -0.0010716671181201186 -0.005395441520814864 -0.0016170484533626242
1385 -0.004478145135134186 -5.851816475322134e-05 -0.024315472140915385
1469 0.001018278470614983 -0.0064949748724844585 0.018736562180017426
2014 -0.0010511348968924726 -0.0034274945040035126 0.0019335964434442194
1709 -0.008712814524722341 0.0016719552103561315 0.002765352284048875
1930 -0.0013867648352583494 -0.0017056410281004217 -0.004831641720782092
1710 0.015149470247261109 0.020777849389517492 -0.01854692123654965
1708 0.0014472211279723019 0.0057827671493369025 -0.011404158071845487
2444 0.005589762224822901 0.0009320539354951354 0.005143187016161663
2647 0.002938198760281154 -0.0008726911444787128 -0.003273712045148979
1548 0.012068084089183936 0.003754287792268241 0.004373675767153195
1546 -0.006011653368686715 0.0024030283550746634 0.0008327938242559856
2336 -0.007302688518471479 -0.01205301524100718 0.007669029231791077
1366 -0.0016755524956682593 -0.000461596069142829 0.0021548809457849843
2337 -0.005451851177694552 0.007795043643932159 0.0007498349085795466
885 0.002628223415001294 0.011019829249171168 0.007732560535866588
1651 0.0012954044477414218 -0.003163380136607182 0.004608341583239223
2648 -0.001952595902147902 0.003862904278982127 -0.008709311374029138
3025 -0.005779391107237266 -0.007742198962817354 -0.010705469178071815
395 -0.00011640271399201098 -0.003098833207544497 0.006087957066414512
2741 0.007483595428446535 0.025194491940089905 0.0020750089425246626
56 0.004651825797126999 -0.005628659298340541 -0.0011199573175298997
101 0.004011605072811568 -0.009138341231302324 -0.008899732293849397
2786 -0.028141395201530153 0.006506704050622657 -0.006901476321951076
3036 0.003117772619499844 -0.00017103212755445858 0.0013961736562483472
2949 0.00912458440318036 0.006426796654461779 0.004556353267126234
941 0.012181050772552654 0.0004234616402925279 0.0027717255913907277
2699 0.009549425603915208 -0.024894617869509448 -0.012184893468485366
1384 0.001646301497903102 -0.0007829589555105983 -0.005300648032912054
211 -0.00639300230297706 0.000527682238024194 -0.00300474546273801
940 -0.002665465157395721 -0.0005611820172182423 -0.005255928145946801
2357 -0.007457384795176887 0.008094219143994297 0.0021958741114283782
3078 0.005895775500859184 0.00073646690495522 -0.0020564552756530854
1631 -0.011889233563579673 -0.004085319345155225 0.016974856519941305
482 -0.0048834472269594364 0.012523305253034744 -0.0029734685229934193
696 0.005806644711037892 -0.002611796078615198 -0.009425251566639217
1156 0.008500520063246761 -0.0058311429626308284 0.006004513525501582
942 0.004564867984225915 -0.005714583828486714 0.013013442588847877
1932 -0.0013668862877777384 -0.013230233850440075 0.006380619099710657
694 -0.0033958621364494086 -8.243379584962352e-05 0.00502028900148097
3074 0.0037411756291652176 -0.00039423323670508773 -0.0025872324105442506
746 -0.0033413702623121323 -0.005201229147149944 0.003196295905403636
3017 0.003639134948638369 -0.0008346000196465893 -0.0029826949678594078
2535 -0.003698001796631541 0.027135944307764632 -0.04001835842531238
2594 0.006893603220138014 -0.007788972028018651 -0.00011505079038349846
1158 0.0076282460818560315 -0.012822683463998565 0.013842249628061009
3103 0.007648187735287088 -0.004406054847787196 0.0020241826714391033
2593 0.0018240909693706007 -0.0007517022972268207 0.002225447541557208
601 0.003984154730988627 -0.0001787942746850197 0.005300412831114241
3033 0.001803220271305998 -0.006884476483484174 -0.008079125129314382
743 -0.009182425276670047 0.010329620305703594 -0.005235920533335106
3030 0.006078141077360835 0.0035880387329575896 0.004626292565942115
3032 0.0017473902235345417 0.002414636823067526 0.0020868888641221574
2533 0.002112354303553338 0.0011594591931018826 0.011488535539657355
3015 0.001783085601610392 0.0005247642243302062 -0.0036708262259375485
742 0.0036138836441173376 0.004906820908152081 -0.0007430063019620306
744 0.013838447842751072 -0.009743196627471883 0.02054493468571276
3076 0.005700772980702276 0.0009758339079046825 -0.004122548391519423
194 0.0024668820498481275 0.006448087189613976 -0.0031055543811926204
193 0.0024306229869560454 0.005388675107012905 -0.002878412613987077
195 0.0013303762879997613 0.004948817236100554 -0.0027990577400358236
3102 0.0029342675655017626 0.0002681737071281414 -0.002118839162756801
745 -0.0047393087570378484 0.0028537376429853124 0.0036987929266574394
747 -0.00881939286482758 0.024744760843204944 0.027767201786721495
602 -0.010270158471561793 0.017621647663414463 0.01415218156894177
3029 0.0022183682930492867 0.004244335030776594 0.0029799420138475843
640 0.005152591745767833 0.005241412406382623 -0.0019420491391623548
2595 0.010389827822778308 0.013971853218773629 -0.005701673716876859
603 0.008961878689921463 -0.012378612309332574 -0.01660737183749537
3099 0.0022607016359972756 0.0005687000724043911 0.0010518301541878662
3101 -0.0021878914134418675 -0.004278118172663946 0.004495856057009547
3031 -0.0012213398868323852 -0.00027950177402207656 -0.002644712658567928
2947 -0.0012363273232447456 0.0013005161993592637 -0.001841076173130733
2948 -0.009166030709820102 0.006202197391443091 -0.00654239448188076
1632 0.00553794958646432 -0.01625105343979715 -0.014327224978381034
555 0.012445381354054614 -0.01091473791953862 0.011764639038064803
57 0.004577750550403929 -0.0053721765234573185 -0.0042216572251423685
481 -0.008327127063937862 0.00889048410771723 0.0008080479057500541
1757 -0.0013542279613138787 -0.008689894295296093 -0.010370104462282323
318 -0.005304925987817961 0.010555141901044814 -0.011206438783076266
212 -0.011081980262484603 0.005582437379839099 -0.004345598537457269
1920 -0.005266212604115497 0.00038756365137297276 0.0054701471257448155
1618 -0.0002784687492803464 0.005382806772429453 0.00027829957838308944
2904 0.0044192202928709 0.013596965057415164 0.01063543517481929
637 -0.0009842813646751133 0.0010325527774833535 0.0020741154084806617
325 -0.0065949862968761215 0.0036732117354756418 -0.0042356237710474785
769 -0.0016274008891070683 -0.003818834858365804 -0.0037916687500544216
641 0.010755529348313593 0.006463059835052645 -0.03341044262017332
2649 -0.0003146576376171245 -0.0017001776144400422 0.006874892160530846
3062 -0.0030955331708056692 -0.007792535138792861 0.0001903003781572932
1926 0.007121823428855153 0.018467287272413438 -0.006808407554746251
1653 0.00437812923874415 -0.002172964384730282 0.0013360160634631286
1654 0.0061874223676303365 0.0004579422276070209 0.001774134339992485
2714 0.009147040225276811 -0.005055843511489735 0.0030115585139451396
3061 0.002569329890622372 -0.0034313608247298582 0.001740285062024139
3018 -0.0018183787754953993 -0.0014014299862883126 2.268828992407382e-05
770 0.014881249259981947 -0.0008114632297040368 0.004163157793717139
3026 0.002011314875155232 -0.0008611215362436817 -0.0029779199684247483
2698 0.002296985010774273 0.011168546820903218 -0.0010596048416726474
2713 -0.0040053426635476164 -0.006343905159853855 0.002854941941660021
317 0.0001841187091617666 -0.0034335414255153886 -0.024894931324361273
1558 -0.002245815438055319 0.004780083904776477 0.00015547625420420991
92 0.005033888975212011 -0.012564251773494553 0.0015877119255555405
3100 0.004396789494030905 0.001228180482714774 0.0006033693860302825
771 -0.014382038427836353 0.012167327483205962 0.0030448001856238577
1655 -0.01626219005182028 -0.011915939983759291 0.034973082089658124
788 0.009657240491249174 -0.0032042445234958562 0.0028175388613732332
722 0.010159395761581346 0.010172502544922404 0.004894581843857098
642 0.004818950246060158 0.005027246207578875 -0.005650668863369409
787 1.0248310531821703e-05 -0.002221309395563645 0.00430794443514472
327 0.0029080856543857217 0.006571302009212149 0.005420013463212006
1954 -0.0022313652193555887 0.0007921474987810832 -0.005333740227649405
1956 0.006502343067744045 -0.0033150715092273068 0.0068561979263807495
326 0.005201691945378303 0.0068674416720979166 0.008648167960937593
639 0.006078939797850347 -0.002077718344920483 0.004273403887586391
1367 0.010676849052447611 0.01054815361801508 0.00246020152484562
1955 0.004082859237377127 2.6301224046527507e-05 -0.01795139800847044
1630 -0.0010057640465712496 0.002652871001148709 0.0016248196921285758
213 0.0031150064306229228 0.024665448740069568 0.005413012693311327
789 -0.014605309545034358 0.0018849711076724621 0.0033549404199185342
1656 0.01202419959308834 0.003476735019017662 -0.004328310594478801
1619 0.01846808540189793 -0.007755534835455847 -0.0008716913134390361
316 -0.003044475776922128 -0.005161111447268841 -0.0021001300642746776
2902 -0.0016678889648763112 -0.0001241904924188188 -0.0012384029546239203
2011 0.0011818212604925808 0.001175308701407644 0.006646440829560937
2445 0.015194299851356625 -0.007519426355982082 0.009528782958477928
1715 0.00407454722681051 0.018162392303748606 0.033098082040192524
2857 -0.007794473407583197 0.002767785393622867 0.001338438564270311
1559 -0.0049881795942368695 -0.004269849373996684 0.01872586751593016
929 -0.0033056918684177686 0.018706584177610983 0.00020731151510281094
3060 0.0022933782134042287 -0.008991033904630285 0.0010631842362898492
483 -0.005812614637976526 -0.006750694063544343 0.020848539047635662
20 0.019221112572296438 0.0020159826084834506 -0.007553526585349721
2013 -0.0024599807848902453 0.0031032208306183712 0.0023795265773465663
1939 -0.0009796916094150145 0.00445175037289262 -0.006648821964984915
310 -0.013133186820508947 -0.004762315759367942 -0.006146289709018038
355 -0.0021524327863608464 0.00019264484269723397 -0.0019432438053340678
356 -0.018625386010830892 0.010837359635993258 0.004735410066956894
312 -0.0057776414565398745 0.016356967105041982 -0.021206730602593458
2071 5.346570853732739e-05 -0.002108721203817972 -0.007517578265709725
2073 -0.014233299777634715 0.013508765130533394 0.004594727549454774
2446 -0.007448894242839467 -0.0001329554841591157 -0.00024113296757053023
2521 -0.0022283756694092085 -0.003818064339266645 0.004279821830515392
2523 -0.01470080799760521 0.0032799075640308796 0.0022755078523521086
2050 -0.0014059039433352647 0.00496628398602763 -0.00014944161901839573
2791 6.406206157352725e-05 -0.007108355341121986 -0.001934702236773785
47 0.0038069576794935184 -0.005354657882234287 -0.0320646965706679
311 -0.01656511651365392 0.005209775625194028 0.018607706129136346
2522 -0.0013948876023240544 0.0019521188051085535 -0.005322404917414664
2447 -0.010487072884716982 0.003266714902238264 0.001929002657511036
1827 0.012786695808029637 -0.0019511664701730806 0.004738792271593314
1222 -0.0017345582627064787 -0.0011549776356611229 -0.001307667859005117
1223 0.002715934838826048 0.0036453774981756843 -0.0037192352375414912
1067 -0.036621272470918904 2.4014119689322727e-05 0.03048120182247018
1066 0.0048874332680032525 -0.004533872814030698 -0.0004492893743607334
2250 0.00785295965039598 3.619639334131856e-06 0.03659365334408539
1826 0.008432450882608045 -0.007882022024923946 0.014665142552499524
525 -0.0014848004978583386 -0.0093798653571572 -0.009512775479874776
2730 0.0026184985200434574 0.023509032467527176 -0.004679251661757075
2448 -0.006728866635704285 0.0022319575522852598 -0.0019967884403395454
2793 -0.00017529251190587334 0.001548810652016179 0.015220379460207649
2792 0.008819526370727453 0.0034553246959058885 -0.002478400230821252
2085 -0.009408906380779554 -0.007104793992020248 -0.0067310784896721515
1068 0.022984543029483915 -0.005163645335504877 -0.002124603361421862
2072 -0.025454314309564612 0.007870762027806094 0.002054882860006351
1825 -0.00812797957983582 0.0013002859448427203 -0.005029055971456744
1224 -0.007408325145308513 -0.0019248460841154468 0.0010540919829116905
1320 -0.01285206468190283 -0.006623178908688331 -0.022645490351667557
2051 -0.0003188951477633929 -0.0003455621451748911 -0.01907088848826955
1087 -0.0048748697639354145 0.004035163377271079 0.0011794270827221508
3082 -0.0003117019815105296 -0.0028541062672266925 -0.0015850945423630475
305 0.01820991189144424 0.013227114012069548 0.0030365812465796265
1845 0.008493829009801817 -0.01621889700030789 -0.020607730525594534
46 -0.0022091527292431995 -0.0009826282449455952 0.0030977729240838038
124 -0.0004915463682398886 -0.0012252592509036377 -0.004435019022243943
1817 -0.004202851859257234 -0.001037329642587497 0.0014710156337891108
125 -0.014607677016267936 0.016452488107642597 -0.00564736907420289
2728 0.004635290701645673 0.0017075022245275659 -0.007486111337065692
2492 -0.0009154283670503018 0.005354313876355788 0.005013740022673574
2099 -0.0019276485015837811 0.005700945126556587 -0.0058069968616179845
1318 0.005783986145054091 0.0052208079398145734 -0.003961704970135502
1940 0.021348271816294798 0.01919111317774303 -0.007170290692115894
619 -0.005739618796635996 -0.0007482048638292762 -0.003496741644138998
806 0.003625452985813594 -0.012047725525857273 0.004960112278249293
224 -0.012916310206510174 -0.013599245786376567 -0.007092980039816402
711 -0.014128009368122169 0.0059715083368577174 -0.004551939565163633
2794 0.0005210752023956159 0.0011335408318464287 0.0024774002803313916
1550 0.003938704624219473 -0.004681973668099825 0.0070736736301110935
2637 0.0027724155517440917 -0.005736951993042051 -0.0008550261674253109
792 -0.0026292042387405018 -0.0030577486659803662 0.01618755035798591
1598 -0.0003266608053928397 -0.011809476340662556 0.002786874873996721
2920 -0.0010896267974305133 -0.0020387745265085275 -0.003089789810015728
2976 -0.006624540791153088 -0.015600854539847112 0.0048404209399662505
2248 -0.001373970612848529 0.003609397607146393 0.002743777807663967
2408 0.007598239575799565 0.019792405420524548 0.004921697033703677
7 0.001063160017863785 0.0004857590188562793 0.0009341863560239232
1660 0.002121922154722699 0.002525009186372532 0.00021618668175588576
2409 -0.013774948618224774 -0.004630614792961592 -0.007187429679322297
1001 0.006794308969668438 -0.008204909040920128 0.012028977659840897
2921 -0.00673571986907546 0.008446524855984955 -0.013381512073629209
340 -0.0035437829261984353 -0.00128567160245229 0.003103781624429826
342 0.03563085948006241 0.002488080113748231 0.019992318311858118
2635 -0.0020777069514667968 -0.001996193756705225 0.0005492809925176327
2636 0.0018138445295568819 -0.012767207041060638 -0.02165821680819545
790 0.005798111008483477 -0.006597243454178624 -0.0004141547955605055
791 -0.016252453243822233 -0.011449347088275972 -0.02014680972557699
1423 -0.0004852182790824622 0.0007329849302361375 0.005109930852862277
2407 0.0011395021822547533 -0.00036860355368946717 0.006309487797623357
2249 -0.02266080140180684 -0.002790077690239318 -0.02117129158396193
1549 -0.0015026942265687817 0.002442733141199941 -0.004047611281242375
1184 -0.01669376887339382 -0.004963190726212745 -0.0006535359368241917
341 -0.00169620222649259 -0.007705719776784649 0.007175620013127276
48 -0.005998363916324771 0.001329530562009758 0.00786581068051214
2795 -0.014261859896250517 -0.023020251609387223 0.002381877565898135
1551 0.004495153556938194 -0.005509496658734652 0.00805488415286534
1662 0.0019082037560367562 5.121524326279295e-05 0.013717572686355808
659 -0.0021223473568297993 0.007144516445332936 0.00757043089512439
2788 0.003535765488465768 0.0017056223263690114 0.004778144614263035
2789 0.014890854703432621 0.010830437784546013 0.014169680143174459
676 0.0070307122031695694 -0.00178110924721596 0.004110492583920399
678 0.0061994060530322715 0.0003489695153818113 -0.015558085239129014
2796 -0.004610875589121834 -0.005909801091384592 0.0010692441873485024
1857 -0.0033879224280000796 -0.014188866198496812 0.001795190853325836
388 -0.0017146604572507316 -0.0025080439139316363 -0.0007911434789618497
389 0.0020659549767697784 -0.011224728120215013 0.010923821461310492
658 -0.004267458131745666 0.0016669366739996804 0.0014022158190273159
2922 0.01853971351545358 -0.0027593385887995504 -0.005421827201000893
1183 0.0023493379964181814 0.0006230505535285369 -0.0007991450670318946
1269 0.0014197316775435998 0.003872156077749255 0.004750860125802658
1088 -0.016341352297374007 -0.0024857372250737695 -0.0035060865426391075
1185 -0.013941971339960859 0.011801593358972077 0.0076125299468462046
1893 -0.008093616276681833 -0.004667503893173281 0.007570592309998953
1844 -8.708078842486107e-05 0.0006034391526914104 0.014461416934784858
8 -0.0006202635847100572 -0.00465075916321103 0.0029221773494616686
2083 -0.002272069607213596 -0.005511874639726607 -0.001772895081074254
1816 0.0005404613962674578 0.0009702493538874563 -0.003738611592522035
2616 0.00531187574811782 0.006128682765613481 0.014435903159741505
1089 -0.005160154194418313 0.004030739266618729 -0.0015531362426945653
2608 0.004174506398892995 0.0024231377109487514 0.004993162760231799
677 -0.000452325070375146 -0.013635179510854538 -0.025204038851270937
2491 0.0039838661858510776 0.00032144063038103284 -0.01109488431099602
54 0.0042196184688621345 0.0008774209248085617 0.0008898338828653087
2850 -0.00979558398615494 -0.005197104026797112 -0.006955123233749515
2849 -0.002622755761676872 0.007916805656119161 -0.009561396003175002
2010 0.01228150523596981 -0.016404354217335847 -0.012010938667586379
1878 0.0006885439410919722 0.01674083105163615 0.005196486907945596
1968 -0.015081623525923694 0.009452511913581475 -0.007325296794915119
1966 -0.002369370321091003 0.0027036269112150606 -0.004221848249384321
969 -0.0005357360267049253 0.005691867224381121 0.0015757815187424163
2848 -0.0016033174691600274 -0.003038182480855187 0.002544247162650416
1364 -0.001389434650120433 0.012550215154141163 -0.0030771018782613374
1365 0.016529934301172687 -0.00038461523209363944 -0.01513153786821825
1363 0.002557007202589559 -0.003199590089572238 0.0010329012963751043
304 0.008316661242567698 -0.0014560114717484854 -0.0019328362531571804
1967 0.0029755491293503846 0.008720648437857534 0.01140099712839198
762 0.006259588352289259 -0.013046176849769511 -0.005482936379929319
1989 0.0016318939767560401 0.003899774369383291 -7.603031691652293e-05
2682 -0.014934670946770378 -0.0014934860843587641 -0.021630683708098408
2319 0.012017324166783664 -0.000929037535410826 -0.01099032912073784
760 0.006427902601816166 -0.0003401225697764914 -0.0032663342621264088
1192 -0.0013976822989316062 -0.0014527218105815213 -0.0020264490452482696
254 -0.010376550308865768 -0.005381144209160296 0.0011441385361565732
761 -0.0064037183871521195 0.004198050062695441 0.002977458652953288
1193 0.008514477284073603 0.018988044270032405 -0.012154350283370906
2609 -0.0066860469574063115 0.007588914054969523 0.009452120155822145
927 0.017645260363309392 0.0038698233104882333 0.0033611385810596024
925 0.005587877197793199 -0.0028967216185474304 -0.001969789083372142
926 -0.00971646108682552 0.00701004607010898 -0.0014474769711151172
1485 0.008335738842903635 0.009242699148768517 0.005584565087324397
1194 0.002386497564906601 0.006544912524353041 -0.018483388411208487
1615 0.0017914994852236972 -0.010434225421678307 0.00283500882671201
306 0.012976236501913247 0.001579612244024923 -0.013513674666794246
967 0.000709150090390182 -0.0028601958018230796 -0.0007075095446773991
968 0.01517669865740749 0.002451438503606687 -0.0026694477428251934
1616 -0.006485682562048613 -0.011483399396398293 0.002359356430862826
1617 -0.005516448286561369 0.006579065366370999 0.03756084500986116
1 0.003207604788773118 0.003576603036607915 0.0016222549568081176
126 0.0048748206462987526 -0.011413902667339569 0.00024619045995480187
1877 -0.012695743096303677 -0.005576532843705323 0.017843282851445402
1876 -0.004791477871873579 0.005415233962425282 -0.0009010097498951768
685 0.001560358436846033 -0.007393727070136481 -0.0006092040399843001
2476 0.0014790957425531881 0.0027369706229014774 -0.005534334922213263
579 -0.014175861498527639 -0.006333162767025984 0.015127091593771907
2729 0.006151131313687844 -0.013856622100538906 0.007244406798323086
1898 -0.006855412829340199 0.009157843343133647 -0.000894478280687468
1319 0.03460951022925542 0.00012465723412233298 -0.010138085628416225
578 0.0136462811295422 -0.00028477441770638723 -0.013760537767270516
2872 0.004807088114949001 0.0031922756370830418 -0.005372465513816375
2615 0.01501786941749684 -0.01617931565406857 -0.006379003444716962
2874 -0.004674120444781644 -0.00705611612707886 0.0036921148522431157
59 -0.009112885553244335 -0.0014753448670128137 0.0202997421125677
1661 -0.0027018783288139244 0.0018998262865379573 -0.0045522592680246115
390 -0.015536727415373474 0.0043896749674626106 -0.00885228271644436
2084 -0.008524561152479772 -0.0015429730930196408 0.008701393798842346
577 0.002835916865872279 6.758367518357086e-05 -0.0010732333423481486
1891 -0.002557314617231662 0.001528170010626753 0.0017045995378314153
2707 -0.00010103108592948582 -0.00045193101369580136 -0.001354359134125448
2708 -0.006457510552516559 -0.019371176051531203 0.004735717694740737
1818 -0.01658349025509823 -0.008803341568734427 0.013308842177646428
60 -0.0052156950539981066 -0.013576291697152075 0.0005296471539312585
709 -0.002864098021287831 7.847213747433879e-05 0.0016921069005518521
687 0.004214073589530295 -0.010477426189025028 -0.019844422900242728
686 0.004498595583681826 -0.0018400428280586475 0.002446747277844188
2680 -0.006397318862618409 0.005519609202562126 0.0010185480266687173
2190 -0.006280907261229104 0.005939018370052998 -0.010597012933302438
2614 0.0033259848640195895 -0.005407960782584882 0.0024951506936152857
2423 0.015699437245041865 -0.0266254818312037 -0.023667673073022377
2422 0.0058531843324823255 -0.003113830571586637 -2.255920665656771e-05
1197 0.00638224054402119 0.0067222625025696444 0.007602663752144521
2477 0.01620351594056053 -0.0053577880196900764 -0.0008098915356372644
2681 0.006272308356368417 -0.01601282612819611 0.0036930792814359134
2424 -0.03204156338766641 0.003153653605269351 -0.0007347410623250813
58 -0.002568860436411718 -0.0054651551217326216 -0.0009766154460326307
710 -0.0029825052696288196 0.002953135618672774 0.015505844702057847
2493 -0.0068258538649639995 0.005044477159204066 -0.01549242912465241
1917 0.01637472247639632 -0.005730441056253874 -0.014943008372393006
2769 -0.012025705832747825 0.014460830851140619 0.0221414564764874
2473 0.0010229166356937583 0.0023407490263938424 -0.005349770992017031
2799 -0.018722154262193466 -0.006967337449173544 -0.008683065869779238
2797 -0.005954454363465563 -2.8921358211262285e-05 -0.004901777212659106
2709 0.0058683929258012395 0.009902674480414295 0.015612873334824038
2474 0.004083854387797559 0.005613386000526986 -0.011225257318324548
2495 0.002403024212259108 0.009409144661806782 0.015364286924775247
860 -0.0043056481782078266 0.010706624615586125 -0.0025908658382591166
2892 0.004097555546366021 9.110681050096611e-05 -0.00445725519275284
2475 -0.0018482344863076305 0.023374526521710126 -0.007090324089649856
2494 0.00121672568255057 0.0038189481016106075 0.0005219068931267168
2808 -0.0072654597100515 -0.017018870729675617 -0.0024228696161422997
2806 0.001192656849871004 -0.0006962505906916902 0.0005012949590728251
2505 -0.0018540753439503952 0.012475125629885021 0.010003898758219998
2807 -0.007831220463540773 -0.017466124774861244 -0.02514940350640442
2503 0.0031432342592985604 -6.472633364858798e-05 0.0007090962058214603
1257 -0.0019627029736635966 0.004170455509377694 -0.005973884267634673
705 -0.007501649653439138 0.012308381345575778 -0.008511319697802286
841 -0.0022180513583555366 0.006485098572994674 -0.0028004254150133467
842 0.0021027366071269173 0.013162393998962001 0.0034509303922020816
843 -0.01287346131997685 0.006229898813923213 -0.000252464297432842
2496 -0.008414671857584785 -0.007499191962342727 -0.001195252277502933
861 -0.008668334524088396 -0.005419599367762524 -0.004574460203202338
137 0.00777277380855374 -0.0015542405402827935 0.00381566285850385
1748 -0.0033135747302580425 -0.02515699463741404 0.007285657942422104
414 -0.007339670397270199 0.0032692288426215393 0.003390568866788524
1391 0.008991500116674983 -0.007955444224357304 -0.0004829331070337673
1390 0.0027593079770888494 -0.0053253889505168114 -0.004571239696148504
1255 0.007873083217636878 0.003657992486032836 -0.0013138074782427602
2461 -0.0005957245962544405 -0.0020073238697915076 0.00964254424644716
2462 -0.031775438190127216 0.005388352567981419 -0.0022146682123215925
1256 0.026044961697504913 0.004476781049060139 -0.004547364338962074
1259 -0.0031646344303037214 -0.019327497711700156 -0.01006648392253485
1868 0.00950962248757307 -0.0021922716013842354 0.0036729381384736992
412 -0.01000029059252642 -0.006210901671482715 -0.0018634976494737257
120 0.009566637142496684 0.011605353889453988 -0.009994293511995819
1703 -0.0010006583956776104 -0.0033502251344174035 0.0021656732179912166
2504 0.0021218506786388042 0.011153966420029568 0.024010496867706843
1339 -0.003325568406286577 -0.0006508188591065321 0.0071798784274299254
138 -0.00539480059457142 -0.002622885864075608 -0.006996230596639747
256 0.002032661965121966 0.0004155179893222722 -0.0015950577922281687
331 0.002710688580424673 -0.002320454266328506 0.009155472884068016
2463 -0.011393539122989302 -0.010402547199844528 0.020343207965356738
913 -0.005933743902833045 -0.01149148132558 -0.00022895553819396672
1103 -0.0043908632499753955 0.0006531262046357818 0.009614516093566552
402 0.007785283896666512 0.010833346053894787 -0.0018444730560825226
1916 0.021851646855244915 0.0002761228386170994 -0.011448211162743784
2856 -0.003239332660489158 -0.023865227097841474 -0.006469124865398565
946 -0.0025798898837621725 0.005426443399173815 -0.0027317587175370844
1915 -0.00042615287756072754 -0.002008829292965515 -0.00455052878116925
948 0.02090387691808276 -0.006466726526893613 0.006723214334393796
947 0.005544717417196893 0.008014049178834646 -0.01346825048276318
292 0.004796281756087346 -0.0029269693781417486 0.0004932587042097641
2182 0.0008602419076359738 0.003158421684450064 0.0025045249978323364
1699 0.0005897166298878892 0.005627694455931868 -0.00365425876054199
1700 0.0028811427070628845 0.006957612432847841 0.005936529108331172
413 -0.0021850673183867134 -0.009849940830839538 -0.01075136083614515
2264 -0.011935112523480396 -0.00880829568609537 -0.037577047263808075
160 0.0012431665274396713 -0.005964507677151208 0.004751103841466445
162 -0.007401160890591178 -0.02203823383743716 0.012464481310583834
2070 -0.021654397100179495 -0.009271006603051375 -0.0014649109063109103
136 0.001561239886852424 7.250027750967784e-05 -0.0016120160818816043
2068 0.004484944992024087 0.0019552331997705536 0.005460139671223301
1565 -0.007457673986279024 0.008572627641127335 -0.0038691800644450377
170 -0.016730795650099817 0.014076240072012233 0.006552641931976674
273 -0.014453675626619414 0.01924353863154513 -0.0037718870838462162
1500 -0.007751690190108734 -0.0010400463434442864 0.009168176486565814
1498 0.002224212737347156 0.0008441518748443619 -0.00013270456952995549
223 -0.0037632446012905722 -0.0025324141134267296 -0.0028685884160320452
225 -0.003744905751264821 -0.002845445135289926 0.01376065232764154
1564 0.006119326170938054 -0.0017571072005132368 -0.0007877363768317243
1499 -0.005272865285751222 0.0004089445033534044 0.009634030615469184
2069 0.016769527200339827 0.017445945425523957 0.014250613669626492
485 -0.005704598199798775 -0.012150000976965373 -0.0014476611304243014
605 -0.0029917237366618283 -0.010649476252542226 -0.007260494670931868
1566 -0.008076866412531079 -0.009295704307944736 0.0062319540376673975
1760 0.006754877014673026 -0.02593057788899478 0.017260375681912427
2905 0.003977109554328356 0.00020068662984585358 0.006580839061211745
1701 -0.0007634258778360841 0.002796125175026078 -0.011558759616437774
2798 0.009118613939263198 0.02740536430253942 -0.009434109534022437
604 0.00023105625390557828 0.0034567890645575672 0.0010681145201146842
272 -0.010400377860754793 0.004076540202009712 -0.0003411145630643993
271 -7.845494949971994e-05 -0.0014078641905169503 -0.004416304366780419
161 0.007768512585266429 0.004671912256237311 0.00017451291092825087
2403 0.017005599110573446 -0.00047763350433912004 0.01335142574069815
332 0.0057289573170850715 0.0033328943435612167 0.0209692954048099
169 -0.0025188688221909846 -0.005240490894737353 0.007092651146629238
2401 0.009060626810096102 -0.0004724385686858614 0.005950471569810403
118 0.0010880607969572503 0.002395991252745867 0.005250242629362007
2907 -0.01551316926512384 -0.01303423414883421 0.015404022521111355
1702 0.0008665504530452937 0.0018427931660815447 -0.002359894802914773
229 -0.0044470805615990094 -0.003824606298935704 -0.00019834509490277853
484 -0.004113261064964766 -0.0004284952300483446 0.0016872360902127242
1241 -0.014157249109966073 -0.005601803041974305 0.012283338783757735
1704 0.0014771271346583255 0.00725330370807399 0.002784837919190327
2634 0.0049270554346090055 -0.012663879089059298 -0.03371520912972186
359 0.008935300401584483 0.004540007909899901 0.0002528634793337483
1392 0.0002969837309379964 -0.013184717572592904 -0.008850385924839891
1075 0.0020656959753407368 0.007342839911478927 -0.0033083446949289004
2906 0.009471317028244528 -0.011997891994849732 -0.00905156988669545
707 -0.011939909335808555 -0.036821232706261975 -0.002826856009992846
1240 0.0014311502780199354 -0.0013342456134532309 -0.0035003495604222228
703 0.0061648685185956625 -0.0030685463406159397 0.003486694042999125
1452 -0.015583874545709673 -0.008146489391810475 0.001214095232008479
1622 -0.0065088930934019155 0.010775093929094634 0.005231074039140508
1258 -0.007618618017524592 0.003550625676826973 0.003784583707047305
1728 -0.002046111568044848 0.00795388337766992 0.023746175785178427
1077 -0.004930560545507124 0.006557388350405216 -0.004092522232875299
451 0.0005128623434628714 0.0016888475058240383 -3.25960064960354e-05
1726 -0.002595616430310755 0.004125905940720461 0.0017621273976108631
156 0.010983050556577733 -0.009372197374694616 0.0041500425513298295
154 -0.0005772238269110995 -0.0035432579558146906 0.0006860291242975529
2868 -0.012275011627805985 0.007450491559190333 0.01870428045498743
1104 0.007781438867019998 -0.008465063168726174 -0.00911052803958755
1727 0.019507012705139083 -0.011196916168131201 -0.009179167616151463
497 -0.013160011438031747 0.0077869989561703155 -0.007628014350961473
2547 0.001763964112273592 -0.006399146472999697 0.004709052850256711
2546 0.002821221501593631 -0.008224853218776881 -0.0034005393716729786
2866 0.002977181450636913 0.001998063124933116 0.008371853345172426
2867 -0.0021543931867238305 -0.009747427756048598 -0.006511177848855759
2545 0.00042232826351192894 -0.0062732902026420975 0.004175993258358938
155 0.01693699902147762 0.005142202721345529 0.0035092462093532476
2184 0.003107916551300929 0.002217496722602164 0.009795881937688737
1897 0.0006022118725097362 -0.0004237820122275208 -0.003125236231711369
379 0.0022689426089356262 0.0018137076482180254 0.003135524640196347
380 0.001465703883619958 0.02541840021675665 -0.02391547716009696
1869 0.021364499140463063 0.00018193267468051636 -0.027485013326305128
1260 -0.011587134158786917 -0.014367495705033087 -0.013851116175086888
381 -0.00989067003531832 0.006042225577881216 -0.021521501751259338
2541 0.024630829714936145 0.012004388806785322 -0.022629823228137974
1102 0.003930162906376607 -0.008431317757348886 -0.001005110684833145
2402 0.013348150744939254 0.007510372196999978 -0.00199091586136921
231 0.004187510993349641 0.008473529257137487 0.0070589586815110045
1899 -0.01103587170797924 -0.017700978181833603 -0.009857999315548413
1076 -0.0010298996250001924 0.007972272561899375 -0.00715713904490008
1450 0.0011534398039817818 0.0015598609287132835 -0.0020881263021457325
706 0.0033522372314115723 0.005532521822299198 -0.004802437636460713
453 0.00040478754427526086 0.002178963751380053 0.0140153844789375
496 0.0007884751656216101 0.006565050755292652 -0.00140172317974231
1907 0.01223892379409492 0.007142841960523565 -0.004675069495082833
171 -0.004562203005052245 0.0013401250036086272 -0.00553155422117538
2478 -0.01629995149634569 -0.004527124098088617 0.010757089334021794
1867 0.0037836873218676263 -0.005219317423957288 0.002375191410545035
1097 -0.00923141120280292 0.01054166506337724 0.006666633498370282
1451 -0.012542510775613623 -0.0020051420679871924 0.00048538169530642025
149 -0.004923577306363829 0.005071437442629391 0.004258518658396176
1195 -0.0036664902673540956 0.011704701541074686 -0.001445056406833004
1747 0.0007090965208255629 0.0019803609338511934 -0.0005430573538013123
859 -0.008941238834838317 -0.00037846974858887186 -0.000707979530036269
1098 0.007810292226665135 0.01051500356367283 -0.026906337548444282
258 0.007735789390524044 -0.0028236464980808357 0.0006107104392190444
2263 0.003271065334038286 -0.006559181160401669 0.000713965636250336
1677 -0.014151603752700036 -0.001744059427444517 -0.021157071757329924
1196 -0.010009810609951156 0.021132709355544836 0.005904694592361875
2265 0.0010994438907491084 0.006603241688071843 0.00265368545189938
2909 -0.006042594307905547 0.009479186177177964 -0.014497478146575583
620 -0.002943638124903004 0.0015304915821682833 -0.0008567866864755824
1574 -0.008964959984544928 -0.01018100752868241 0.004886755331949568
400 0.0024005994024903147 0.006730025771179923 -0.0027372486802352426
230 0.004996078278611176 0.013498210598259055 0.008782475743266507
1623 0.0062664227378928005 -0.0114928069056613 -0.004034887732287502
452 -0.0050944404902740405 0.0083723515746959 0.00018770035164330864
704 0.00016250189078947979 0.019424699187183914 0.0031150473402675786
360 0.013001980643850164 0.0017045485044660876 -0.001835905249316542
1242 0.004827831265458668 -0.0027567489554059087 0.015592980805502149
2157 -0.006439363798897935 -0.007305893332897407 0.004986433113720125
1906 0.004515917213932921 0.0027207016607013945 -0.00924020859929323
1759 0.005438212974968083 -0.004076686385233588 -0.003613055361233437
148 0.002221921516782043 0.00011464862699212715 -0.0009070021794120349
150 0.009429885113694275 -0.0049453859395990635 -0.0038927642206443218
1096 0.0026331921328841884 0.007426057588234672 -0.005966611400766664
2908 0.0027563777899693863 0.002199134460036913 7.007461196042889e-05
2155 -0.004327631852684727 -0.008294617869102797 0.011496015079436251
1621 -0.0016723439848229406 -0.008385214696478047 0.0011697604948237412
2156 -0.0022567645135540154 -0.004220574206120789 0.0015099814549849263
358 -0.0005809945649636288 -0.000448625077721805 0.0032960695424801277
1575 0.0015655846823571455 -0.01071655319148474 -0.0019223100012816566
2910 -0.00566445226291994 -0.007030678891662185 0.017632042999171805
1573 0.004555789238297813 0.0009236631117893708 -0.0008000754023951366
1761 -0.014063502250600176 0.009463146883790678 -0.0021751666369903503
2540 -0.00100139340521543 0.02265234896141544 -0.0005381205978483133
2539 0.002571217447008709 -0.0015598431583193567 -0.0011335088768912277
606 -0.0029686413063791345 0.0013107685865429242 -0.0008690362942703777
2654 -0.00563000721365966 -0.004644841216097038 0.008119079757235918
333 0.02116419313148505 0.000992226636165319 0.007616617417440713
1340 0.001646190615022516 0.007284261794671162 0.0022438347632551463
621 -0.005871274239934113 -0.0007144172096284339 -0.0033335090168385116
2061 -0.017966020046398665 0.014870000720194574 -0.006574387870487474
498 0.00039720601514384976 0.0071522292848919455 0.004552236971228517
401 -0.013183342663771141 -0.005084702953588155 0.007879721588633147
2790 0.01653831789494168 -0.009422749697597635 0.009070260074360566
1114 0.0019116129313681974 0.002369977166538461 -0.004082735192750153
1116 -0.006917996321855242 0.004978617469514761 -0.0033151995185560475
1321 0.004761414061361174 -0.0012044398327621232 -0.0015385596982117934
1115 0.005959388428289532 0.006883403735561523 -0.005797668684882178
2230 -0.001467471674399926 0.005253126421246721 -0.0058384174683437946
2232 0.0002841664624485592 -0.006384061872942079 0.003467375427321769
2231 -0.013354587891893982 0.003790273727534729 -0.01150942758549136
2940 -0.003097996777686565 -0.0038007141656085995 -0.013080760763769907
2938 -0.004541955355068837 0.005863765433467212 -0.006176701032343405
2939 -0.025508663587671152 0.036599265026461984 0.003822513324844277
1912 0.001525535022965262 0.0008647799906873213 0.00046564255621061326
1191 -0.015917255616521256 0.017696727001956312 0.006760319543233405
2270 -0.000354947184053533 -0.01084010195608514 0.013114440801202165
1562 -0.015051289127748004 0.01664848517375726 0.010622060095314249
2271 0.004711251227402106 -0.005293215326579922 -0.0005289740932664895
2269 0.0031465773783185976 -0.002215158489417068 0.0015524492403071989
1189 -0.00013371984168857593 -0.0013242658748858734 -0.0016689178981887523
1853 -0.0006047631491574169 0.002441751241714526 0.018250603193870917
1190 -0.002440448562180045 0.0016799937901298054 0.03628456636494656
1342 0.0037858387743037922 0.006838585251381173 0.0009254351006734639
1322 0.006914241343827844 0.02145911147843411 0.0035031909609415084
1561 -0.0006889777350057186 -0.0022709739500948716 -0.0009673204872655507
2625 -0.01383995998417667 -0.00034338287794088285 -0.002959954444460093
241 0.006809902965903221 -0.0005534834143680692 -0.0005467266163419485
1563 -0.0061219532686035225 0.0038154520980871053 0.0029905955852741156
756 -0.012840540003315191 0.008983657899960695 0.013606922512214618
1913 0.0012797563188738162 0.0004604625799325838 -0.0010659150502165776
1280 -0.006305878081409034 0.007300172578716281 -0.004137882033235512
242 0.010211747982009611 -0.007268878793634269 -0.00788681406750827
1914 -0.00957233839851435 0.005115341611242838 -0.01629652613050204
130 -0.005644135781477138 -0.002433853472308768 0.0024729017728322305
30 -0.022295837371831658 0.014338244366639026 0.01915509209521243
28 -0.0029466981564756087 -0.0071779309844511125 0.00270661864537019
2748 0.01730025722873567 0.009223734503749177 0.0323858989454572
2516 -0.006553565251009634 -0.0049082597296811635 0.006321000824021654
1863 0.015773908109865304 0.004201644551753828 -0.006408152627178493
2894 -0.013390073668647447 -0.00046001577838887075 0.009713093539209025
36 -0.019924560981840037 -0.004117919074471996 -0.008056291390003767
1344 -0.0008029559543755048 -0.014854056468593802 0.014827712439357372
2623 0.0024146460442890506 0.005808813771000335 0.007758327358786642
469 0.004160882027445693 0.0011401677235772427 0.0007712859563317501
132 -0.009662971172275481 0.0011017326140569034 0.0013429500574096945
1399 0.0035236845484910525 0.000969119086501903 -0.003194014919504441
915 -0.012263357340775723 -0.004591369464012412 -0.0006212845364127777
2288 -0.01807281458501385 0.003027098149459551 0.0037149180702916985
1529 -0.009678236348788552 0.0025448453458229285 0.0008264016413214717
908 0.006243545502486848 -0.010302798120555385 -0.004481833638259474
2218 -0.0018254250540666198 0.00034267334032735873 -0.006684329422076213
2289 -0.022110411052800993 0.018380449286311905 0.006845213061563818
398 -0.002221462839756999 0.020818762024374382 0.003954598918693048
2287 0.0003439386149912568 -0.003489207306146688 -0.0019609560255643057
2164 0.00026067995549887093 -0.0035007284322306517 -0.0025356829258690737
2166 -0.01620688588429449 -0.022499138172803527 -0.011124638673558156
962 0.008600013539140893 -0.008314440902179223 0.006433473397942759
961 0.004155811528766039 -0.0038680972311232738 -0.0035673571479496176
963 0.009606001928966112 -0.009128415071836815 0.00840153852716647
2165 -0.02880246340089063 0.003793944204899121 0.01988063565784102
2507 0.0074882482666900965 -0.005265303312541131 0.005203150098191568
1044 -0.01599714663244211 -0.006259061293909805 0.0022069333337453732
1042 -0.002632508232864771 0.0014060680142836523 0.0037522345821891273
2508 -0.00627895965319164 0.008817492273568588 -0.002096442937690711
2506 0.0032458613394069527 0.002378373753593143 -0.0011701789870702808
611 -0.010405931639528642 0.007567655641863711 0.0012143999164760224
610 -0.005592432140846546 -0.0012031156104203272 -0.0036127456037242565
612 -0.003922279081046797 -0.004491769745102129 -0.007129011890619361
1346 0.011857054806589712 -0.013766058410232648 -0.006370912232603228
1347 0.006107586588286458 0.006238442197153848 0.0053401665965048355
1334 -0.003961656238470974 0.018782320534968425 -0.0018655814846911239
1345 0.001594337071405237 -0.005644773686944388 0.00036140435737220443
1333 0.010192092734503522 0.002819402963321815 0.00022344432908532312
1335 0.014373404003537957 -0.009783050967427388 -0.012447157646638963
2240 -0.006163057344836446 0.013051891055273015 0.0016856599077319059
907 0.0026519379639532298 -0.004561835332162792 0.000804924992995217
2624 -0.009387516104647695 0.012896446047630405 -0.009674644495371632
909 -0.0034479291655269994 0.01688725085208301 0.005959142181318696
2291 0.014570749738446789 0.010795324692553577 -0.0022566700445858057
2239 0.0003215361819105031 0.005206908335824541 0.0017282878494095362
2396 0.0006956713858812098 0.002172205944378578 -0.007222459070316042
1862 0.01708690247662766 0.0031030853540003024 0.0039110578717976305
493 7.343260398396775e-06 -0.001105521568479348 -0.001452662851203624
1043 -0.004642018841428925 0.015394481510583783 0.0026934628614442516
2220 -0.008370686493009734 0.013460413263701215 0.018257574874338402
1978 -0.0009308058747181601 -0.005980446441510713 0.002875337750973087
1980 -0.013743443336858695 -0.0031801840890606182 -0.008942047492044096
635 0.0014605030159348389 -0.01495403578332658 0.0030278321412471384
1979 0.015209328422923543 -0.003620887257366358 -0.006537979911444782
2936 0.004577184321817997 -0.003823507173895545 -0.0020176618577558533
1213 0.00033632411782504945 -0.0020343875753915104 0.00640658424130033
1400 0.023977876825630292 0.005548294312152514 -0.0014852812266896779
2871 -0.0025793896200370136 -0.001824610657889205 -0.0054257616214459636
1281 0.0051375671087898495 0.01943165495521179 0.016730881805984508
2935 0.005311306686584217 -0.002494995632282707 -0.003859589967704664
2869 0.005275328102631206 0.00031976966547135485 0.0023703644039987336
1441 0.0034946665126392175 -0.002350789204911085 0.008010754449344336
2209 0.0012255425953638945 -0.0018072516280214824 -0.002256535449666482
2211 0.024627904630103243 -0.00296150699739197 -0.0007433209034499315
2937 0.0061050466153646015 0.001884766948991188 -0.0042172850710560485
1215 0.0057982185229940204 0.005905322698346285 0.001900265066715474
1442 0.01983206274801796 -0.010523461612414721 0.019507800255177985
208 -0.003926029945446374 0.0007061786071764253 -0.008112016713267525
2643 0.00010872390724153119 -0.004199139425475721 -0.0039095287437710445
209 -0.0004357647873603297 0.0015632256955999822 -0.006956870166873892
958 0.0029850639830500433 -0.004579117921595268 -0.004692601228194511
1343 -0.008939700972910804 0.00041355730722610637 -0.01123698881231577
10 -0.005537252529555882 -0.0007354133863245738 -0.0017275034786536393
634 0.006974745114002438 -0.0006459036439092793 -0.0019070514406329428
1214 -0.0015608594241104572 0.0047774200066905605 0.011903710544317311
2328 0.017908729630516762 0.0037815586918991087 0.011438365182838897
786 -0.013750782986783616 0.018739497890598762 -0.020890133274709836
2646 -0.002373685248782517 0.0005989650674615146 0.003406006060928919
784 5.717810181880867e-05 -0.0029808907292555704 -0.0022710357264576586
785 -0.016240785349519827 0.03696708499504705 -0.006138557223152818
2326 0.003239824103260006 0.002428949321454667 0.006697354242710096
2645 0.00010219238125632539 -0.003941715508819256 0.01079937272164434
2644 -0.0033170874819592024 -0.005823655158752352 0.004517800443540381
2414 -0.0033653589890774035 -0.02225074994288333 0.009602908765688627
210 -0.016333883207543188 0.02347654976094478 0.005070113640650151
2327 -0.008110065837674894 -0.0017250474155876432 0.0036398289437315576
2415 0.0023458708981657357 0.003972040449043597 -0.002358299059199093
2413 0.004136503699660168 0.0012685191236620709 -0.0014556746849917652
960 0.001612418201230023 0.001315235657552423 -0.009114816466868163
636 -0.011086836503551975 0.0034495784408714206 0.005375873538858442
11 0.007507703532545595 -0.0012707358378232314 0.010111171965669265
2557 0.009583739288210739 -0.005819646166013957 -0.0020615450887325856
12 -0.019147125029569518 -0.0006826907484980833 0.006115665767412286
2642 -0.003315446415552394 0.03532915037771227 0.021661028292974373
2210 -0.043108127964832675 -0.0032642256023972457 -0.012242513418054346
2641 -0.0010036308915606273 0.0007662064811046208 4.661109616350883e-05
2558 0.011238749949811132 -0.01733788107698433 -0.007414210766215247
1854 -0.018894444987202115 -0.009530372808338102 -0.013533631470647147
397 6.421166257007218e-05 -0.0016559101860612144 0.002062453053187265
1401 0.008608986395926417 -0.011646179430298545 -0.004739022889085282
1434 0.005624336614036695 -0.004679802328686135 -0.01147200920680945
2339 -0.01995694005142903 0.02166274803622676 0.010205030541764817
2582 -0.003115165395070091 0.00801606485250317 -0.008539400574721403
1530 -0.007847061455196773 0.0005622269967388443 -0.0031934336636919585
2340 0.01027069869266865 -0.02286326744405801 -0.0014887257940378322
1568 -0.00019439238289216903 0.0013408567289467663 -0.004085044095599202
966 0.014872301879238688 0.01292097490937514 0.01291051549051571
2338 0.005356745755723485 0.00018226410343483916 0.0048861284914683495
2891 -0.011174455155903477 -0.008172223027857807 0.008842801233910307
845 0.007093080273562205 -0.012471389498954693 0.011236234562145533
1528 -0.007393624521437531 0.0024320235392795778 -0.0011064869948820084
844 -0.003457190324551315 -0.004852152805801217 0.0070583559239850765
959 0.002077167484513667 -0.011080426374220673 0.00230148308547322
2559 -0.005600714048658334 0.003343341019059234 -0.01784373473553201
1230 0.008322594840345527 0.0012395602965481216 -0.0316031881354516
2290 0.004170627053033697 -0.008241818234718876 -0.0017964110836612645
964 0.007723440411619956 0.00245696035844955 0.004134962355257133
2893 0.0005142111359314887 -0.00025123057525294106 -0.0013085721173576733
1279 -0.004920015788703787 0.0012267805664616205 -0.003612829537764705
2583 -0.00020991847557292435 0.004729593046824084 -0.00847832092485465
470 0.017427002852189396 -0.002119534940847042 -0.008635877108753055
1229 -0.010557072638206749 -0.007294390636495582 0.012791841927583652
2895 0.007926955937239995 -0.010633288960736322 -0.0022565784268812118
495 -5.7452743928331106e-05 0.009121591621268509 -0.0015886869557506973
749 8.027374382010667e-05 -0.013239377144775837 -0.0067313438801838935
29 0.008400030816672064 0.016616835776193647 0.012916180253351608
748 -0.003791160512822693 0.004442022488784799 -0.0049211619441391005
1228 0.001683584947423188 -0.0037198825457275143 0.0039043264448549234
1861 0.00397342797807985 -0.0001481769081746452 0.0004238358477433166
750 0.009495900105488416 0.022787827431161707 0.0060536422782453084
378 -0.023158298758773777 0.0036152731302641584 0.009323989980064295
2292 -0.016220907827183495 0.0015772545598633253 -0.001977898626951456
471 -0.005854496914070354 0.0067548240824924265 -0.0049508204355507065
34 0.004153572203982434 -0.000880042015678437 0.0005754366410689216
914 -0.003479628736907819 -0.008650904301025239 0.00827779489112814
35 -0.00038763475089587053 0.0022978902285470293 -0.008776303739678484
376 -0.003109614396462417 0.0036404687716864582 -0.000562631143351445
1567 -0.003859937238707596 0.0017644565656196962 0.0021194826050117826
1570 -0.0005747243436988021 0.002924665432698574 -0.002247256089111556
2241 0.0013931727225437068 -0.0036510474160061056 0.018068387182971178
1749 0.004890507475670698 0.006938158879511151 -0.00550016827621039
965 0.0010799171660509355 0.00955520471518451 -0.009192251331923086
2747 -0.016635816940767847 -0.0037414005923074446 -0.00044709124269511644
1852 0.005063141927037099 0.0014938265193432828 -0.00027499657243576416
2746 -0.004091512642077965 0.00158808701015578 0.0027191305107747217
562 0.0010604987961232812 -0.00327979368723794 -0.0007697129209106795
563 -0.0021298342210767894 -0.007628236449627665 -0.0022237212913277862
2515 -0.0025985354529790296 -0.0003462947738076666 0.001086966279783731
2581 0.00795533050081586 -0.00026571490931477437 0.004907501255602901
608 -0.007259216820952387 0.012627142273656645 -0.0015883749090518158
377 -0.008084772045222751 0.006503684079967815 0.015800760358646967
607 0.002533487811953993 -0.0023218860251571043 0.00028748253488058203
757 -0.0008000914048224842 -0.008116054663142644 -0.003812065431090679
494 -0.004569094845223065 -0.006066213226184954 0.005210869055432957
980 -0.008455207340585089 -0.018662490973680508 0.0022167628208484744
2219 -0.023377104829669648 0.007978696529517054 -0.0511776006890348
609 -0.0009108113093686332 0.012473181338658653 -0.021937574248940207
2669 -0.013181695871404872 0.015511676549155046 0.0037396820255253967
759 -0.0033395932775293017 0.02431121811085937 0.00458159733765922
486 0.0008176914647295639 0.01326392882406753 -0.014570103319049118
2890 0.0020917064681106306 -0.0022228305394323663 0.00195383241472587
3014 0.00042601157115058273 -0.0020258219737109067 7.706388219218042e-05
1323 -0.00016549901396601023 -0.001252233369295333 -0.007509794716120676
1036 -0.003272863590478555 0.0019791844900852525 -0.0033570741985096053
1038 -0.021872488645389793 0.001401599879052845 0.005590709421685446
1643 0.0018092667467075696 0.007922758051272016 0.0007824995487661344
3087 -7.938542911687543e-05 0.0036747119246502403 0.005835017147580956
3084 0.0026771268745564235 0.0008225360312535591 0.002397086644133784
3085 -0.0049730872382922646 0.0023069990074441253 -0.0020580338178385464
3086 -0.0012926068630778147 0.003724080305106069 0.002892460985975076
1298 0.0026513166366640326 -0.0025278754785306623 0.002479413032433751
1037 -0.012880615759850347 0.0011251668337711193 -0.013309440233569704
1297 -0.005011392991474368 0.0010712546071517434 -8.791762580587411e-05
3088 0.004968277798254784 0.002114812503489285 -0.0009619025808003414
2995 -0.0032961467610752187 -0.005524045432202878 0.00011386369556796524
2114 0.013328803108268837 0.011022295402468879 0.010514348304782187
2145 -0.007770814025221491 -0.008546335340064723 0.010230988778911444
2143 -0.0031365874080329773 -0.003541366376491548 0.010541196098621157
2372 0.013141872324827155 -0.010781435297071824 0.004169687134138947
1352 -0.007047868747727172 -0.000254776816756167 -0.011149760781586577
1172 0.0008225418577942299 0.014808030469134825 0.007970695859901244
2997 -0.0034569074010443405 -0.005459728209088855 -0.0010792839546674789
1351 0.003803287152339032 -0.003024361537687611 -0.003943436388524411
2144 0.006213659466370553 -0.01593351229185678 0.010246451466571924
2760 0.001741142342861375 -0.006423837889625182 -0.0001674820497856019
903 -0.0007091213088532853 0.007493811139151227 -0.0028405758294586104
1353 0.004151684283506162 0.0028731528550135377 0.007636332149274381
112 0.0031563906502436166 0.003950096527714761 0.001212436585025541
2675 -0.0032810038493792854 -0.004307367083039949 0.010160957566925964
1557 -0.008917718320842285 -0.0048864826266575515 0.00577642420769427
901 0.0038181058792821658 0.0026713951695053403 0.0044098963080990514
1555 0.0009201891573483647 0.00046394318240814753 -0.0018186764686527615
755 0.008702807887786745 -0.0003429060579319823 0.012329427424882345
1714 0.004408656617205237 0.0006809588850495769 -0.003664976111088105
1006 0.0031662723576796913 -0.005119782719914047 0.003706572912689494
2734 -0.004398205062565838 0.00013210480297738935 -0.0012175175521094263
2676 -0.0031163634290623603 -0.0038172024702928537 0.008603258021435708
1008 0.007036185365871055 -0.001530397984128802 0.02537180305001868
1007 -0.0033728783825366614 0.03387898377297689 0.004847631781937972
2736 -0.009696064815362053 -0.0030694791200855027 0.005683819797511237
2735 -0.010752164352222758 -0.007909022985177632 0.0005330298774704628
2100 -0.02442571758256129 0.00038356542223043756 -0.009717809854524273
2674 -0.0019523914764312026 0.0011622046492082915 0.0018869353172969933
2115 0.01663380037182324 0.004047618976684268 0.00901203650634513
2113 -0.010209857250625013 -0.00342178730676904 -0.002924221880924637
1716 0.006592190511679366 0.01201714281242534 0.003908072503712686
2168 -0.007268722251313077 0.004560073759498907 0.011952498484184457
2374 -7.171782845206866e-05 -0.0007242781334202546 0.0007428928214474231
1556 0.015553737583007349 -0.0032690576271351226 -0.013545475916069966
3059 0.0008133543115745488 0.00032435437409613407 0.0012631536387735758
1299 -0.010873940984936895 -0.0010132291434117723 -0.003844138927529168
625 -0.0013595921059439378 0.0006517585292043589 0.0022488265628815636
2189 0.003003707908425318 -0.007986319641541161 -0.006995243380232347
627 0.001028497717023935 0.02540782814189162 -0.01848791744442959
2320 0.001551443218386441 0.003985178052581331 -0.00016112246736815547
301 -0.001169383356971477 -0.004991305443685423 0.00013313035557513687
2371 0.0037057931630657603 0.005427496573867951 -0.007358857457076013
2996 -0.0028388849620245055 -0.005649643752723133 0.0020546975189141142
2758 0.0013664450952825039 -0.0037068859887056604 -0.005204997869441089
1642 0.0023244709292589726 0.003863717549059329 0.0020297829289450285
2373 0.0041732956890019966 0.02213636213558945 -0.01367547897916378
2321 0.0016770459559686936 0.003926717217248859 0.0016827977114793147
2074 -0.002301227438404215 -0.004710669649050872 -0.00431814862464313
2075 0.0004307002897347552 -0.0045287282364762736 -0.0020431571138631575
2759 -0.0009916626931165673 0.004173728515157445 0.0005301935702547271
1432 -0.0007433396196597196 0.0004346193485248003 0.0011445864335312315
2302 -0.0015002114445959243 -0.00308260310505296 0.002199174642761169
2303 0.005779444524756043 0.011251452499833921 0.005005720490604225
874 0.00020077868270694873 -0.0005739007916615497 -0.0005893492057355782
1644 0.0022707879373015725 -0.008309725647698397 0.01210613190115048
1975 -0.007238591676396606 0.002813947561233734 -0.002899625648864617
1733 0.007401522748767395 -0.012801455001077669 0.004660326943555212
3007 -0.002032263996453159 -0.0019061581211136818 -0.003208202321332331
3063 -0.003598176162732703 0.007113003696329097 0.004321896336539912
2225 0.0032343621717274593 -0.007418843437420859 -0.011157627001586025
2224 -0.0010438620199230428 -0.004591924953608176 -0.004100937252610223
3001 -0.004422805427587931 0.0006346375314643331 0.003401935729302114
2226 -0.007244400855131898 0.0036329816500942943 0.010015939822414482
1785 -0.0176074827677305 -0.016311667767390108 0.0037054931857002467
1783 0.0036995303081710025 -0.005841510920192663 -0.0016540310408307982
1784 0.007304208278957544 -0.009349946480752953 -0.02761762794324696
3037 -0.007643525145552735 -0.0022801841125987274 0.0007783222467266575
1167 -0.0034733458275711614 -0.00953605950821567 -0.006506080117032705
1165 0.001000057855585249 -0.003610914628894949 -0.004152001018163691
1166 0.003284480202978785 -0.0007062915324028999 -0.003024688558484758
1984 -0.005725304431838883 -2.1930299578278707e-05 0.0012002068400361026
3034 -0.005296683259150927 0.005826609542457743 -0.00016284879576508316
1732 9.197883779436583e-05 -0.004839869384704656 0.0059227636568460135
3038 -0.002037278819910493 0.004343523990549686 -0.0011396771499169753
1986 0.011289329405075673 -0.0009953496118932912 -0.011043318960693587
1977 -0.006910158577823587 0.0007991545639625712 -0.0015222741450646106
1985 -0.0005225484852561513 -0.008664109788016815 -0.010133017851716645
876 0.0030411574130899846 -0.0056167746309827285 0.014409456577808899
670 6.892373135748864e-05 -0.006936479218222224 0.0031604161173936747
1855 -0.0016209035643676298 0.004322517395750709 0.005861353911362615
2169 0.006608690465372012 -0.010786964035813331 -0.01969435415417166
1100 0.0003362583734643635 0.004910258160962652 0.01665500912020213
2638 0.0002096336847782912 -0.00034864230573549625 0.008376519177575578
2167 -0.0028890540059185663 0.007145613314094596 0.005538229144344189
979 -0.0011412717113474433 -0.004425774008608958 0.007151192661607837
354 0.0009136838925082198 0.001183516337795289 0.0015103911417131525
3035 0.001235564743361713 -0.005258609685908578 -0.00015320881094288403
2768 0.019586038565649284 -0.003202310964327233 0.012444956366012092
300 -0.0018158547082870204 -0.018430750431648203 0.006828259542921657
626 0.0015255086722481942 -0.002796148786028824 -0.005030040970755945
2639 0.010811912992222823 -0.022786486854869246 0.007233342228234572
1856 0.01265369959515726 0.01969164585424214 0.0013866801458202655
302 -0.003430945696176379 -0.002421244528356887 0.0049934266829787695
347 0.007570735317124958 0.012053966713594596 0.0007762165468012083
2322 0.0007042541718616298 0.0016074914516364123 -0.002833629002864168
2567 0.016573607533246625 -0.006277560783819309 -0.008558408245744
1479 0.0006156430595156994 0.0011310165820163215 0.000873775471875802
2589 -0.01120374535005453 0.012478350646797703 0.005405504077660896
1734 0.0019338376881173206 -0.008879935526769814 0.004879912865252537
2587 -0.004009178832710668 0.004269658991248936 -0.004657762398420433
1667 -0.002801783756722339 0.024377990732755005 0.02165882468881995
253 0.004293038997861253 -0.002205307645975538 0.002197849717619356
867 -0.0005325053302907205 -0.001847983725735444 0.0044512352625249805
902 -0.01482351940535246 0.02428086036458785 0.031657761937379396
718 -0.0008261598311085982 -0.006312401847904469 0.0004196250252678477
274 -0.0032702726454422962 -0.00046783065695541994 -0.004510405951482169
1668 -0.0024295421351339173 0.0014711636592453846 -0.014562824477865976
993 0.0015214841404956915 -0.0004845396418616633 0.005158236658567237
1778 0.004503081315013954 -0.01454252212971203 0.02067638509954258
276 -0.0015140058596860423 0.003085299549315043 -0.004985520952054396
2588 -0.00133849837958765 0.009433523213603525 -0.0029627587037528986
2566 0.0009684152478976087 -0.0008986802958169392 -0.003763857252997701
448 -0.0011480020754437157 -0.002385337041645166 -0.001007586099753717
2134 -0.004465045178757332 0.0012534204110773756 -0.0037096642422843927
2135 0.018603775866323814 -0.00405608404221236 -0.009558350677775765
1666 -0.005060021298079931 -0.006668391094143701 -0.003833118599357561
1694 -0.0016032951073860213 0.00040962926225430703 0.016083769420980824
1777 0.003078716930248044 -0.010136072171280118 -0.004485227615101554
1376 -0.016526945638264012 0.0035041016253868117 -0.009264674007776762
1375 -0.002036894442144193 -0.002037088172161712 0.0034577765275121564
275 -0.00404207216463858 0.0001093220377391497 -0.0025957529074003656
1284 -0.009403758247848407 -0.00276794647982242 0.012706106117989129
1283 -0.0009094891725084602 -0.006921068355435527 0.008740852666525729
1282 0.0013140448230654302 -0.0049192779347039875 0.0047039337070042915
3010 0.0007277473150464818 -8.89218191714091e-05 -0.0008790694800225658
2610 0.020465556226616218 -0.013523309693091486 0.016301786915737825
1470 0.0017532946280594901 0.0037385694204122247 -0.024906611380240022
1377 -0.004042386576102891 -0.019627651835479057 0.006530404809021296
1695 -0.018310301419100335 0.031400781010405894 -0.020678303486367063
1779 -0.0026407355406084863 -0.01774598816608583 0.01342356887207238
2136 0.00023494961716642515 -0.0038726783911964416 -0.01779659985748094
449 0.021791874380685177 -0.004614699196492444 0.006532055962205743
1693 -0.009582848886309607 0.0011538956830967895 0.0025115889583883356
450 0.0002651175580378452 -0.008556199973837487 -0.0024982780074888425
1173 0.006770568731774201 -0.0002850163526403581 -0.008715179099040666
1484 0.0010216907683875147 -0.012859215557993573 0.004438406656404119
2052 0.018960818162692766 -0.006087517048023983 -0.0069959098023401394
348 -0.01107706864176827 -8.262905562566973e-05 0.0030486291727635766
346 -0.0007620920459366997 0.0037966172903517083 -0.00021743735287713142
255 0.009835650272267652 0.016390494452984655 0.009766217289952734
981 0.0028854188933119785 0.001908492884125371 -0.0017302445869923628
357 -0.01844915739893585 -0.0063949228811924835 -0.008213308748194575
754 -0.001390291095162139 0.0036534774791113873 0.005948467686766779
1227 -0.0012765566232672268 -0.0070663269011600706 0.004501529831962762
1225 -0.005344321066781477 -0.0008208626213016367 0.000986239452202309
113 0.008004602454575217 0.02337755599537163 -0.00865782691415124
1477 -0.0014998459684798088 0.004201189416442517 -0.005361781576013866
1511 -0.0005269281432886384 0.008206910082780112 -0.011223763728346539
1478 0.0070413122311217 0.0009012638894606035 -0.014405993247600255
303 0.010466497712878718 -0.009014946318115748 -0.00970996947141554
866 -0.009028013818166628 0.01192422264971111 -0.00169273590952306
2498 0.00046806863732078537 -0.004263346445028086 -0.01901619187368063
2721 0.018005488736381966 0.0008526972933908159 -0.003009392764571007
14 0.007205692450891813 -0.0046593674990159685 0.002560287706485969
2720 -0.017912358256242718 0.012331512732302492 0.007771831845124489
13 0.005216929801624798 0.004019850843636371 0.0020037792631307397
1099 0.005724874038660799 -0.003868041504538483 -0.002984884588184227
298 -0.0034094450856564 -0.0020457868316160655 0.0025773415070121882
735 -0.013262011604123354 -0.018588653301163736 -0.00941042649854287
2376 0.005269936925268756 0.013174606125136854 0.0050927169963280875
865 -0.009187518270861103 0.000640634350750716 -0.0019595493445816697
875 -0.004025049441479281 0.004186237104086281 -0.024586550156230454
2497 -0.004693609475430691 0.0040911185220483285 -0.0011036674840530227
228 -0.03043777957204281 0.01377510625358755 0.011407203930176737
1843 -0.005548390379779412 -0.006898501386629841 -0.002869731535973051
2767 -0.0034344283980999642 -0.0027910889635535344 0.0022657031809995122
1652 -0.0056978633049317925 -0.005277992413178226 0.011891363101953451
1510 -0.0015768880770676065 -0.004288794547396851 -0.00310395201262866
734 -0.006863734414031282 0.012033730857409905 -0.0042083181480365404
2719 0.006991062328455031 0.005436267110134504 0.0006597094303231975
1433 -0.006670414007003781 0.01414027819683363 -0.0014067352141064163
898 0.0030520695692726847 0.0014338320445096667 0.0020491185744315383
1512 -0.012748028218596621 -0.01820194165176044 0.014837185342831299
900 -0.018532587413720155 0.025197493699304525 -0.01705007423471814
2076 -0.030887962616919857 0.014532205663806941 -0.032053115193391
1101 0.006389463408927923 0.0021528394429100404 0.003175145715594522
227 -0.009867494446906683 -0.011495965722788755 -0.020315790470459366
226 -0.006634159279695814 0.001182180215204629 0.004269410608753496
671 0.014174386815208263 -0.0007527475647723432 0.02179188619269217
899 0.01381339118657201 -0.011820048820309965 -0.01596026249024421
1987 0.002162287768407653 0.0007616143692344088 -0.002090348392858757
2499 -0.01092703677079246 0.009275968257620035 0.003888304543476367
733 0.0011349055876416776 0.006636112373703602 0.003167182210023503
2188 0.0017589756971516008 -0.0012152411595082943 0.0003347527093645694
1483 0.005644658968414158 -0.0009922737220310882 0.003847848058873969
114 0.004854280138577231 0.012626193078439506 -0.0013981472731759217
1468 -0.0009390917359794593 -0.0026093617324918624 0.0030892453756404662
2098 -0.0010235504666748145 0.0008686393626471246 -0.00705512693780816
2375 0.006262366612492463 -0.011651889269226572 0.0018553363482556003
1988 0.0039058738060945134 0.0019121182030241604 -0.005236240680405245
1171 0.001711717342997768 0.0003953199129764514 -0.0020976269574073886
991 0.006878188822278702 0.0033560869294314262 -0.002488531786608914
2967 -0.004981166465781192 -0.003269790132546957 0.0016422443509305788
2640 0.007979386257319853 0.02110922500809073 0.020413703317559696
2965 -0.0023963633348487706 0.001327524800024898 -0.0019018660049700087
299 -0.0030577069407713296 -0.014360840933102227 0.0049298626167610686
1110 0.010821155980653132 0.007398824023326442 -0.0028996080793426745
719 -0.0006277266724635031 0.009742054502002741 0.015605929916985103
2873 0.008059465340261055 -0.00679990629884911 -0.001589351098277299
1953 0.021435598860222997 0.0021499039464455533 -0.020725939307473344
1226 -0.010525984602435487 0.0008636683745965134 0.006172757351118498
15 0.01301031226917872 -0.010715298822880501 0.0152111927654639

Bonds

1 1 2599 2600
2 1 2599 2601
3 1 751 752
4 1 751 753
5 1 2818 2819
6 1 2818 2820
7 1 2161 2162
8 1 2161 2163
9 1 649 650
10 1 649 651
11 1 586 587
12 1 586 588
13 1 478 479
14 1 478 480
15 1 781 782
16 1 781 783
17 1 457 458
18 1 457 459
19 1 2137 2138
20 1 2137 2139
21 1 1522 1523
22 1 1522 1524
23 1 646 647
24 1 646 648
25 1 862 863
26 1 862 864
27 1 1576 1577
28 1 1576 1578
29 1 2299 2300
30 1 2299 2301
31 1 1186 1187
32 1 1186 1188
33 1 937 938
34 1 937 939
35 1 985 986
36 1 985 987
37 1 2110 2111
38 1 2110 2112
39 1 559 560
40 1 559 561
41 1 238 239
42 1 238 240
43 1 2812 2813
44 1 2812 2814
45 1 2464 2465
46 1 2464 2466
47 1 1795 1796
48 1 1795 1797
49 1 1552 1553
50 1 1552 1554
51 1 1120 1121
52 1 1120 1122
53 1 127 128
54 1 127 129
55 1 2215 2216
56 1 2215 2217
57 1 595 596
58 1 595 597
59 1 334 335
60 1 334 336
61 1 289 290
62 1 289 291
63 1 2278 2279
64 1 2278 2280
65 1 589 590
66 1 589 591
67 1 2173 2174
68 1 2173 2175
69 1 2944 2945
70 1 2944 2946
71 1 1588 1589
72 1 1588 1590
73 1 673 674
74 1 673 675
75 1 49 50
76 1 49 51
77 1 2104 2105
78 1 2104 2106
79 1 568 569
80 1 568 570
81 1 1507 1508
82 1 1507 1509
83 2 3069 3070
84 2 3069 3071
85 2 3069 3072
86 2 3069 3073
87 1 2077 2078
88 1 2077 2079
89 1 1429 1430
90 1 1429 1431
91 1 580 581
92 1 580 582
93 1 1753 1754
94 1 1753 1755
95 1 1219 1220
96 1 1219 1221
97 1 2389 2390
98 1 2389 2391
99 1 1813 1814
100 1 1813 1815
101 1 328 329
102 1 328 330
103 1 2410 2411
104 1 2410 2412
105 1 415 416
106 1 415 417
107 2 3054 3055
108 2 3054 3056
109 2 3054 3057
110 2 3054 3058
111 1 490 491
112 1 490 492
113 1 2518 2519
114 1 2518 2520
115 1 2221 2222
116 1 2221 2223
117 1 187 188
118 1 187 189
119 1 2563 2564
120 1 2563 2565
121 1 2038 2039
122 1 2038 2040
123 1 715 716
124 1 715 717
125 1 2509 2510
126 1 2509 2511
127 1 1414 1415
128 1 1414 1416
129 1 2950 2951
130 1 2950 2952
131 1 2332 2333
132 1 2332 2334
133 1 1834 1835
134 1 1834 1836
135 1 805 806
136 1 805 807
137 1 163 164
138 1 163 165
139 1 1765 1766
140 1 1765 1767
141 1 295 296
142 1 295 297
143 1 277 278
144 1 277 279
145 1 472 473
146 1 472 474
147 1 970 971
148 1 970 972
149 1 664 665
150 1 664 666
151 1 850 851
152 1 850 852
153 1 2170 2171
154 1 2170 2172
155 1 220 221
156 1 220 222
157 1 1138 1139
158 1 1138 1140
159 1 2548 2549
160 1 2548 2550
161 1 1948 1949
162 1 1948 1950
163 1 2362 2363
164 1 2362 2364
165 1 1024 1025
166 1 1024 1026
167 1 1276 1277
168 1 1276 1278
169 1 1945 1946
170 1 1945 1947
171 1 85 86
172 1 85 87
173 1 856 857
174 1 856 858
175 1 1378 1379
176 1 1378 1380
177 1 2350 2351
178 1 2350 2352
179 1 2086 2087
180 1 2086 2088
181 1 808 809
182 1 808 810
183 1 217 218
184 1 217 219
185 1 2329 2330
186 1 2329 2331
187 1 2404 2405
188 1 2404 2406
189 1 2782 2783
190 1 2782 2784
191 1 2896 2897
192 1 2896 2898
193 1 532 533
194 1 532 534
195 1 1141 1142
196 1 1141 1143
197 1 2980 2981
198 1 2980 2982
199 1 1234 1235
200 1 1234 1236
201 1 2989 2990
202 1 2989 2991
203 1 247 248
204 1 247 249
205 1 2701 2702
206 1 2701 2703
207 1 1270 1271
208 1 1270 1272
209 1 652 653
210 1 652 654
211 1 1486 1487
212 1 1486 1488
213 1 1639 1640
214 1 1639 1641
215 1 514 515
216 1 514 516
217 1 1921 1922
218 1 1921 1923
219 1 1153 1154
220 1 1153 1155
221 1 1294 1295
222 1 1294 1296
223 1 1624 1625
224 1 1624 1626
225 1 922 923
226 1 922 924
227 1 535 536
228 1 535 537
229 1 475 476
230 1 475 477
231 1 2377 2378
232 1 2377 2379
233 1 1579 1580
234 1 1579 1581
235 1 2998 2999
236 1 2998 3000
237 1 2254 2255
238 1 2254 2256
239 1 2191 2192
240 1 2191 2193
241 1 1519 1520
242 1 1519 1521
243 1 598 599
244 1 598 600
245 1 1480 1481
246 1 1480 1482
247 1 1750 1751
248 1 1750 1752
249 1 544 545
250 1 544 546
251 1 1069 1070
252 1 1069 1071
253 1 517 518
254 1 517 519
255 1 2026 2027
256 1 2026 2028
257 1 2452 2453
258 1 2452 2454
259 1 1174 1175
260 1 1174 1176
261 1 61 62
262 1 61 63
263 1 667 668
264 1 667 669
265 1 1900 1901
266 1 1900 1902
267 1 2590 2591
268 1 2590 2592
269 1 700 701
270 1 700 702
271 1 2704 2705
272 1 2704 2706
273 1 1603 1604
274 1 1603 1605
275 1 823 824
276 1 823 825
277 1 1774 1775
278 1 1774 1776
279 1 1501 1502
280 1 1501 1503
281 1 343 344
282 1 343 345
283 1 1525 1526
284 1 1525 1527
285 1 886 887
286 1 886 888
287 1 2197 2198
288 1 2197 2199
289 1 2311 2312
290 1 2311 2313
291 1 1792 1793
292 1 1792 1794
293 1 1084 1085
294 1 1084 1086
295 1 1045 1046
296 1 1045 1047
297 1 2845 2846
298 1 2845 2847
299 1 1369 1370
300 1 1369 1371
301 1 1081 1082
302 1 1081 1083
303 1 313 314
304 1 313 315
305 1 2629 2630
306 1 2629 2631
307 1 1513 1514
308 1 1513 1515
309 1 337 338
310 1 337 339
311 1 1909 1910
312 1 1909 1911
313 1 1300 1301
314 1 1300 1302
315 1 2095 2096
316 1 2095 2097
317 1 64 65
318 1 64 66
319 1 1768 1769
320 1 1768 1770
321 1 2911 2912
322 1 2911 2913
323 1 73 74
324 1 73 75
325 1 2002 2003
326 1 2002 2004
327 1 2062 2063
328 1 2062 2064
329 1 1420 1421
330 1 1420 1422
331 1 1030 1031
332 1 1030 1032
333 1 526 527
334 1 526 528
335 1 2284 2285
336 1 2284 2286
337 1 2686 2687
338 1 2686 2688
339 1 1531 1532
340 1 1531 1533
341 1 565 566
342 1 565 567
343 1 895 896
344 1 895 897
345 1 2257 2258
346 1 2257 2259
347 1 643 644
348 1 643 645
349 2 3064 3065
350 2 3064 3066
351 2 3064 3067
352 2 3064 3068
353 1 2305 2306
354 1 2305 2307
355 1 2383 2384
356 1 2383 2385
357 1 1927 1928
358 1 1927 1929
359 1 502 503
360 1 502 504
361 1 1831 1832
362 1 1831 1833
363 1 1417 1418
364 1 1417 1419
365 1 2617 2618
366 1 2617 2619
367 1 166 167
368 1 166 168
369 1 2842 2843
370 1 2842 2844
371 1 892 893
372 1 892 894
373 1 1798 1799
374 1 1798 1800
375 1 1636 1637
376 1 1636 1638
377 1 1543 1544
378 1 1543 1545
379 1 1633 1634
380 1 1633 1635
381 1 1180 1181
382 1 1180 1182
383 1 259 260
384 1 259 261
385 1 250 251
386 1 250 252
387 1 76 77
388 1 76 78
389 1 1117 1118
390 1 1117 1119
391 1 1990 1991
392 1 1990 1992
393 1 1807 1808
394 1 1807 1809
395 1 1246 1247
396 1 1246 1248
397 1 2875 2876
398 1 2875 2877
399 1 2128 2129
400 1 2128 2130
401 1 2056 2057
402 1 2056 2058
403 1 2455 2456
404 1 2455 2457
405 1 196 197
406 1 196 198
407 1 1960 1961
408 1 1960 1962
409 1 1177 1178
410 1 1177 1179
411 1 2080 2081
412 1 2080 2082
413 1 1882 1883
414 1 1882 1884
415 1 1387 1388
416 1 1387 1389
417 1 2194 2195
418 1 2194 2196
419 1 1756 1757
420 1 1756 1758
421 1 2956 2957
422 1 2956 2958
423 1 2926 2927
424 1 2926 2928
425 1 190 191
426 1 190 192
427 1 904 905
428 1 904 906
429 1 1210 1211
430 1 1210 1212
431 1 655 656
432 1 655 657
433 1 2977 2978
434 1 2977 2979
435 1 1144 1145
436 1 1144 1146
437 1 1678 1679
438 1 1678 1680
439 1 1060 1061
440 1 1060 1062
441 1 1609 1610
442 1 1609 1611
443 1 349 350
444 1 349 351
445 1 394 395
446 1 394 396
447 1 943 944
448 1 943 945
449 1 2740 2741
450 1 2740 2742
451 1 1393 1394
452 1 1393 1395
453 1 1159 1160
454 1 1159 1161
455 1 949 950
456 1 949 951
457 1 70 71
458 1 70 72
459 1 2560 2561
460 1 2560 2562
461 1 2251 2252
462 1 2251 2253
463 1 2986 2987
464 1 2986 2988
465 1 2458 2459
466 1 2458 2460
467 1 2275 2276
468 1 2275 2277
469 1 736 737
470 1 736 738
471 1 361 362
472 1 361 363
473 2 3044 3045
474 2 3044 3046
475 2 3044 3047
476 2 3044 3048
477 2 3104 3105
478 2 3104 3106
479 2 3104 3107
480 2 3104 3108
481 1 919 920
482 1 919 921
483 1 1696 1697
484 1 1696 1698
485 1 829 830
486 1 829 831
487 1 1315 1316
488 1 1315 1317
489 1 1918 1919
490 1 1918 1920
491 1 1738 1739
492 1 1738 1740
493 1 403 404
494 1 403 405
495 1 1027 1028
496 1 1027 1029
497 1 1516 1517
498 1 1516 1518
499 1 1051 1052
500 1 1051 1053
501 1 1405 1406
502 1 1405 1407
503 2 3049 3050
504 2 3049 3051
505 2 3049 3052
506 2 3049 3053
507 1 466 467
508 1 466 468
509 1 2203 2204
510 1 2203 2205
511 1 2047 2048
512 1 2047 2049
513 1 232 233
514 1 232 234
515 1 1054 1055
516 1 1054 1056
517 1 2737 2738
518 1 2737 2739
519 1 1453 1454
520 1 1453 1455
521 1 2053 2054
522 1 2053 2055
523 1 1789 1790
524 1 1789 1791
525 1 1612 1613
526 1 1612 1614
527 1 2665 2666
528 1 2665 2667
529 1 442 443
530 1 442 444
531 1 1810 1811
532 1 1810 1812
533 1 2749 2750
534 1 2749 2751
535 1 1669 1670
536 1 1669 1671
537 1 391 392
538 1 391 393
539 1 1822 1823
540 1 1822 1824
541 1 2830 2831
542 1 2830 2832
543 1 988 989
544 1 988 990
545 1 2884 2885
546 1 2884 2886
547 1 2863 2864
548 1 2863 2865
549 1 1201 1202
550 1 1201 1203
551 1 1597 1598
552 1 1597 1599
553 1 121 122
554 1 121 123
555 1 2662 2663
556 1 2662 2664
557 1 67 68
558 1 67 69
559 1 2626 2627
560 1 2626 2628
561 1 2671 2672
562 1 2671 2673
563 1 2140 2141
564 1 2140 2142
565 1 547 548
566 1 547 549
567 1 697 698
568 1 697 699
569 1 235 236
570 1 235 237
571 1 1231 1232
572 1 1231 1233
573 1 373 374
574 1 373 375
575 1 109 110
576 1 109 111
577 1 2416 2417
578 1 2416 2418
579 1 2470 2471
580 1 2470 2472
581 1 2974 2975
582 1 2974 2976
583 1 1762 1763
584 1 1762 1764
585 1 2800 2801
586 1 2800 2802
587 1 1396 1397
588 1 1396 1398
589 1 724 725
590 1 724 726
591 1 1381 1382
592 1 1381 1383
593 1 1438 1439
594 1 1438 1440
595 1 82 83
596 1 82 84
597 1 2131 2132
598 1 2131 2133
599 1 814 815
600 1 814 816
601 1 2929 2930
602 1 2929 2931
603 1 1657 1658
604 1 1657 1659
605 1 1336 1337
606 1 1336 1338
607 1 286 287
608 1 286 288
609 1 430 431
610 1 430 432
611 1 1288 1289
612 1 1288 1290
613 1 1735 1736
614 1 1735 1737
615 1 2584 2585
616 1 2584 2586
617 1 2689 2690
618 1 2689 2691
619 1 1744 1745
620 1 1744 1746
621 1 2836 2837
622 1 2836 2838
623 1 2824 2825
624 1 2824 2826
625 1 2233 2234
626 1 2233 2235
627 1 307 308
628 1 307 309
629 1 1072 1073
630 1 1072 1074
631 1 1969 1970
632 1 1969 1971
633 1 505 506
634 1 505 507
635 1 2434 2435
636 1 2434 2436
637 1 2041 2042
638 1 2041 2043
639 1 571 572
640 1 571 573
641 1 499 500
642 1 499 501
643 1 2008 2009
644 1 2008 2010
645 1 1000 1001
646 1 1000 1002
647 1 1951 1952
648 1 1951 1953
649 1 1582 1583
650 1 1582 1584
651 1 2743 2744
652 1 2743 2745
653 1 1837 1838
654 1 1837 1839
655 1 1471 1472
656 1 1471 1473
657 1 1690 1691
658 1 1690 1692
659 1 2179 2180
660 1 2179 2181
661 1 2650 2651
662 1 2650 2652
663 1 202 203
664 1 202 204
665 1 2065 2066
666 1 2065 2067
667 1 1360 1361
668 1 1360 1362
669 1 934 935
670 1 934 936
671 1 2854 2855
672 1 2854 2856
673 1 2398 2399
674 1 2398 2400
675 1 2059 2060
676 1 2059 2061
677 1 2089 2090
678 1 2089 2091
679 1 682 683
680 1 682 684
681 1 1936 1937
682 1 1936 1938
683 1 778 779
684 1 778 780
685 1 1402 1403
686 1 1402 1404
687 1 2005 2006
688 1 2005 2007
689 1 2314 2315
690 1 2314 2316
691 1 1033 1034
692 1 1033 1035
693 1 244 245
694 1 244 246
695 1 2677 2678
696 1 2677 2679
697 1 25 26
698 1 25 27
699 1 2527 2528
700 1 2527 2529
701 1 2419 2420
702 1 2419 2421
703 1 433 434
704 1 433 435
705 1 94 95
706 1 94 96
707 1 2431 2432
708 1 2431 2433
709 1 2152 2153
710 1 2152 2154
711 1 1963 1964
712 1 1963 1965
713 1 2308 2309
714 1 2308 2310
715 1 2176 2177
716 1 2176 2178
717 1 1357 1358
718 1 1357 1359
719 1 2983 2984
720 1 2983 2985
721 1 910 911
722 1 910 912
723 1 2353 2354
724 1 2353 2355
725 1 2551 2552
726 1 2551 2553
727 1 2992 2993
728 1 2992 2994
729 1 1456 1457
730 1 1456 1458
731 1 1894 1895
732 1 1894 1896
733 1 796 797
734 1 796 798
735 1 205 206
736 1 205 207
737 1 1312 1313
738 1 1312 1314
739 1 103 104
740 1 103 105
741 1 1207 1208
742 1 1207 1209
743 1 370 371
744 1 370 372
745 1 853 854
746 1 853 855
747 1 541 542
748 1 541 543
749 1 2200 2201
750 1 2200 2202
751 1 97 98
752 1 97 99
753 1 826 827
754 1 826 828
755 1 268 269
756 1 268 270
757 1 2206 2207
758 1 2206 2208
759 1 199 200
760 1 199 201
761 1 973 974
762 1 973 975
763 1 1645 1646
764 1 1645 1647
765 1 2347 2348
766 1 2347 2349
767 1 1972 1973
768 1 1972 1974
769 1 16 17
770 1 16 18
771 1 436 437
772 1 436 438
773 1 2119 2120
774 1 2119 2121
775 1 2500 2501
776 1 2500 2502
777 1 838 839
778 1 838 840
779 1 2380 2381
780 1 2380 2382
781 1 262 263
782 1 262 264
783 1 1879 1880
784 1 1879 1881
785 1 766 767
786 1 766 768
787 1 145 146
788 1 145 147
789 1 2659 2660
790 1 2659 2661
791 1 184 185
792 1 184 186
793 1 1663 1664
794 1 1663 1665
795 1 2485 2486
796 1 2485 2487
797 1 1780 1781
798 1 1780 1782
799 1 997 998
800 1 997 999
801 1 1981 1982
802 1 1981 1983
803 1 1009 1010
804 1 1009 1011
805 1 556 557
806 1 556 558
807 1 364 365
808 1 364 366
809 1 2611 2612
810 1 2611 2613
811 1 871 872
812 1 871 873
813 1 115 116
814 1 115 117
815 1 2512 2513
816 1 2512 2514
817 1 1534 1535
818 1 1534 1536
819 1 2668 2669
820 1 2668 2670
821 1 2692 2693
822 1 2692 2694
823 1 1537 1538
824 1 1537 1539
825 1 1408 1409
826 1 1408 1410
827 1 157 158
828 1 157 159
829 1 1933 1934
830 1 1933 1935
831 1 508 509
832 1 508 510
833 1 2266 2267
834 1 2266 2268
835 1 1204 1205
836 1 1204 1206
837 1 1168 1169
838 1 1168 1170
839 1 1435 1436
840 1 1435 1437
841 1 2359 2360
842 1 2359 2361
843 1 2440 2441
844 1 2440 2442
845 1 775 776
846 1 775 777
847 1 382 383
848 1 382 384
849 1 418 419
850 1 418 420
851 1 2596 2597
852 1 2596 2598
853 1 2116 2117
854 1 2116 2118
855 1 1243 1244
856 1 1243 1245
857 1 1684 1685
858 1 1684 1686
859 1 1606 1607
860 1 1606 1608
861 1 265 266
862 1 265 267
863 1 2236 2237
864 1 2236 2238
865 1 1324 1325
866 1 1324 1326
867 1 2365 2366
868 1 2365 2367
869 1 1285 1286
870 1 1285 1287
871 1 2344 2345
872 1 2344 2346
873 1 763 764
874 1 763 765
875 1 43 44
876 1 43 45
877 1 463 464
878 1 463 465
879 1 2185 2186
880 1 2185 2187
881 1 1687 1688
882 1 1687 1689
883 1 37 38
884 1 37 39
885 1 1804 1805
886 1 1804 1806
887 1 1672 1673
888 1 1672 1674
889 1 421 422
890 1 421 423
891 1 2479 2480
892 1 2479 2481
893 1 2683 2684
894 1 2683 2685
895 1 2752 2753
896 1 2752 2754
897 2 3089 3090
898 2 3089 3091
899 2 3089 3092
900 2 3089 3093
901 1 445 446
902 1 445 447
903 1 2710 2711
904 1 2710 2712
905 1 2722 2723
906 1 2722 2724
907 1 2569 2570
908 1 2569 2571
909 1 385 386
910 1 385 387
911 1 2107 2108
912 1 2107 2109
913 1 2341 2342
914 1 2341 2343
915 1 1108 1109
916 1 1108 1110
917 1 1021 1022
918 1 1021 1023
919 1 1123 1124
920 1 1123 1125
921 1 2578 2579
922 1 2578 2580
923 1 955 956
924 1 955 957
925 1 2761 2762
926 1 2761 2763
927 1 2482 2483
928 1 2482 2484
929 1 727 728
930 1 727 729
931 1 178 179
932 1 178 180
933 1 2572 2573
934 1 2572 2574
935 1 616 617
936 1 616 618
937 1 1828 1829
938 1 1828 1830
939 1 661 662
940 1 661 663
941 1 1063 1064
942 1 1063 1065
943 1 2323 2324
944 1 2323 2325
945 1 1264 1265
946 1 1264 1266
947 1 406 407
948 1 406 408
949 1 175 176
950 1 175 177
951 1 1330 1331
952 1 1330 1332
953 1 1012 1013
954 1 1012 1014
955 1 817 818
956 1 817 819
957 1 1858 1859
958 1 1858 1860
959 1 1705 1706
960 1 1705 1707
961 1 1846 1847
962 1 1846 1848
963 1 1372 1373
964 1 1372 1374
965 1 1126 1127
966 1 1126 1128
967 1 2242 2243
968 1 2242 2244
969 1 31 32
970 1 31 33
971 1 1681 1682
972 1 1681 1683
973 1 367 368
974 1 367 369
975 1 2392 2393
976 1 2392 2394
977 1 1261 1262
978 1 1261 1263
979 1 1999 2000
980 1 1999 2001
981 1 847 848
982 1 847 849
983 2 3019 3020
984 2 3019 3021
985 2 3019 3022
986 2 3019 3023
987 1 352 353
988 1 352 354
989 1 2881 2882
990 1 2881 2883
991 1 1093 1094
992 1 1093 1095
993 1 2542 2543
994 1 2542 2544
995 1 799 800
996 1 799 801
997 1 1147 1148
998 1 1147 1149
999 1 1198 1199
1000 1 1198 1200
1001 1 1585 1586
1002 1 1585 1587
1003 1 1273 1274
1004 1 1273 1275
1005 1 529 530
1006 1 529 531
1007 1 151 152
1008 1 151 153
1009 1 994 995
1010 1 994 996
1011 1 952 953
1012 1 952 954
1013 1 1996 1997
1014 1 1996 1998
1015 1 2773 2774
1016 1 2773 2775
1017 1 409 410
1018 1 409 411
1019 1 2317 2318
1020 1 2317 2319
1021 1 1252 1253
1022 1 1252 1254
1023 1 1801 1802
1024 1 1801 1803
1025 1 2953 2954
1026 1 2953 2955
1027 1 2272 2273
1028 1 2272 2274
1029 1 1627 1628
1030 1 1627 1629
1031 1 1594 1595
1032 1 1594 1596
1033 1 835 836
1034 1 835 837
1035 1 2725 2726
1036 1 2725 2727
1037 1 106 107
1038 1 106 108
1039 1 52 53
1040 1 52 54
1041 1 1237 1238
1042 1 1237 1239
1043 1 1474 1475
1044 1 1474 1476
1045 1 2296 2297
1046 1 2296 2298
1047 1 1327 1328
1048 1 1327 1329
1049 1 1903 1904
1050 1 1903 1905
1051 1 1111 1112
1052 1 1111 1113
1053 1 2149 2150
1054 1 2149 2151
1055 1 2425 2426
1056 1 2425 2427
1057 1 1447 1448
1058 1 1447 1449
1059 1 2779 2780
1060 1 2779 2781
1061 1 1132 1133
1062 1 1132 1134
1063 1 1303 1304
1064 1 1303 1305
1065 1 538 539
1066 1 538 540
1067 1 928 929
1068 1 928 930
1069 1 454 455
1070 1 454 456
1071 1 2044 2045
1072 1 2044 2046
1073 1 1720 1721
1074 1 1720 1722
1075 1 721 722
1076 1 721 723
1077 1 916 917
1078 1 916 918
1079 1 2887 2888
1080 1 2887 2889
1081 1 553 554
1082 1 553 555
1083 1 2815 2816
1084 1 2815 2817
1085 1 2449 2450
1086 1 2449 2451
1087 1 1504 1505
1088 1 1504 1506
1089 1 1048 1049
1090 1 1048 1050
1091 1 2245 2246
1092 1 2245 2247
1093 2 3079 3080
1094 2 3079 3081
1095 2 3079 3082
1096 2 3079 3083
1097 1 1216 1217
1098 1 1216 1218
1099 1 1864 1865
1100 1 1864 1866
1101 1 574 575
1102 1 574 576
1103 1 2101 2102
1104 1 2101 2103
1105 1 811 812
1106 1 811 813
1107 1 628 629
1108 1 628 630
1109 1 877 878
1110 1 877 879
1111 1 802 803
1112 1 802 804
1113 1 1885 1886
1114 1 1885 1887
1115 1 1729 1730
1116 1 1729 1731
1117 1 424 425
1118 1 424 426
1119 1 2656 2657
1120 1 2656 2658
1121 1 88 89
1122 1 88 90
1123 1 523 524
1124 1 523 525
1125 1 2530 2531
1126 1 2530 2532
1127 1 1309 1310
1128 1 1309 1311
1129 1 622 623
1130 1 622 624
1131 1 1105 1106
1132 1 1105 1107
1133 1 1003 1004
1134 1 1003 1005
1135 1 40 41
1136 1 40 42
1137 1 1741 1742
1138 1 1741 1743
1139 1 2029 2030
1140 1 2029 2031
1141 1 1888 1889
1142 1 1888 1890
1143 1 1162 1163
1144 1 1162 1164
1145 1 1267 1268
1146 1 1267 1269
1147 1 91 92
1148 1 91 93
1149 1 2356 2357
1150 1 2356 2358
1151 1 2914 2915
1152 1 2914 2916
1153 1 79 80
1154 1 79 81
1155 1 1489 1490
1156 1 1489 1491
1157 1 2092 2093
1158 1 2092 2094
1159 1 2632 2633
1160 1 2632 2634
1161 1 613 614
1162 1 613 615
1163 1 772 773
1164 1 772 774
1165 1 319 320
1166 1 319 321
1167 1 520 521
1168 1 520 522
1169 1 2755 2756
1170 1 2755 2757
1171 1 511 512
1172 1 511 513
1173 1 1090 1091
1174 1 1090 1092
1175 1 2620 2621
1176 1 2620 2622
1177 1 2653 2654
1178 1 2653 2655
1179 1 820 821
1180 1 820 822
1181 1 2851 2852
1182 1 2851 2853
1183 1 2023 2024
1184 1 2023 2025
1185 1 1600 1601
1186 1 1600 1602
1187 1 2605 2606
1188 1 2605 2607
1189 1 679 680
1190 1 679 681
1191 1 1057 1058
1192 1 1057 1059
1193 1 793 794
1194 1 793 795
1195 1 931 932
1196 1 931 933
1197 1 2827 2828
1198 1 2827 2829
1199 1 1411 1412
1200 1 1411 1413
1201 1 283 284
1202 1 283 285
1203 1 1819 1820
1204 1 1819 1821
1205 1 1540 1541
1206 1 1540 1542
1207 1 2467 2468
1208 1 2467 2469
1209 1 1648 1649
1210 1 1648 1650
1211 1 730 731
1212 1 730 732
1213 1 2281 2282
1214 1 2281 2283
1215 1 880 881
1216 1 880 882
1217 1 982 983
1218 1 982 984
1219 1 2524 2525
1220 1 2524 2526
1221 1 2860 2861
1222 1 2860 2862
1223 1 1135 1136
1224 1 1135 1137
1225 1 688 689
1226 1 688 690
1227 1 1495 1496
1228 1 1495 1497
1229 1 2602 2603
1230 1 2602 2604
1231 1 139 140
1232 1 139 141
1233 1 1849 1850
1234 1 1849 1851
1235 1 142 143
1236 1 142 144
1237 1 1249 1250
1238 1 1249 1251
1239 1 2821 2822
1240 1 2821 2823
1241 1 2260 2261
1242 1 2260 2262
1243 2 3094 3095
1244 2 3094 3096
1245 2 3094 3097
1246 2 3094 3098
1247 1 1492 1493
1248 1 1492 1494
1249 1 1354 1355
1250 1 1354 1356
1251 1 427 428
1252 1 427 429
1253 1 487 488
1254 1 487 489
1255 1 832 833
1256 1 832 834
1257 1 2032 2033
1258 1 2032 2034
1259 1 1015 1016
1260 1 1015 1017
1261 1 2968 2969
1262 1 2968 2970
1263 1 172 173
1264 1 172 174
1265 1 592 593
1266 1 592 594
1267 1 2833 2834
1268 1 2833 2835
1269 1 550 551
1270 1 550 552
1271 1 2899 2900
1272 1 2899 2901
1273 1 1723 1724
1274 1 1723 1725
1275 1 133 134
1276 1 133 135
1277 1 2035 2036
1278 1 2035 2037
1279 1 1675 1676
1280 1 1675 1677
1281 1 2554 2555
1282 1 2554 2556
1283 1 1993 1994
1284 1 1993 1995
1285 1 181 182
1286 1 181 183
1287 1 1957 1958
1288 1 1957 1959
1289 1 22 23
1290 1 22 24
1291 1 1786 1787
1292 1 1786 1788
1293 1 439 440
1294 1 439 441
1295 1 691 692
1296 1 691 693
1297 1 1711 1712
1298 1 1711 1713
1299 1 2395 2396
1300 1 2395 2397
1301 1 2917 2918
1302 1 2917 2919
1303 1 2764 2765
1304 1 2764 2766
1305 1 2146 2147
1306 1 2146 2148
1307 1 868 869
1308 1 868 870
1309 1 2878 2879
1310 1 2878 2880
1311 1 1129 1130
1312 1 1129 1131
1313 1 1771 1772
1314 1 1771 1773
1315 1 2923 2924
1316 1 2923 2925
1317 1 583 584
1318 1 583 585
1319 1 1426 1427
1320 1 1426 1428
1321 1 2971 2972
1322 1 2971 2973
1323 1 1873 1874
1324 1 1873 1875
1325 1 1291 1292
1326 1 1291 1293
1327 1 2386 2387
1328 1 2386 2388
1329 1 2488 2489
1330 1 2488 2490
1331 1 2695 2696
1332 1 2695 2697
1333 1 2962 2963
1334 1 2962 2964
1335 1 214 215
1336 1 214 216
1337 1 889 890
1338 1 889 891
1339 1 2122 2123
1340 1 2122 2124
1341 1 2731 2732
1342 1 2731 2733
1343 1 2575 2576
1344 1 2575 2577
1345 1 1150 1151
1346 1 1150 1152
1347 1 1942 1943
1348 1 1942 1944
1349 1 631 632
1350 1 631 633
1351 1 1348 1349
1352 1 1348 1350
1353 1 19 20
1354 1 19 21
1355 1 1462 1463
1356 1 1462 1464
1357 1 2716 2717
1358 1 2716 2718
1359 1 2293 2294
1360 1 2293 2295
1361 1 2020 2021
1362 1 2020 2022
1363 1 1306 1307
1364 1 1306 1308
1365 1 2803 2804
1366 1 2803 2805
1367 1 712 713
1368 1 712 714
1369 1 100 101
1370 1 100 102
1371 1 2959 2960
1372 1 2959 2961
1373 1 2227 2228
1374 1 2227 2229
1375 1 1591 1592
1376 1 1591 1593
1377 1 1078 1079
1378 1 1078 1080
1379 1 322 323
1380 1 322 324
1381 1 1840 1841
1382 1 1840 1842
1383 2 3039 3040
1384 2 3039 3041
1385 2 3039 3042
1386 2 3039 3043
1387 1 2839 2840
1388 1 2839 2841
1389 1 2941 2942
1390 1 2941 2943
1391 1 460 461
1392 1 460 462
1393 1 2437 2438
1394 1 2437 2439
1395 1 1465 1466
1396 1 1465 1467
1397 1 976 977
1398 1 976 978
1399 1 739 740
1400 1 739 741
1401 1 2809 2810
1402 1 2809 2811
1403 1 1444 1445
1404 1 1444 1446
1405 2 3024 3025
1406 2 3024 3026
1407 2 3024 3027
1408 2 3024 3028
1409 1 2932 2933
1410 1 2932 2934
1411 1 2158 2159
1412 1 2158 2160
1413 1 1039 1040
1414 1 1039 1041
1415 1 2368 2369
1416 1 2368 2370
1417 1 2443 2444
1418 1 2443 2445
1419 1 2770 2771
1420 1 2770 2772
1421 1 2212 2213
1422 1 2212 2214
1423 1 55 56
1424 1 55 57
1425 1 2776 2777
1426 1 2776 2778
1427 1 2428 2429
1428 1 2428 2430
1429 1 1018 1019
1430 1 1018 1020
1431 1 1459 1460
1432 1 1459 1461
1433 1 1924 1925
1434 1 1924 1926
1435 1 4 5
1436 1 4 6
1437 1 883 884
1438 1 883 885
1439 1 2536 2537
1440 1 2536 2538
1441 1 1870 1871
1442 1 1870 1872
1443 1 2785 2786
1444 1 2785 2787
1445 1 2017 2018
1446 1 2017 2019
1447 1 2125 2126
1448 1 2125 2127
1449 1 1717 1718
1450 1 1717 1719
1451 1 2335 2336
1452 1 2335 2337
1453 1 280 281
1454 1 280 282
1455 1 2014 2015
1456 1 2014 2016
1457 1 1930 1931
1458 1 1930 1932
1459 1 1708 1709
1460 1 1708 1710
1461 1 2647 2648
1462 1 2647 2649
1463 1 1546 1547
1464 1 1546 1548
1465 1 1366 1367
1466 1 1366 1368
1467 1 1651 1652
1468 1 1651 1653
1469 1 1384 1385
1470 1 1384 1386
1471 1 211 212
1472 1 211 213
1473 1 940 941
1474 1 940 942
1475 1 1156 1157
1476 1 1156 1158
1477 1 694 695
1478 1 694 696
1479 2 3074 3075
1480 2 3074 3076
1481 2 3074 3077
1482 2 3074 3078
1483 1 2593 2594
1484 1 2593 2595
1485 1 601 602
1486 1 601 603
1487 1 2533 2534
1488 1 2533 2535
1489 1 742 743
1490 1 742 744
1491 1 193 194
1492 1 193 195
1493 1 745 746
1494 1 745 747
1495 2 3029 3030
1496 2 3029 3031
1497 2 3029 3032
1498 2 3029 3033
1499 1 640 641
1500 1 640 642
1501 2 3099 3100
1502 2 3099 3101
1503 2 3099 3102
1504 2 3099 3103
1505 1 2947 2948
1506 1 2947 2949
1507 1 481 482
1508 1 481 483
1509 1 1618 1619
1510 1 1618 1620
1511 1 637 638
1512 1 637 639
1513 1 325 326
1514 1 325 327
1515 1 769 770
1516 1 769 771
1517 1 1654 1655
1518 1 1654 1656
1519 1 2698 2699
1520 1 2698 2700
1521 1 2713 2714
1522 1 2713 2715
1523 1 1558 1559
1524 1 1558 1560
1525 1 787 788
1526 1 787 789
1527 1 1954 1955
1528 1 1954 1956
1529 1 1630 1631
1530 1 1630 1632
1531 1 316 317
1532 1 316 318
1533 1 2902 2903
1534 1 2902 2904
1535 1 2011 2012
1536 1 2011 2013
1537 1 2857 2858
1538 1 2857 2859
1539 1 1939 1940
1540 1 1939 1941
1541 1 310 311
1542 1 310 312
1543 1 355 356
1544 1 355 357
1545 1 2071 2072
1546 1 2071 2073
1547 1 2446 2447
1548 1 2446 2448
1549 1 2521 2522
1550 1 2521 2523
1551 1 2050 2051
1552 1 2050 2052
1553 1 2791 2792
1554 1 2791 2793
1555 1 1222 1223
1556 1 1222 1224
1557 1 1066 1067
1558 1 1066 1068
1559 1 1825 1826
1560 1 1825 1827
1561 1 1087 1088
1562 1 1087 1089
1563 1 46 47
1564 1 46 48
1565 1 124 125
1566 1 124 126
1567 1 2728 2729
1568 1 2728 2730
1569 1 1318 1319
1570 1 1318 1320
1571 1 619 620
1572 1 619 621
1573 1 2794 2795
1574 1 2794 2796
1575 1 2920 2921
1576 1 2920 2922
1577 1 2248 2249
1578 1 2248 2250
1579 1 7 8
1580 1 7 9
1581 1 1660 1661
1582 1 1660 1662
1583 1 340 341
1584 1 340 342
1585 1 2635 2636
1586 1 2635 2637
1587 1 790 791
1588 1 790 792
1589 1 1423 1424
1590 1 1423 1425
1591 1 2407 2408
1592 1 2407 2409
1593 1 1549 1550
1594 1 1549 1551
1595 1 2788 2789
1596 1 2788 2790
1597 1 676 677
1598 1 676 678
1599 1 388 389
1600 1 388 390
1601 1 658 659
1602 1 658 660
1603 1 1183 1184
1604 1 1183 1185
1605 1 2083 2084
1606 1 2083 2085
1607 1 1816 1817
1608 1 1816 1818
1609 1 2608 2609
1610 1 2608 2610
1611 1 2491 2492
1612 1 2491 2493
1613 1 1966 1967
1614 1 1966 1968
1615 1 2848 2849
1616 1 2848 2850
1617 1 1363 1364
1618 1 1363 1365
1619 1 304 305
1620 1 304 306
1621 1 760 761
1622 1 760 762
1623 1 1192 1193
1624 1 1192 1194
1625 1 925 926
1626 1 925 927
1627 1 1615 1616
1628 1 1615 1617
1629 1 967 968
1630 1 967 969
1631 1 1 2
1632 1 1 3
1633 1 1876 1877
1634 1 1876 1878
1635 1 685 686
1636 1 685 687
1637 1 2476 2477
1638 1 2476 2478
1639 1 2872 2873
1640 1 2872 2874
1641 1 577 578
1642 1 577 579
1643 1 1891 1892
1644 1 1891 1893
1645 1 2707 2708
1646 1 2707 2709
1647 1 709 710
1648 1 709 711
1649 1 2680 2681
1650 1 2680 2682
1651 1 2614 2615
1652 1 2614 2616
1653 1 2422 2423
1654 1 2422 2424
1655 1 58 59
1656 1 58 60
1657 1 2473 2474
1658 1 2473 2475
1659 1 2797 2798
1660 1 2797 2799
1661 1 2494 2495
1662 1 2494 2496
1663 1 2806 2807
1664 1 2806 2808
1665 1 2503 2504
1666 1 2503 2505
1667 1 841 842
1668 1 841 843
1669 1 1390 1391
1670 1 1390 1392
1671 1 1255 1256
1672 1 1255 1257
1673 1 2461 2462
1674 1 2461 2463
1675 1 412 413
1676 1 412 414
1677 1 1339 1340
1678 1 1339 1341
1679 1 256 257
1680 1 256 258
1681 1 331 332
1682 1 331 333
1683 1 913 914
1684 1 913 915
1685 1 946 947
1686 1 946 948
1687 1 1915 1916
1688 1 1915 1917
1689 1 292 293
1690 1 292 294
1691 1 2182 2183
1692 1 2182 2184
1693 1 1699 1700
1694 1 1699 1701
1695 1 160 161
1696 1 160 162
1697 1 136 137
1698 1 136 138
1699 1 2068 2069
1700 1 2068 2070
1701 1 1498 1499
1702 1 1498 1500
1703 1 223 224
1704 1 223 225
1705 1 1564 1565
1706 1 1564 1566
1707 1 2905 2906
1708 1 2905 2907
1709 1 604 605
1710 1 604 606
1711 1 271 272
1712 1 271 273
1713 1 169 170
1714 1 169 171
1715 1 2401 2402
1716 1 2401 2403
1717 1 118 119
1718 1 118 120
1719 1 1702 1703
1720 1 1702 1704
1721 1 229 230
1722 1 229 231
1723 1 484 485
1724 1 484 486
1725 1 1075 1076
1726 1 1075 1077
1727 1 1240 1241
1728 1 1240 1242
1729 1 703 704
1730 1 703 705
1731 1 1258 1259
1732 1 1258 1260
1733 1 451 452
1734 1 451 453
1735 1 1726 1727
1736 1 1726 1728
1737 1 154 155
1738 1 154 156
1739 1 2866 2867
1740 1 2866 2868
1741 1 2545 2546
1742 1 2545 2547
1743 1 1897 1898
1744 1 1897 1899
1745 1 379 380
1746 1 379 381
1747 1 1102 1103
1748 1 1102 1104
1749 1 1450 1451
1750 1 1450 1452
1751 1 706 707
1752 1 706 708
1753 1 496 497
1754 1 496 498
1755 1 1867 1868
1756 1 1867 1869
1757 1 1195 1196
1758 1 1195 1197
1759 1 1747 1748
1760 1 1747 1749
1761 1 859 860
1762 1 859 861
1763 1 2263 2264
1764 1 2263 2265
1765 1 400 401
1766 1 400 402
1767 1 1906 1907
1768 1 1906 1908
1769 1 1759 1760
1770 1 1759 1761
1771 1 148 149
1772 1 148 150
1773 1 1096 1097
1774 1 1096 1098
1775 1 2908 2909
1776 1 2908 2910
1777 1 2155 2156
1778 1 2155 2157
1779 1 1621 1622
1780 1 1621 1623
1781 1 358 359
1782 1 358 360
1783 1 1573 1574
1784 1 1573 1575
1785 1 2539 2540
1786 1 2539 2541
1787 1 1114 1115
1788 1 1114 1116
1789 1 1321 1322
1790 1 1321 1323
1791 1 2230 2231
1792 1 2230 2232
1793 1 2938 2939
1794 1 2938 2940
1795 1 1912 1913
1796 1 1912 1914
1797 1 2269 2270
1798 1 2269 2271
1799 1 1189 1190
1800 1 1189 1191
1801 1 1342 1343
1802 1 1342 1344
1803 1 1561 1562
1804 1 1561 1563
1805 1 241 242
1806 1 241 243
1807 1 130 131
1808 1 130 132
1809 1 28 29
1810 1 28 30
1811 1 2623 2624
1812 1 2623 2625
1813 1 469 470
1814 1 469 471
1815 1 1399 1400
1816 1 1399 1401
1817 1 2218 2219
1818 1 2218 2220
1819 1 2287 2288
1820 1 2287 2289
1821 1 2164 2165
1822 1 2164 2166
1823 1 961 962
1824 1 961 963
1825 1 1042 1043
1826 1 1042 1044
1827 1 2506 2507
1828 1 2506 2508
1829 1 610 611
1830 1 610 612
1831 1 1345 1346
1832 1 1345 1347
1833 1 1333 1334
1834 1 1333 1335
1835 1 907 908
1836 1 907 909
1837 1 2239 2240
1838 1 2239 2241
1839 1 493 494
1840 1 493 495
1841 1 1978 1979
1842 1 1978 1980
1843 1 1213 1214
1844 1 1213 1215
1845 1 2935 2936
1846 1 2935 2937
1847 1 2869 2870
1848 1 2869 2871
1849 1 1441 1442
1850 1 1441 1443
1851 1 2209 2210
1852 1 2209 2211
1853 1 208 209
1854 1 208 210
1855 1 958 959
1856 1 958 960
1857 1 10 11
1858 1 10 12
1859 1 634 635
1860 1 634 636
1861 1 784 785
1862 1 784 786
1863 1 2326 2327
1864 1 2326 2328
1865 1 2644 2645
1866 1 2644 2646
1867 1 2413 2414
1868 1 2413 2415
1869 1 2557 2558
1870 1 2557 2559
1871 1 2641 2642
1872 1 2641 2643
1873 1 397 398
1874 1 397 399
1875 1 2338 2339
1876 1 2338 2340
1877 1 1528 1529
1878 1 1528 1530
1879 1 844 845
1880 1 844 846
1881 1 2290 2291
1882 1 2290 2292
1883 1 964 965
1884 1 964 966
1885 1 2893 2894
1886 1 2893 2895
1887 1 1279 1280
1888 1 1279 1281
1889 1 748 749
1890 1 748 750
1891 1 1228 1229
1892 1 1228 1230
1893 1 1861 1862
1894 1 1861 1863
1895 1 34 35
1896 1 34 36
1897 1 376 377
1898 1 376 378
1899 1 1567 1568
1900 1 1567 1569
1901 1 1570 1571
1902 1 1570 1572
1903 1 1852 1853
1904 1 1852 1854
1905 1 2746 2747
1906 1 2746 2748
1907 1 562 563
1908 1 562 564
1909 1 2515 2516
1910 1 2515 2517
1911 1 2581 2582
1912 1 2581 2583
1913 1 607 608
1914 1 607 609
1915 1 757 758
1916 1 757 759
1917 1 2890 2891
1918 1 2890 2892
1919 1 1036 1037
1920 1 1036 1038
1921 2 3084 3085
1922 2 3084 3086
1923 2 3084 3087
1924 2 3084 3088
1925 1 1297 1298
1926 1 1297 1299
1927 1 2995 2996
1928 1 2995 2997
1929 1 2143 2144
1930 1 2143 2145
1931 1 1351 1352
1932 1 1351 1353
1933 1 112 113
1934 1 112 114
1935 1 901 902
1936 1 901 903
1937 1 1555 1556
1938 1 1555 1557
1939 1 1714 1715
1940 1 1714 1716
1941 1 1006 1007
1942 1 1006 1008
1943 1 2734 2735
1944 1 2734 2736
1945 1 2674 2675
1946 1 2674 2676
1947 1 2113 2114
1948 1 2113 2115
1949 1 2374 2375
1950 1 2374 2376
1951 2 3059 3060
1952 2 3059 3061
1953 2 3059 3062
1954 2 3059 3063
1955 1 625 626
1956 1 625 627
1957 1 2320 2321
1958 1 2320 2322
1959 1 301 302
1960 1 301 303
1961 1 2371 2372
1962 1 2371 2373
1963 1 2758 2759
1964 1 2758 2760
1965 1 1642 1643
1966 1 1642 1644
1967 1 2074 2075
1968 1 2074 2076
1969 1 1432 1433
1970 1 1432 1434
1971 1 2302 2303
1972 1 2302 2304
1973 1 874 875
1974 1 874 876
1975 1 1975 1976
1976 1 1975 1977
1977 1 2224 2225
1978 1 2224 2226
1979 1 1783 1784
1980 1 1783 1785
1981 1 1165 1166
1982 1 1165 1167
1983 1 1984 1985
1984 1 1984 1986
1985 2 3034 3035
1986 2 3034 3036
1987 2 3034 3037
1988 2 3034 3038
1989 1 1732 1733
1990 1 1732 1734
1991 1 670 671
1992 1 670 672
1993 1 1855 1856
1994 1 1855 1857
1995 1 2638 2639
1996 1 2638 2640
1997 1 2167 2168
1998 1 2167 2169
1999 1 979 980
2000 1 979 981
2001 1 2587 2588
2002 1 2587 2589
2003 1 253 254
2004 1 253 255
2005 1 718 719
2006 1 718 720
2007 1 274 275
2008 1 274 276
2009 1 2566 2567
2010 1 2566 2568
2011 1 448 449
2012 1 448 450
2013 1 2134 2135
2014 1 2134 2136
2015 1 1666 1667
2016 1 1666 1668
2017 1 1777 1778
2018 1 1777 1779
2019 1 1375 1376
2020 1 1375 1377
2021 1 1282 1283
2022 1 1282 1284
2023 1 1693 1694
2024 1 1693 1695
2025 1 346 347
2026 1 346 348
2027 1 754 755
2028 1 754 756
2029 1 1225 1226
2030 1 1225 1227
2031 1 1477 1478
2032 1 1477 1479
2033 1 13 14
2034 1 13 15
2035 1 1099 1100
2036 1 1099 1101
2037 1 298 299
2038 1 298 300
2039 1 865 866
2040 1 865 867
2041 1 2497 2498
2042 1 2497 2499
2043 1 1843 1844
2044 1 1843 1845
2045 1 2767 2768
2046 1 2767 2769
2047 1 1510 1511
2048 1 1510 1512
2049 1 2719 2720
2050 1 2719 2721
2051 1 898 899
2052 1 898 900
2053 1 226 227
2054 1 226 228
2055 1 1987 1988
2056 1 1987 1989
2057 1 733 734
2058 1 733 735
2059 1 2188 2189
2060 1 2188 2190
2061 1 1483 1484
2062 1 1483 1485
2063 1 1468 1469
2064 1 1468 1470
2065 1 2098 2099
2066 1 2098 2100
2067 1 1171 1172
2068 1 1171 1173
2069 1 991 992
2070 1 991 993
2071 1 2965 2966
2072 1 2965 2967

Angles

1 1 2600 2599 2601
2 1 752 751 753
3 1 2819 2818 2820
4 1 2162 2161 2163
5 1 650 649 651
6 1 587 586 588
7 1 479 478 480
8 1 782 781 783
9 1 458 457 459
10 1 2138 2137 2139
11 1 1523 1522 1524
12 1 647 646 648
13 1 863 862 864
14 1 1577 1576 1578
15 1 2300 2299 2301
16 1 1187 1186 1188
17 1 938 937 939
18 1 986 985 987
19 1 2111 2110 2112
20 1 560 559 561
21 1 239 238 240
22 1 2813 2812 2814
23 1 2465 2464 2466
24 1 1796 1795 1797
25 1 1553 1552 1554
26 1 1121 1120 1122
27 1 128 127 129
28 1 2216 2215 2217
29 1 596 595 597
30 1 335 334 336
31 1 290 289 291
32 1 2279 2278 2280
33 1 590 589 591
34 1 2174 2173 2175
35 1 2945 2944 2946
36 1 1589 1588 1590
37 1 674 673 675
38 1 50 49 51
39 1 2105 2104 2106
40 1 569 568 570
41 1 1508 1507 1509
42 2 3070 3069 3071
43 2 3070 3069 3072
44 2 3070 3069 3073
45 2 3071 3069 3072
46 2 3071 3069 3073
47 2 3072 3069 3073
48 1 2078 2077 2079
49 1 1430 1429 1431
50 1 581 580 582
51 1 1754 1753 1755
52 1 1220 1219 1221
53 1 2390 2389 2391
54 1 1814 1813 1815
55 1 329 328 330
56 1 2411 2410 2412
57 1 416 415 417
58 2 3055 3054 3056
59 2 3055 3054 3057
60 2 3055 3054 3058
61 2 3056 3054 3057
62 2 3056 3054 3058
63 2 3057 3054 3058
64 1 491 490 492
65 1 2519 2518 2520
66 1 2222 2221 2223
67 1 188 187 189
68 1 2564 2563 2565
69 1 2039 2038 2040
70 1 716 715 717
71 1 2510 2509 2511
72 1 1415 1414 1416
73 1 2951 2950 2952
74 1 2333 2332 2334
75 1 1835 1834 1836
76 1 806 805 807
77 1 164 163 165
78 1 1766 1765 1767
79 1 296 295 297
80 1 278 277 279
81 1 473 472 474
82 1 971 970 972
83 1 665 664 666
84 1 851 850 852
85 1 2171 2170 2172
86 1 221 220 222
87 1 1139 1138 1140
88 1 2549 2548 2550
89 1 1949 1948 1950
90 1 2363 2362 2364
91 1 1025 1024 1026
92 1 1277 1276 1278
93 1 1946 1945 1947
94 1 86 85 87
95 1 857 856 858
96 1 1379 1378 1380
97 1 2351 2350 2352
98 1 2087 2086 2088
99 1 809 808 810
100 1 218 217 219
101 1 2330 2329 2331
102 1 2405 2404 2406
103 1 2783 2782 2784
104 1 2897 2896 2898
105 1 533 532 534
106 1 1142 1141 1143
107 1 2981 2980 2982
108 1 1235 1234 1236
109 1 2990 2989 2991
110 1 248 247 249
111 1 2702 2701 2703
112 1 1271 1270 1272
113 1 653 652 654
114 1 1487 1486 1488
115 1 1640 1639 1641
116 1 515 514 516
117 1 1922 1921 1923
118 1 1154 1153 1155
119 1 1295 1294 1296
120 1 1625 1624 1626
121 1 923 922 924
122 1 536 535 537
123 1 476 475 477
124 1 2378 2377 2379
125 1 1580 1579 1581
126 1 2999 2998 3000
127 1 2255 2254 2256
128 1 2192 2191 2193
129 1 1520 1519 1521
130 1 599 598 600
131 1 1481 1480 1482
132 1 1751 1750 1752
133 1 545 544 546
134 1 1070 1069 1071
135 1 518 517 519
136 1 2027 2026 2028
137 1 2453 2452 2454
138 1 1175 1174 1176
139 1 62 61 63
140 1 668 667 669
141 1 1901 1900 1902
142 1 2591 2590 2592
143 1 701 700 702
144 1 2705 2704 2706
145 1 1604 1603 1605
146 1 824 823 825
147 1 1775 1774 1776
148 1 1502 1501 1503
149 1 344 343 345
150 1 1526 1525 1527
151 1 887 886 888
152 1 2198 2197 2199
153 1 2312 2311 2313
154 1 1793 1792 1794
155 1 1085 1084 1086
156 1 1046 1045 1047
157 1 2846 2845 2847
158 1 1370 1369 1371
159 1 1082 1081 1083
160 1 314 313 315
161 1 2630 2629 2631
162 1 1514 1513 1515
163 1 338 337 339
164 1 1910 1909 1911
165 1 1301 1300 1302
166 1 2096 2095 2097
167 1 65 64 66
168 1 1769 1768 1770
169 1 2912 2911 2913
170 1 74 73 75
171 1 2003 2002 2004
172 1 2063 2062 2064
173 1 1421 1420 1422
174 1 1031 1030 1032
175 1 527 526 528
176 1 2285 2284 2286
177 1 2687 2686 2688
178 1 1532 1531 1533
179 1 566 565 567
180 1 896 895 897
181 1 2258 2257 2259
182 1 644 643 645
183 2 3065 3064 3066
184 2 3065 3064 3067
185 2 3065 3064 3068
186 2 3066 3064 3067
187 2 3066 3064 3068
188 2 3067 3064 3068
189 1 2306 2305 2307
190 1 2384 2383 2385
191 1 1928 1927 1929
192 1 503 502 504
193 1 1832 1831 1833
194 1 1418 1417 1419
195 1 2618 2617 2619
196 1 167 166 168
197 1 2843 2842 2844
198 1 893 892 894
199 1 1799 1798 1800
200 1 1637 1636 1638
201 1 1544 1543 1545
202 1 1634 1633 1635
203 1 1181 1180 1182
204 1 260 259 261
205 1 251 250 252
206 1 77 76 78
207 1 1118 1117 1119
208 1 1991 1990 1992
209 1 1808 1807 1809
210 1 1247 1246 1248
211 1 2876 2875 2877
212 1 2129 2128 2130
213 1 2057 2056 2058
214 1 2456 2455 2457
215 1 197 196 198
216 1 1961 1960 1962
217 1 1178 1177 1179
218 1 2081 2080 2082
219 1 1883 1882 1884
220 1 1388 1387 1389
221 1 2195 2194 2196
222 1 1757 1756 1758
223 1 2957 2956 2958
224 1 2927 2926 2928
225 1 191 190 192
226 1 905 904 906
227 1 1211 1210 1212
228 1 656 655 657
229 1 2978 2977 2979
230 1 1145 1144 1146
231 1 1679 1678 1680
232 1 1061 1060 1062
233 1 1610 1609 1611
234 1 350 349 351
235 1 395 394 396
236 1 944 943 945
237 1 2741 2740 2742
238 1 1394 1393 1395
239 1 1160 1159 1161
240 1 950 949 951
241 1 71 70 72
242 1 2561 2560 2562
243 1 2252 2251 2253
244 1 2987 2986 2988
245 1 2459 2458 2460
246 1 2276 2275 2277
247 1 737 736 738
248 1 362 361 363
249 2 3045 3044 3046
250 2 3045 3044 3047
251 2 3045 3044 3048
252 2 3046 3044 3047
253 2 3046 3044 3048
254 2 3047 3044 3048
255 2 3105 3104 3106
256 2 3105 3104 3107
257 2 3105 3104 3108
258 2 3106 3104 3107
259 2 3106 3104 3108
260 2 3107 3104 3108
261 1 920 919 921
262 1 1697 1696 1698
263 1 830 829 831
264 1 1316 1315 1317
265 1 1919 1918 1920
266 1 1739 1738 1740
267 1 404 403 405
268 1 1028 1027 1029
269 1 1517 1516 1518
270 1 1052 1051 1053
271 1 1406 1405 1407
272 2 3050 3049 3051
273 2 3050 3049 3052
274 2 3050 3049 3053
275 2 3051 3049 3052
276 2 3051 3049 3053
277 2 3052 3049 3053
278 1 467 466 468
279 1 2204 2203 2205
280 1 2048 2047 2049
281 1 233 232 234
282 1 1055 1054 1056
283 1 2738 2737 2739
284 1 1454 1453 1455
285 1 2054 2053 2055
286 1 1790 1789 1791
287 1 1613 1612 1614
288 1 2666 2665 2667
289 1 443 442 444
290 1 1811 1810 1812
291 1 2750 2749 2751
292 1 1670 1669 1671
293 1 392 391 393
294 1 1823 1822 1824
295 1 2831 2830 2832
296 1 989 988 990
297 1 2885 2884 2886
298 1 2864 2863 2865
299 1 1202 1201 1203
300 1 1598 1597 1599
301 1 122 121 123
302 1 2663 2662 2664
303 1 68 67 69
304 1 2627 2626 2628
305 1 2672 2671 2673
306 1 2141 2140 2142
307 1 548 547 549
308 1 698 697 699
309 1 236 235 237
310 1 1232 1231 1233
311 1 374 373 375
312 1 110 109 111
313 1 2417 2416 2418
314 1 2471 2470 2472
315 1 2975 2974 2976
316 1 1763 1762 1764
317 1 2801 2800 2802
318 1 1397 1396 1398
319 1 725 724 726
320 1 1382 1381 1383
321 1 1439 1438 1440
322 1 83 82 84
323 1 2132 2131 2133
324 1 815 814 816
325 1 2930 2929 2931
326 1 1658 1657 1659
327 1 1337 1336 1338
328 1 287 286 288
329 1 431 430 432
330 1 1289 1288 1290
331 1 1736 1735 1737
332 1 2585 2584 2586
333 1 2690 2689 2691
334 1 1745 1744 1746
335 1 2837 2836 2838
336 1 2825 2824 2826
337 1 2234 2233 2235
338 1 308 307 309
339 1 1073 1072 1074
340 1 1970 1969 1971
341 1 506 505 507
342 1 2435 2434 2436
343 1 2042 2041 2043
344 1 572 571 573
345 1 500 499 501
346 1 2009 2008 2010
347 1 1001 1000 1002
348 1 1952 1951 1953
349 1 1583 1582 1584
350 1 2744 2743 2745
351 1 1838 1837 1839
352 1 1472 1471 1473
353 1 1691 1690 1692
354 1 2180 2179 2181
355 1 2651 2650 2652
356 1 203 202 204
357 1 2066 2065 2067
358 1 1361 1360 1362
359 1 935 934 936
360 1 2855 2854 2856
361 1 2399 2398 2400
362 1 2060 2059 2061
363 1 2090 2089 2091
364 1 683 682 684
365 1 1937 1936 1938
366 1 779 778 780
367 1 1403 1402 1404
368 1 2006 2005 2007
369 1 2315 2314 2316
370 1 1034 1033 1035
371 1 245 244 246
372 1 2678 2677 2679
373 1 26 25 27
374 1 2528 2527 2529
375 1 2420 2419 2421
376 1 434 433 435
377 1 95 94 96
378 1 2432 2431 2433
379 1 2153 2152 2154
380 1 1964 1963 1965
381 1 2309 2308 2310
382 1 2177 2176 2178
383 1 1358 1357 1359
384 1 2984 2983 2985
385 1 911 910 912
386 1 2354 2353 2355
387 1 2552 2551 2553
388 1 2993 2992 2994
389 1 1457 1456 1458
390 1 1895 1894 1896
391 1 797 796 798
392 1 206 205 207
393 1 1313 1312 1314
394 1 104 103 105
395 1 1208 1207 1209
396 1 371 370 372
397 1 854 853 855
398 1 542 541 543
399 1 2201 2200 2202
400 1 98 97 99
401 1 827 826 828
402 1 269 268 270
403 1 2207 2206 2208
404 1 200 199 201
405 1 974 973 975
406 1 1646 1645 1647
407 1 2348 2347 2349
408 1 1973 1972 1974
409 1 17 16 18
410 1 437 436 438
411 1 2120 2119 2121
412 1 2501 2500 2502
413 1 839 838 840
414 1 2381 2380 2382
415 1 263 262 264
416 1 1880 1879 1881
417 1 767 766 768
418 1 146 145 147
419 1 2660 2659 2661
420 1 185 184 186
421 1 1664 1663 1665
422 1 2486 2485 2487
423 1 1781 1780 1782
424 1 998 997 999
425 1 1982 1981 1983
426 1 1010 1009 1011
427 1 557 556 558
428 1 365 364 366
429 1 2612 2611 2613
430 1 872 871 873
431 1 116 115 117
432 1 2513 2512 2514
433 1 1535 1534 1536
434 1 2669 2668 2670
435 1 2693 2692 2694
436 1 1538 1537 1539
437 1 1409 1408 1410
438 1 158 157 159
439 1 1934 1933 1935
440 1 509 508 510
441 1 2267 2266 2268
442 1 1205 1204 1206
443 1 1169 1168 1170
444 1 1436 1435 1437
445 1 2360 2359 2361
446 1 2441 2440 2442
447 1 776 775 777
448 1 383 382 384
449 1 419 418 420
450 1 2597 2596 2598
451 1 2117 2116 2118
452 1 1244 1243 1245
453 1 1685 1684 1686
454 1 1607 1606 1608
455 1 266 265 267
456 1 2237 2236 2238
457 1 1325 1324 1326
458 1 2366 2365 2367
459 1 1286 1285 1287
460 1 2345 2344 2346
461 1 764 763 765
462 1 44 43 45
463 1 464 463 465
464 1 2186 2185 2187
465 1 1688 1687 1689
466 1 38 37 39
467 1 1805 1804 1806
468 1 1673 1672 1674
469 1 422 421 423
470 1 2480 2479 2481
471 1 2684 2683 2685
472 1 2753 2752 2754
473 2 3090 3089 3091
474 2 3090 3089 3092
475 2 3090 3089 3093
476 2 3091 3089 3092
477 2 3091 3089 3093
478 2 3092 3089 3093
479 1 446 445 447
480 1 2711 2710 2712
481 1 2723 2722 2724
482 1 2570 2569 2571
483 1 386 385 387
484 1 2108 2107 2109
485 1 2342 2341 2343
486 1 1109 1108 1110
487 1 1022 1021 1023
488 1 1124 1123 1125
489 1 2579 2578 2580
490 1 956 955 957
491 1 2762 2761 2763
492 1 2483 2482 2484
493 1 728 727 729
494 1 179 178 180
495 1 2573 2572 2574
496 1 617 616 618
497 1 1829 1828 1830
498 1 662 661 663
499 1 1064 1063 1065
500 1 2324 2323 2325
501 1 1265 1264 1266
502 1 407 406 408
503 1 176 175 177
504 1 1331 1330 1332
505 1 1013 1012 1014
506 1 818 817 819
507 1 1859 1858 1860
508 1 1706 1705 1707
509 1 1847 1846 1848
510 1 1373 1372 1374
511 1 1127 1126 1128
512 1 2243 2242 2244
513 1 32 31 33
514 1 1682 1681 1683
515 1 368 367 369
516 1 2393 2392 2394
517 1 1262 1261 1263
518 1 2000 1999 2001
519 1 848 847 849
520 2 3020 3019 3021
521 2 3020 3019 3022
522 2 3020 3019 3023
523 2 3021 3019 3022
524 2 3021 3019 3023
525 2 3022 3019 3023
526 1 353 352 354
527 1 2882 2881 2883
528 1 1094 1093 1095
529 1 2543 2542 2544
530 1 800 799 801
531 1 1148 1147 1149
532 1 1199 1198 1200
533 1 1586 1585 1587
534 1 1274 1273 1275
535 1 530 529 531
536 1 152 151 153
537 1 995 994 996
538 1 953 952 954
539 1 1997 1996 1998
540 1 2774 2773 2775
541 1 410 409 411
542 1 2318 2317 2319
543 1 1253 1252 1254
544 1 1802 1801 1803
545 1 2954 2953 2955
546 1 2273 2272 2274
547 1 1628 1627 1629
548 1 1595 1594 1596
549 1 836 835 837
550 1 2726 2725 2727
551 1 107 106 108
552 1 53 52 54
553 1 1238 1237 1239
554 1 1475 1474 1476
555 1 2297 2296 2298
556 1 1328 1327 1329
557 1 1904 1903 1905
558 1 1112 1111 1113
559 1 2150 2149 2151
560 1 2426 2425 2427
561 1 1448 1447 1449
562 1 2780 2779 2781
563 1 1133 1132 1134
564 1 1304 1303 1305
565 1 539 538 540
566 1 929 928 930
567 1 455 454 456
568 1 2045 2044 2046
569 1 1721 1720 1722
570 1 722 721 723
571 1 917 916 918
572 1 2888 2887 2889
573 1 554 553 555
574 1 2816 2815 2817
575 1 2450 2449 2451
576 1 1505 1504 1506
577 1 1049 1048 1050
578 1 2246 2245 2247
579 2 3080 3079 3081
580 2 3080 3079 3082
581 2 3080 3079 3083
582 2 3081 3079 3082
583 2 3081 3079 3083
584 2 3082 3079 3083
585 1 1217 1216 1218
586 1 1865 1864 1866
587 1 575 574 576
588 1 2102 2101 2103
589 1 812 811 813
590 1 629 628 630
591 1 878 877 879
592 1 803 802 804
593 1 1886 1885 1887
594 1 1730 1729 1731
595 1 425 424 426
596 1 2657 2656 2658
597 1 89 88 90
598 1 524 523 525
599 1 2531 2530 2532
600 1 1310 1309 1311
601 1 623 622 624
602 1 1106 1105 1107
603 1 1004 1003 1005
604 1 41 40 42
605 1 1742 1741 1743
606 1 2030 2029 2031
607 1 1889 1888 1890
608 1 1163 1162 1164
609 1 1268 1267 1269
610 1 92 91 93
611 1 2357 2356 2358
612 1 2915 2914 2916
613 1 80 79 81
614 1 1490 1489 1491
615 1 2093 2092 2094
616 1 2633 2632 2634
617 1 614 613 615
618 1 773 772 774
619 1 320 319 321
620 1 521 520 522
621 1 2756 2755 2757
622 1 512 511 513
623 1 1091 1090 1092
624 1 2621 2620 2622
625 1 2654 2653 2655
626 1 821 820 822
627 1 2852 2851 2853
628 1 2024 2023 2025
629 1 1601 1600 1602
630 1 2606 2605 2607
631 1 680 679 681
632 1 1058 1057 1059
633 1 794 793 795
634 1 932 931 933
635 1 2828 2827 2829
636 1 1412 1411 1413
637 1 284 283 285
638 1 1820 1819 1821
639 1 1541 1540 1542
640 1 2468 2467 2469
641 1 1649 1648 1650
642 1 731 730 732
643 1 2282 2281 2283
644 1 881 880 882
645 1 983 982 984
646 1 2525 2524 2526
647 1 2861 2860 2862
648 1 1136 1135 1137
649 1 689 688 690
650 1 1496 1495 1497
651 1 2603 2602 2604
652 1 140 139 141
653 1 1850 1849 1851
654 1 143 142 144
655 1 1250 1249 1251
656 1 2822 2821 2823
657 1 2261 2260 2262
658 2 3095 3094 3096
659 2 3095 3094 3097
660 2 3095 3094 3098
661 2 3096 3094 3097
662 2 3096 3094 3098
663 2 3097 3094 3098
664 1 1493 1492 1494
665 1 1355 1354 1356
666 1 428 427 429
667 1 488 487 489
668 1 833 832 834
669 1 2033 2032 2034
670 1 1016 1015 1017
671 1 2969 2968 2970
672 1 173 172 174
673 1 593 592 594
674 1 2834 2833 2835
675 1 551 550 552
676 1 2900 2899 2901
677 1 1724 1723 1725
678 1 134 133 135
679 1 2036 2035 2037
680 1 1676 1675 1677
681 1 2555 2554 2556
682 1 1994 1993 1995
683 1 182 181 183
684 1 1958 1957 1959
685 1 23 22 24
686 1 1787 1786 1788
687 1 440 439 441
688 1 692 691 693
689 1 1712 1711 1713
690 1 2396 2395 2397
691 1 2918 2917 2919
692 1 2765 2764 2766
693 1 2147 2146 2148
694 1 869 868 870
695 1 2879 2878 2880
696 1 1130 1129 1131
697 1 1772 1771 1773
698 1 2924 2923 2925
699 1 584 583 585
700 1 1427 1426 1428
701 1 2972 2971 2973
702 1 1874 1873 1875
703 1 1292 1291 1293
704 1 2387 2386 2388
705 1 2489 2488 2490
706 1 2696 2695 2697
707 1 2963 2962 2964
708 1 215 214 216
709 1 890 889 891
710 1 2123 2122 2124
711 1 2732 2731 2733
712 1 2576 2575 2577
713 1 1151 1150 1152
714 1 1943 1942 1944
715 1 632 631 633
716 1 1349 1348 1350
717 1 20 19 21
718 1 1463 1462 1464
719 1 2717 2716 2718
720 1 2294 2293 2295
721 1 2021 2020 2022
722 1 1307 1306 1308
723 1 2804 2803 2805
724 1 713 712 714
725 1 101 100 102
726 1 2960 2959 2961
727 1 2228 2227 2229
728 1 1592 1591 1593
729 1 1079 1078 1080
730 1 323 322 324
731 1 1841 1840 1842
732 2 3040 3039 3041
733 2 3040 3039 3042
734 2 3040 3039 3043
735 2 3041 3039 3042
736 2 3041 3039 3043
737 2 3042 3039 3043
738 1 2840 2839 2841
739 1 2942 2941 2943
740 1 461 460 462
741 1 2438 2437 2439
742 1 1466 1465 1467
743 1 977 976 978
744 1 740 739 741
745 1 2810 2809 2811
746 1 1445 1444 1446
747 2 3025 3024 3026
748 2 3025 3024 3027
749 2 3025 3024 3028
750 2 3026 3024 3027
751 2 3026 3024 3028
752 2 3027 3024 3028
753 1 2933 2932 2934
754 1 2159 2158 2160
755 1 1040 1039 1041
756 1 2369 2368 2370
757 1 2444 2443 2445
758 1 2771 2770 2772
759 1 2213 2212 2214
760 1 56 55 57
761 1 2777 2776 2778
762 1 2429 2428 2430
763 1 1019 1018 1020
764 1 1460 1459 1461
765 1 1925 1924 1926
766 1 5 4 6
767 1 884 883 885
768 1 2537 2536 2538
769 1 1871 1870 1872
770 1 2786 2785 2787
771 1 2018 2017 2019
772 1 2126 2125 2127
773 1 1718 1717 1719
774 1 2336 2335 2337
775 1 281 280 282
776 1 2015 2014 2016
777 1 1931 1930 1932
778 1 1709 1708 1710
779 1 2648 2647 2649
780 1 1547 1546 1548
781 1 1367 1366 1368
782 1 1652 1651 1653
783 1 1385 1384 1386
784 1 212 211 213
785 1 941 940 942
786 1 1157 1156 1158
787 1 695 694 696
788 2 3075 3074 3076
789 2 3075 3074 3077
790 2 3075 3074 3078
791 2 3076 3074 3077
792 2 3076 3074 3078
793 2 3077 3074 3078
794 1 2594 2593 2595
795 1 602 601 603
796 1 2534 2533 2535
797 1 743 742 744
798 1 194 193 195
799 1 746 745 747
800 2 3030 3029 3031
801 2 3030 3029 3032
802 2 3030 3029 3033
803 2 3031 3029 3032
804 2 3031 3029 3033
805 2 3032 3029 3033
806 1 641 640 642
807 2 3100 3099 3101
808 2 3100 3099 3102
809 2 3100 3099 3103
810 2 3101 3099 3102
811 2 3101 3099 3103
812 2 3102 3099 3103
813 1 2948 2947 2949
814 1 482 481 483
815 1 1619 1618 1620
816 1 638 637 639
817 1 326 325 327
818 1 770 769 771
819 1 1655 1654 1656
820 1 2699 2698 2700
821 1 2714 2713 2715
822 1 1559 1558 1560
823 1 788 787 789
824 1 1955 1954 1956
825 1 1631 1630 1632
826 1 317 316 318
827 1 2903 2902 2904
828 1 2012 2011 2013
829 1 2858 2857 2859
830 1 1940 1939 1941
831 1 311 310 312
832 1 356 355 357
833 1 2072 2071 2073
834 1 2447 2446 2448
835 1 2522 2521 2523
836 1 2051 2050 2052
837 1 2792 2791 2793
838 1 1223 1222 1224
839 1 1067 1066 1068
840 1 1826 1825 1827
841 1 1088 1087 1089
842 1 47 46 48
843 1 125 124 126
844 1 2729 2728 2730
845 1 1319 1318 1320
846 1 620 619 621
847 1 2795 2794 2796
848 1 2921 2920 2922
849 1 2249 2248 2250
850 1 8 7 9
851 1 1661 1660 1662
852 1 341 340 342
853 1 2636 2635 2637
854 1 791 790 792
855 1 1424 1423 1425
856 1 2408 2407 2409
857 1 1550 1549 1551
858 1 2789 2788 2790
859 1 677 676 678
860 1 389 388 390
861 1 659 658 660
862 1 1184 1183 1185
863 1 2084 2083 2085
864 1 1817 1816 1818
865 1 2609 2608 2610
866 1 2492 2491 2493
867 1 1967 1966 1968
868 1 2849 2848 2850
869 1 1364 1363 1365
870 1 305 304 306
871 1 761 760 762
872 1 1193 1192 1194
873 1 926 925 927
874 1 1616 1615 1617
875 1 968 967 969
876 1 2 1 3
877 1 1877 1876 1878
878 1 686 685 687
879 1 2477 2476 2478
880 1 2873 2872 2874
881 1 578 577 579
882 1 1892 1891 1893
883 1 2708 2707 2709
884 1 710 709 711
885 1 2681 2680 2682
886 1 2615 2614 2616
887 1 2423 2422 2424
888 1 59 58 60
889 1 2474 2473 2475
890 1 2798 2797 2799
891 1 2495 2494 2496
892 1 2807 2806 2808
893 1 2504 2503 2505
894 1 842 841 843
895 1 1391 1390 1392
896 1 1256 1255 1257
897 1 2462 2461 2463
898 1 413 412 414
899 1 1340 1339 1341
900 1 257 256 258
901 1 332 331 333
902 1 914 913 915
903 1 947 946 948
904 1 1916 1915 1917
905 1 293 292 294
906 1 2183 2182 2184
907 1 1700 1699 1701
908 1 161 160 162
909 1 137 136 138
910 1 2069 2068 2070
911 1 1499 1498 1500
912 1 224 223 225
913 1 1565 1564 1566
914 1 2906 2905 2907
915 1 605 604 606
916 1 272 271 273
917 1 170 169 171
918 1 2402 2401 2403
919 1 119 118 120
920 1 1703 1702 1704
921 1 230 229 231
922 1 485 484 486
923 1 1076 1075 1077
924 1 1241 1240 1242
925 1 704 703 705
926 1 1259 1258 1260
927 1 452 451 453
928 1 1727 1726 1728
929 1 155 154 156
930 1 2867 2866 2868
931 1 2546 2545 2547
932 1 1898 1897 1899
933 1 380 379 381
934 1 1103 1102 1104
935 1 1451 1450 1452
936 1 707 706 708
937 1 497 496 498
938 1 1868 1867 1869
939 1 1196 1195 1197
940 1 1748 1747 1749
941 1 860 859 861
942 1 2264 2263 2265
943 1 401 400 402
944 1 1907 1906 1908
945 1 1760 1759 1761
946 1 149 148 150
947 1 1097 1096 1098
948 1 2909 2908 2910
949 1 2156 2155 2157
950 1 1622 1621 1623
951 1 359 358 360
952 1 1574 1573 1575
953 1 2540 2539 2541
954 1 1115 1114 1116
955 1 1322 1321 1323
956 1 2231 2230 2232
957 1 2939 2938 2940
958 1 1913 1912 1914
959 1 2270 2269 2271
960 1 1190 1189 1191
961 1 1343 1342 1344
962 1 1562 1561 1563
963 1 242 241 243
964 1 131 130 132
965 1 29 28 30
966 1 2624 2623 2625
967 1 470 469 471
968 1 1400 1399 1401
969 1 2219 2218 2220
970 1 2288 2287 2289
971 1 2165 2164 2166
972 1 962 961 963
973 1 1043 1042 1044
974 1 2507 2506 2508
975 1 611 610 612
976 1 1346 1345 1347
977 1 1334 1333 1335
978 1 908 907 909
979 1 2240 2239 2241
980 1 494 493 495
981 1 1979 1978 1980
982 1 1214 1213 1215
983 1 2936 2935 2937
984 1 2870 2869 2871
985 1 1442 1441 1443
986 1 2210 2209 2211
987 1 209 208 210
988 1 959 958 960
989 1 11 10 12
990 1 635 634 636
991 1 785 784 786
992 1 2327 2326 2328
993 1 2645 2644 2646
994 1 2414 2413 2415
995 1 2558 2557 2559
996 1 2642 2641 2643
997 1 398 397 399
998 1 2339 2338 2340
999 1 1529 1528 1530
1000 1 845 844 846
1001 1 2291 2290 2292
1002 1 965 964 966
1003 1 2894 2893 2895
1004 1 1280 1279 1281
1005 1 749 748 750
1006 1 1229 1228 1230
1007 1 1862 1861 1863
1008 1 35 34 36
1009 1 377 376 378
1010 1 1568 1567 1569
1011 1 1571 1570 1572
1012 1 1853 1852 1854
1013 1 2747 2746 2748
1014 1 563 562 564
1015 1 2516 2515 2517
1016 1 2582 2581 2583
1017 1 608 607 609
1018 1 758 757 759
1019 1 2891 2890 2892
1020 1 1037 1036 1038
1021 2 3085 3084 3086
1022 2 3085 3084 3087
1023 2 3085 3084 3088
1024 2 3086 3084 3087
1025 2 3086 3084 3088
1026 2 3087 3084 3088
1027 1 1298 1297 1299
1028 1 2996 2995 2997
1029 1 2144 2143 2145
1030 1 1352 1351 1353
1031 1 113 112 114
1032 1 902 901 903
1033 1 1556 1555 1557
1034 1 1715 1714 1716
1035 1 1007 1006 1008
1036 1 2735 2734 2736
1037 1 2675 2674 2676
1038 1 2114 2113 2115
1039 1 2375 2374 2376
1040 2 3060 3059 3061
1041 2 3060 3059 3062
1042 2 3060 3059 3063
1043 2 3061 3059 3062
1044 2 3061 3059 3063
1045 2 3062 3059 3063
1046 1 626 625 627
1047 1 2321 2320 2322
1048 1 302 301 303
1049 1 2372 2371 2373
1050 1 2759 2758 2760
1051 1 1643 1642 1644
1052 1 2075 2074 2076
1053 1 1433 1432 1434
1054 1 2303 2302 2304
1055 1 875 874 876
1056 1 1976 1975 1977
1057 1 2225 2224 2226
1058 1 1784 1783 1785
1059 1 1166 1165 1167
1060 1 1985 1984 1986
1061 2 3035 3034 3036
1062 2 3035 3034 3037
1063 2 3035 3034 3038
1064 2 3036 3034 3037
1065 2 3036 3034 3038
1066 2 3037 3034 3038
1067 1 1733 1732 1734
1068 1 671 670 672
1069 1 1856 1855 1857
1070 1 2639 2638 2640
1071 1 2168 2167 2169
1072 1 980 979 981
1073 1 2588 2587 2589
1074 1 254 253 255
1075 1 719 718 720
1076 1 275 274 276
1077 1 2567 2566 2568
1078 1 449 448 450
1079 1 2135 2134 2136
1080 1 1667 1666 1668
1081 1 1778 1777 1779
1082 1 1376 1375 1377
1083 1 1283 1282 1284
1084 1 1694 1693 1695
1085 1 347 346 348
1086 1 755 754 756
1087 1 1226 1225 1227
1088 1 1478 1477 1479
1089 1 14 13 15
1090 1 1100 1099 1101
1091 1 299 298 300
1092 1 866 865 867
1093 1 2498 2497 2499
1094 1 1844 1843 1845
1095 1 2768 2767 2769
1096 1 1511 1510 1512
1097 1 2720 2719 2721
1098 1 899 898 900
1099 1 227 226 228
1100 1 1988 1987 1989
1101 1 734 733 735
1102 1 2189 2188 2190
1103 1 1484 1483 1485
1104 1 1469 1468 1470
1105 1 2099 2098 2100
1106 1 1172 1171 1173
1107 1 992 991 993
1108 1 2966 2965 2967
