
# Read simulation box and atom positions
read_data       cobalt.data
Reading data file ...
  orthogonal box = (-0.040448537 -0.040485372 -0.040485372) to (30.975515 30.975515 30.975515)
  1 by 1 by 1 MPI processor grid
  reading atoms ...
  3108 atoms
  reading velocities ...
  3108 velocities
  scanning bonds ...
  4 = max bonds/atom
  scanning angles ...
  6 = max angles/atom
  reading bonds ...
  2072 bonds
  reading angles ...
  1108 angles
Finding 1-2 1-3 1-4 neighbors ...
  special bond factors lj:    0        0        0       
  special bond factors coul:  0        0        0       
     4 = max # of 1-2 neighbors
     3 = max # of 1-3 neighbors
     3 = max # of 1-4 neighbors
     4 = max # of special neighbors
  special bonds CPU = 0.001 seconds
  read_data CPU = 0.022 seconds

# Mass of each atom type
mass            1 15.9994   # Oxygen
mass            2 1.008   # Hydrogen
mass            3 58.9332    #Co
mass            4 32.06      #S
mass            5 15.9994   # Oxygen in SO4

# Neighbor list settings
neighbor        2.0 bin
neigh_modify    delay 0 every 1 check yes

pair_style   lj/cut/coul/long 10.0 10.0
kspace_style pppm  1e-4
pair_modify     tail yes
pair_modify     mix arithmetic  # Lorentz–Berthelot mixing rule
bond_style      harmonic
angle_style     harmonic

# parameters for lennard jones potential
pair_coeff      1 1 0.1553        3.166   # water O-O SPC/E
pair_coeff      2 2 0.0000        0.000      # H-H
pair_coeff      3 3 0.0286       2.1857      #Co
pair_coeff      4 4 0.25         3.55  #S
pair_coeff      5 5 0.20         3.15  # O in SO4

bond_coeff      1 1000.0   1.00  # O-H (water)
bond_coeff      2 250.0   1.49    # S-O
angle_coeff     1 100.0  109.47   # H-O-H (water)
angle_coeff     2 100.0  109.47   # O-S-O


# Initial velocity distribution
velocity        all create ${temp} 1593724 dist gaussian
velocity        all create 298.15 1593724 dist gaussian

min_style       cg
minimize        1e-6 1e-8 2000 20000
PPPM initialization ...
  using 12-bit tables for long-range coulomb (src/kspace.cpp:340)
  G vector (1/distance) = 0.27348819
  grid = 18 18 18
  stencil order = 5
  estimated absolute RMS force accuracy = 0.022522574
  estimated relative force accuracy = 6.7826064e-05
  using double precision KISS FFT
  3d grid and FFT values/proc = 15625 5832
Last active /omp style is kspace_style pppm/omp
Neighbor list info ...
  update every 1 steps, delay 0 steps, check yes
  max neighbors/atom: 2000, page size: 100000
  master list distance cutoff = 12
  ghost atom cutoff = 12
  binsize = 6, bins = 6 6 6
  1 neighbor lists, perpetual/occasional/extra = 1 0 0
  (1) pair lj/cut/coul/long/omp, perpetual
      attributes: half, newton on, omp
      pair build: half/bin/newton/omp
      stencil: half/bin/3d
      bin: standard
Per MPI rank memory allocation (min/avg/max) = 41.40 | 41.40 | 41.40 Mbytes
Step Temp E_pair E_mol TotEng Press 
       0       298.15   -24866.762    91.800955   -22013.682    34217.073 
     562       298.15   -28239.374    576.04752   -24902.047   -829.95323 
Loop time of 6.54884 on 16 procs for 562 steps with 3108 atoms

1585.1% CPU use with 1 MPI tasks x 16 OpenMP threads

Minimization stats:
  Stopping criterion = energy tolerance
  Energy initial, next-to-last, final = 
     -24774.9611593811  -27663.3074385011  -27663.3261836084
  Force two-norm initial, final = 1695.1962 13.124269
  Force max component initial, final = 80.009156 3.4867156
  Final line search alpha, max atom move = 0.0067325377 0.023474444
  Iterations, force evaluations = 562 1122

MPI task timing breakdown:
Section |  min time  |  avg time  |  max time  |%varavg| %total
---------------------------------------------------------------
Pair    | 2.9815     | 2.9815     | 2.9815     |   0.0 | 45.53
Bond    | 0.070189   | 0.070189   | 0.070189   |   0.0 |  1.07
Kspace  | 2.8323     | 2.8323     | 2.8323     |   0.0 | 43.25
Neigh   | 0.039178   | 0.039178   | 0.039178   |   0.0 |  0.60
Comm    | 0.26289    | 0.26289    | 0.26289    |   0.0 |  4.01
Output  | 0          | 0          | 0          |   0.0 |  0.00
Modify  | 0.26659    | 0.26659    | 0.26659    |   0.0 |  4.07
Other   |            | 0.09629    |            |       |  1.47

Nlocal:        3108.00 ave        3108 max        3108 min
Histogram: 1 0 0 0 0 0 0 0 0 0
Nghost:        14159.0 ave       14159 max       14159 min
Histogram: 1 0 0 0 0 0 0 0 0 0
Neighs:    1.17105e+06 ave 1.17105e+06 max 1.17105e+06 min
Histogram: 1 0 0 0 0 0 0 0 0 0

Total # of neighbors = 1171053
Ave neighs/atom = 376.78668
Ave special neighs/atom = 2.0463320
Neighbor list builds = 11
Dangerous builds = 0

fix   1 all shake 0.0001 20 0 b 1 a 1
       0 = # of size 2 clusters
       0 = # of size 3 clusters
       0 = # of size 4 clusters
    1000 = # of frozen angles
  find clusters CPU = 0.002 seconds
fix   2 all nvt temp ${temp} ${temp} 100.0
fix   2 all nvt temp 298.15 ${temp} 100.0
fix   2 all nvt temp 298.15 298.15 100.0
fix   3 all efield  0.30 0.00 0.00   #apply electric field in the x-direction
fix   4 all momentum 100 linear 1 1 1  #remove center of mass motion

timestep	${dt}
timestep	1
thermo_style    custom step temp press etotal pe ke density lx ly lz vol
thermo          ${thermo_freq}
thermo          1000
thermo_modify   flush yes

# dumps for analysis
#First dump file with wrapped coordinates (x y z)
dump            1 all custom 1000 wrapped.lammpstrj id type x y z
dump_modify     1 sort id

# Second dump file with unwrapped coordinates and velocities
dump            2 all custom 1000 unwrapped.lammpstrj id type xu yu zu
dump_modify     2 sort id

run             ${nsteps}
run             6000000
PPPM initialization ...
  using 12-bit tables for long-range coulomb (src/kspace.cpp:340)
  G vector (1/distance) = 0.27348819
  grid = 18 18 18
  stencil order = 5
  estimated absolute RMS force accuracy = 0.022522574
  estimated relative force accuracy = 6.7826064e-05
  using double precision KISS FFT
  3d grid and FFT values/proc = 15625 5832
Last active /omp style is kspace_style pppm/omp
Per MPI rank memory allocation (min/avg/max) = 40.90 | 40.90 | 40.90 Mbytes
Step Temp Press TotEng PotEng KinEng Density Lx Ly Lz Volume 
     562    439.65451    -4351.291   -25440.221     -28201.5    2761.2795    1.1578834    31.015963       31.016       31.016    29837.116 
    1000     287.4231    31.036197   -22814.912   -24620.092      1805.18    1.1578834    31.015963       31.016       31.016    29837.116 
    2000    299.05589   -1315.8746   -22621.286   -24499.527    1878.2405    1.1578834    31.015963       31.016       31.016    29837.116 
    3000    297.06706   -2342.7259   -22673.427   -24539.177    1865.7495    1.1578834    31.015963       31.016       31.016    29837.116 
    4000    291.96844   -1654.1197     -22728.7   -24562.427    1833.7273    1.1578834    31.015963       31.016       31.016    29837.116 
    5000    310.08973   -2959.9258    -22658.91   -24606.449    1947.5392    1.1578834    31.015963       31.016       31.016    29837.116 
    6000    300.53568    -2852.559   -22671.352   -24558.887    1887.5344    1.1578834    31.015963       31.016       31.016    29837.116 
    7000    295.79591   -1653.7158   -22746.301   -24604.067     1857.766    1.1578834    31.015963       31.016       31.016    29837.116 
    8000    299.04907   -2383.5654   -22669.469   -24547.666    1878.1977    1.1578834    31.015963       31.016       31.016    29837.116 
    9000    303.29842   -2064.8993   -22732.635   -24637.521     1904.886    1.1578834    31.015963       31.016       31.016    29837.116 
   10000    297.25167   -1466.1176   -22704.067   -24570.976     1866.909    1.1578834    31.015963       31.016       31.016    29837.116 
   11000     295.1875   -2433.8346   -22705.686   -24559.631    1853.9448    1.1578834    31.015963       31.016       31.016    29837.116 
   12000    306.54913   -2323.0901   -22632.833   -24558.136    1925.3023    1.1578834    31.015963       31.016       31.016    29837.116 
   13000    301.64564   -2537.9806   -22688.507   -24583.012    1894.5056    1.1578834    31.015963       31.016       31.016    29837.116 
   14000     295.1742   -2090.5621   -22656.612   -24510.473    1853.8613    1.1578834    31.015963       31.016       31.016    29837.116 
   15000    300.36443   -1730.1141   -22600.692   -24487.151    1886.4589    1.1578834    31.015963       31.016       31.016    29837.116 
   16000    297.29626   -1542.5418   -22606.128   -24473.317     1867.189    1.1578834    31.015963       31.016       31.016    29837.116 
   17000    292.17082   -1442.3524   -22611.194   -24446.192    1834.9983    1.1578834    31.015963       31.016       31.016    29837.116 
   18000    301.77887   -1306.6486    -22546.65   -24441.993    1895.3423    1.1578834    31.015963       31.016       31.016    29837.116 
   19000    300.50308   -1892.4399   -22601.201   -24488.531    1887.3296    1.1578834    31.015963       31.016       31.016    29837.116 
   20000    295.04031   -1795.8598   -22632.256   -24485.276    1853.0204    1.1578834    31.015963       31.016       31.016    29837.116 
   21000    305.40999   -1652.4411   -22627.334   -24545.482    1918.1478    1.1578834    31.015963       31.016       31.016    29837.116 
   22000    306.76372     -601.633   -22636.556   -24563.206      1926.65    1.1578834    31.015963       31.016       31.016    29837.116 
   23000    309.59649   -1749.1417   -22530.753   -24475.194    1944.4414    1.1578834    31.015963       31.016       31.016    29837.116 
   24000    304.42295   -1948.6448   -22575.292    -24487.24    1911.9487    1.1578834    31.015963       31.016       31.016    29837.116 
   25000     305.1906   -2273.8447   -22639.897   -24556.667    1916.7699    1.1578834    31.015963       31.016       31.016    29837.116 
   26000    293.75818   -1761.7379   -22692.637   -24537.605    1844.9679    1.1578834    31.015963       31.016       31.016    29837.116 
   27000    305.41773   -1805.6085   -22653.261   -24571.457    1918.1965    1.1578834    31.015963       31.016       31.016    29837.116 
   28000    294.16335   -2175.0205   -22628.968   -24476.481    1847.5125    1.1578834    31.015963       31.016       31.016    29837.116 
   29000    305.66567   -1709.6562   -22593.247       -24513    1919.7537    1.1578834    31.015963       31.016       31.016    29837.116 
   30000    306.99742   -2647.1319   -22695.415   -24623.533    1928.1178    1.1578834    31.015963       31.016       31.016    29837.116 
   31000    303.47852   -2159.5998   -22770.001   -24676.019    1906.0171    1.1578834    31.015963       31.016       31.016    29837.116 
   32000    298.98782    -2013.956   -22629.166   -24506.979     1877.813    1.1578834    31.015963       31.016       31.016    29837.116 
   33000    294.81952   -2470.3358   -22616.858   -24468.492    1851.6337    1.1578834    31.015963       31.016       31.016    29837.116 
   34000    305.81447   -1769.9574   -22655.356   -24576.044    1920.6882    1.1578834    31.015963       31.016       31.016    29837.116 
   35000    302.81214   -2590.8183   -22626.942   -24528.774    1901.8319    1.1578834    31.015963       31.016       31.016    29837.116 
   36000    298.23093   -996.16133   -22685.801    -24558.86    1873.0593    1.1578834    31.015963       31.016       31.016    29837.116 
   37000    301.63457   -1922.3367   -22662.003   -24556.439     1894.436    1.1578834    31.015963       31.016       31.016    29837.116 
   38000    295.37741   -1224.5988    -22684.07   -24539.208    1855.1375    1.1578834    31.015963       31.016       31.016    29837.116 
   39000    295.64768   -1396.6783   -22686.099   -24542.934     1856.835    1.1578834    31.015963       31.016       31.016    29837.116 
   40000    294.53872   -2182.1397   -22758.516   -24608.386    1849.8701    1.1578834    31.015963       31.016       31.016    29837.116 
   41000    293.88081   -2127.5332   -22668.182   -24513.921     1845.738    1.1578834    31.015963       31.016       31.016    29837.116 
   42000    298.41237   -1821.7242   -22681.911    -24556.11    1874.1988    1.1578834    31.015963       31.016       31.016    29837.116 
   43000    304.26107   -2090.8314   -22617.558    -24528.49     1910.932    1.1578834    31.015963       31.016       31.016    29837.116 
   44000    292.27731   -1567.9137   -22703.633     -24539.3    1835.6672    1.1578834    31.015963       31.016       31.016    29837.116 
   45000     294.3913   -546.33073   -22668.383   -24517.328    1848.9442    1.1578834    31.015963       31.016       31.016    29837.116 
   46000    299.18228   -1490.4482   -22626.446   -24505.481    1879.0343    1.1578834    31.015963       31.016       31.016    29837.116 
   47000    304.41712   -2292.5235   -22677.344   -24589.257    1911.9121    1.1578834    31.015963       31.016       31.016    29837.116 
   48000    297.42731   -1857.8765   -22654.971   -24522.983    1868.0121    1.1578834    31.015963       31.016       31.016    29837.116 
   49000    296.77252   -2249.4288   -22706.976   -24570.876    1863.8996    1.1578834    31.015963       31.016       31.016    29837.116 
   50000    300.53883    -2355.916   -22681.401   -24568.955    1887.5542    1.1578834    31.015963       31.016       31.016    29837.116 
   51000    298.22643   -2082.0747   -22664.714   -24537.745     1873.031    1.1578834    31.015963       31.016       31.016    29837.116 
   52000    297.49009   -1536.9587   -22745.735   -24614.141    1868.4064    1.1578834    31.015963       31.016       31.016    29837.116 
   53000     301.8999   -1653.5627    -22712.52   -24608.623    1896.1025    1.1578834    31.015963       31.016       31.016    29837.116 
   54000    298.72921   -2521.7968   -22663.401    -24539.59    1876.1887    1.1578834    31.015963       31.016       31.016    29837.116 
   55000    303.36306   -1981.1586   -22676.655   -24581.946     1905.292    1.1578834    31.015963       31.016       31.016    29837.116 
   56000    304.89608   -1124.4698   -22589.096   -24504.016    1914.9202    1.1578834    31.015963       31.016       31.016    29837.116 
   57000    303.37974   -1895.3465   -22649.344    -24554.74    1905.3967    1.1578834    31.015963       31.016       31.016    29837.116 
   58000    299.90442   -645.93704   -22668.041   -24551.611    1883.5697    1.1578834    31.015963       31.016       31.016    29837.116 
   59000    301.77938   -1377.8229   -22592.952   -24488.297    1895.3455    1.1578834    31.015963       31.016       31.016    29837.116 
   60000     305.6962   -1685.1605   -22590.339   -24510.284    1919.9454    1.1578834    31.015963       31.016       31.016    29837.116 
   61000    304.24592   -1758.9405    -22582.81   -24493.647    1910.8368    1.1578834    31.015963       31.016       31.016    29837.116 
   62000    296.51312   -2560.1202   -22615.213   -24477.484    1862.2705    1.1578834    31.015963       31.016       31.016    29837.116 
   63000    302.74677   -1863.0918   -22683.357   -24584.778    1901.4213    1.1578834    31.015963       31.016       31.016    29837.116 
   64000    295.63496   -1695.8445   -22639.983   -24496.738    1856.7551    1.1578834    31.015963       31.016       31.016    29837.116 
   65000    301.97057   -1223.1924   -22601.565   -24498.111    1896.5463    1.1578834    31.015963       31.016       31.016    29837.116 
   66000    306.25987    -1877.423   -22604.905   -24528.391    1923.4856    1.1578834    31.015963       31.016       31.016    29837.116 
   67000    300.77493   -1418.0695   -22633.761   -24522.798     1889.037    1.1578834    31.015963       31.016       31.016    29837.116 
   68000    302.07931   -1918.7565    -22626.48    -24523.71    1897.2293    1.1578834    31.015963       31.016       31.016    29837.116 
   69000    297.36283   -1481.5749   -22646.993     -24514.6    1867.6071    1.1578834    31.015963       31.016       31.016    29837.116 
   70000    299.01541   -1803.2729   -22638.704   -24516.691    1877.9863    1.1578834    31.015963       31.016       31.016    29837.116 
   71000    301.96566   -1886.0604   -22499.587   -24396.102    1896.5155    1.1578834    31.015963       31.016       31.016    29837.116 
   72000    300.31792   -2391.3543   -22592.225   -24478.392    1886.1668    1.1578834    31.015963       31.016       31.016    29837.116 
   73000    295.49056   -2162.3114    -22636.86   -24492.709    1855.8482    1.1578834    31.015963       31.016       31.016    29837.116 
   74000    305.37203    -1655.128   -22630.858   -24548.768    1917.9094    1.1578834    31.015963       31.016       31.016    29837.116 
   75000    300.20115   -2508.3291   -22616.573   -24502.007    1885.4333    1.1578834    31.015963       31.016       31.016    29837.116 
   76000    305.33786   -2099.7731   -22603.948   -24521.643    1917.6948    1.1578834    31.015963       31.016       31.016    29837.116 
   77000    298.28848   -1996.4384   -22671.565   -24544.985    1873.4207    1.1578834    31.015963       31.016       31.016    29837.116 
   78000    295.38092   -1674.6809   -22658.313   -24513.473    1855.1596    1.1578834    31.015963       31.016       31.016    29837.116 
   79000    300.28367   -1852.3459   -22529.867   -24415.819    1885.9516    1.1578834    31.015963       31.016       31.016    29837.116 
   80000    302.55424   -1382.1665    -22574.94   -24475.152    1900.2121    1.1578834    31.015963       31.016       31.016    29837.116 
   81000    294.03248    -1262.985   -22563.753   -24410.444    1846.6906    1.1578834    31.015963       31.016       31.016    29837.116 
   82000    304.48263    -2194.093   -22609.502   -24521.826    1912.3235    1.1578834    31.015963       31.016       31.016    29837.116 
   83000    302.83585   -1844.4064   -22605.066   -24507.047    1901.9808    1.1578834    31.015963       31.016       31.016    29837.116 
   84000    296.60539   -1791.1951   -22586.574   -24449.424      1862.85    1.1578834    31.015963       31.016       31.016    29837.116 
   85000    301.38728   -1408.5991   -22566.273   -24459.156    1892.8829    1.1578834    31.015963       31.016       31.016    29837.116 
   86000    302.54776   -1447.3642    -22595.33   -24495.502    1900.1714    1.1578834    31.015963       31.016       31.016    29837.116 
   87000    298.79094   -2646.0767   -22641.947   -24518.523    1876.5765    1.1578834    31.015963       31.016       31.016    29837.116 
   88000    301.63343   -1761.5831   -22609.131    -24503.56    1894.4289    1.1578834    31.015963       31.016       31.016    29837.116 
   89000    307.65417   -2009.6048   -22652.042   -24584.284    1932.2425    1.1578834    31.015963       31.016       31.016    29837.116 
   90000    300.20541   -827.70889   -22671.126   -24556.586    1885.4601    1.1578834    31.015963       31.016       31.016    29837.116 
   91000    305.97256   -1818.0678   -22583.348   -24505.029    1921.6811    1.1578834    31.015963       31.016       31.016    29837.116 
   92000    298.17177    -3087.752   -22636.167   -24508.855    1872.6877    1.1578834    31.015963       31.016       31.016    29837.116 
   93000    296.42589   -2817.0355   -22603.069   -24464.791    1861.7226    1.1578834    31.015963       31.016       31.016    29837.116 
   94000    310.40365   -1742.2566   -22520.638   -24470.149    1949.5108    1.1578834    31.015963       31.016       31.016    29837.116 
   95000    303.49229   -1155.9708   -22563.996     -24470.1    1906.1036    1.1578834    31.015963       31.016       31.016    29837.116 
   96000    303.67936   -1364.8338   -22593.233   -24500.511    1907.2785    1.1578834    31.015963       31.016       31.016    29837.116 
   97000    304.33931   -1704.4734   -22610.573   -24521.997    1911.4234    1.1578834    31.015963       31.016       31.016    29837.116 
   98000    300.79574   -2375.0052   -22637.113    -24526.28    1889.1677    1.1578834    31.015963       31.016       31.016    29837.116 
   99000    289.93861   -3520.0573   -22650.304   -24471.283    1820.9788    1.1578834    31.015963       31.016       31.016    29837.116 
  100000    300.85259    -1895.786   -22662.512   -24552.036    1889.5248    1.1578834    31.015963       31.016       31.016    29837.116 
  101000    303.88379   -2516.0161   -22665.104   -24573.667    1908.5624    1.1578834    31.015963       31.016       31.016    29837.116 
  102000    300.15514   -1957.2443   -22602.194   -24487.339    1885.1444    1.1578834    31.015963       31.016       31.016    29837.116 
  103000    296.23036   -854.44796   -22588.277   -24448.772    1860.4946    1.1578834    31.015963       31.016       31.016    29837.116 
  104000    303.58683   -1724.5986   -22557.071   -24463.769    1906.6973    1.1578834    31.015963       31.016       31.016    29837.116 
  105000    302.14131   -2574.5552   -22634.799   -24532.418    1897.6187    1.1578834    31.015963       31.016       31.016    29837.116 
  106000    296.06049   -3251.4843   -22699.729   -24559.157    1859.4277    1.1578834    31.015963       31.016       31.016    29837.116 
  107000    300.59156    -2043.758   -22662.725    -24550.61    1887.8853    1.1578834    31.015963       31.016       31.016    29837.116 
  108000    295.57526   -2050.8156   -22650.821   -24507.202    1856.3802    1.1578834    31.015963       31.016       31.016    29837.116 
  109000    304.49647   -1683.2396   -22635.841   -24548.252    1912.4104    1.1578834    31.015963       31.016       31.016    29837.116 
  110000    308.11025   -2591.1072   -22668.865   -24603.972     1935.107    1.1578834    31.015963       31.016       31.016    29837.116 
  111000    304.91275   -2966.9512   -22711.537   -24626.561    1915.0249    1.1578834    31.015963       31.016       31.016    29837.116 
  112000    301.17997   -1451.6646   -22700.966   -24592.547    1891.5809    1.1578834    31.015963       31.016       31.016    29837.116 
  113000    296.72412   -2155.7669    -22680.23   -24543.826    1863.5956    1.1578834    31.015963       31.016       31.016    29837.116 
  114000    295.74215   -1579.8865   -22627.291   -24484.719    1857.4283    1.1578834    31.015963       31.016       31.016    29837.116 
  115000     306.4121   -1934.7243   -22594.151   -24518.593    1924.4417    1.1578834    31.015963       31.016       31.016    29837.116 
  116000    307.24741    -2360.019   -22499.733   -24429.421    1929.6879    1.1578834    31.015963       31.016       31.016    29837.116 
  117000    305.00823   -2108.2725   -22603.758   -24519.383    1915.6245    1.1578834    31.015963       31.016       31.016    29837.116 
  118000    301.91479   -1299.9924   -22512.518   -24408.714     1896.196    1.1578834    31.015963       31.016       31.016    29837.116 
  119000    298.84246    -1289.592   -22620.033   -24496.933       1876.9    1.1578834    31.015963       31.016       31.016    29837.116 
  120000    296.51875   -1100.9743    -22658.39   -24520.696    1862.3058    1.1578834    31.015963       31.016       31.016    29837.116 
  121000    298.04533   -1264.8014   -22624.708   -24496.601    1871.8936    1.1578834    31.015963       31.016       31.016    29837.116 
  122000    303.89867   -1669.8291   -22696.892   -24605.548    1908.6559    1.1578834    31.015963       31.016       31.016    29837.116 
  123000    295.06191   -1162.0192   -22725.497   -24578.653     1853.156    1.1578834    31.015963       31.016       31.016    29837.116 
  124000    292.84732   -1690.8778   -22722.384   -24561.631    1839.2472    1.1578834    31.015963       31.016       31.016    29837.116 
  125000    310.53879   -2088.5322   -22557.561   -24507.921    1950.3596    1.1578834    31.015963       31.016       31.016    29837.116 
  126000    301.70338   -2027.6862   -22622.059   -24516.927    1894.8682    1.1578834    31.015963       31.016       31.016    29837.116 
  127000    298.14109   -2535.3611   -22674.354   -24546.849     1872.495    1.1578834    31.015963       31.016       31.016    29837.116 
  128000    291.16974   -2386.2874   -22650.219    -24478.93     1828.711    1.1578834    31.015963       31.016       31.016    29837.116 
  129000    300.09644   -2460.8764   -22763.688   -24648.464    1884.7757    1.1578834    31.015963       31.016       31.016    29837.116 
  130000     298.1105   -2712.3816   -22714.343   -24586.646    1872.3029    1.1578834    31.015963       31.016       31.016    29837.116 
  131000    291.26044   -2277.1765    -22783.02   -24612.301    1829.2806    1.1578834    31.015963       31.016       31.016    29837.116 
  132000    297.71965   -2635.3703   -22693.906   -24563.754    1869.8481    1.1578834    31.015963       31.016       31.016    29837.116 
  133000    301.32336   -1264.0869   -22651.357   -24543.839    1892.4815    1.1578834    31.015963       31.016       31.016    29837.116 
  134000    297.85143   -1842.0568   -22730.093   -24600.768    1870.6758    1.1578834    31.015963       31.016       31.016    29837.116 
  135000    303.34502   -1686.9032   -22766.231    -24671.41    1905.1787    1.1578834    31.015963       31.016       31.016    29837.116 
  136000    300.94337   -2986.8415   -22643.211   -24533.306    1890.0949    1.1578834    31.015963       31.016       31.016    29837.116 
  137000    310.73877   -2506.7295   -22665.849   -24617.464    1951.6156    1.1578834    31.015963       31.016       31.016    29837.116 
  138000    305.65143   -1894.2182   -22647.823   -24567.487    1919.6642    1.1578834    31.015963       31.016       31.016    29837.116 
  139000    308.40813   -2156.7713   -22615.539   -24552.516    1936.9779    1.1578834    31.015963       31.016       31.016    29837.116 
  140000    314.70026   -1407.6857   -22535.887   -24512.383     1976.496    1.1578834    31.015963       31.016       31.016    29837.116 
  141000    300.02346    -1743.377   -22627.657   -24511.974    1884.3174    1.1578834    31.015963       31.016       31.016    29837.116 
  142000    300.90215   -2140.1989   -22681.199   -24571.035    1889.8361    1.1578834    31.015963       31.016       31.016    29837.116 
  143000    302.02679   -1552.8878   -22684.571   -24581.471    1896.8994    1.1578834    31.015963       31.016       31.016    29837.116 
  144000    315.81711   -1868.0966   -22492.512   -24476.023    1983.5105    1.1578834    31.015963       31.016       31.016    29837.116 
  145000    300.52851   -2980.6202   -22642.587   -24530.076    1887.4894    1.1578834    31.015963       31.016       31.016    29837.116 
  146000    301.50052   -1803.7392   -22663.557   -24557.152    1893.5941    1.1578834    31.015963       31.016       31.016    29837.116 
  147000     304.3944    -1705.777   -22575.038   -24486.808    1911.7694    1.1578834    31.015963       31.016       31.016    29837.116 
  148000     294.4489   -1172.2241   -22754.809   -24604.115     1849.306    1.1578834    31.015963       31.016       31.016    29837.116 
  149000    306.37755    -1950.574   -22635.463   -24559.688    1924.2246    1.1578834    31.015963       31.016       31.016    29837.116 
  150000    308.06455   -1977.5654   -22675.399   -24610.219      1934.82    1.1578834    31.015963       31.016       31.016    29837.116 
  151000    301.96414   -2394.7894   -22670.325   -24566.831    1896.5059    1.1578834    31.015963       31.016       31.016    29837.116 
  152000    304.67223   -1188.2393   -22699.212   -24612.726    1913.5143    1.1578834    31.015963       31.016       31.016    29837.116 
  153000     297.9167   -2896.5562   -22749.376   -24620.462    1871.0857    1.1578834    31.015963       31.016       31.016    29837.116 
  154000    299.38781   -2142.5873    -22802.06   -24682.386    1880.3251    1.1578834    31.015963       31.016       31.016    29837.116 
  155000    303.51755   -2661.2243   -22706.755   -24613.018    1906.2622    1.1578834    31.015963       31.016       31.016    29837.116 
  156000    299.71203   -2506.9726   -22767.638       -24650    1882.3614    1.1578834    31.015963       31.016       31.016    29837.116 
  157000    303.21704   -2601.4818   -22765.061   -24669.436    1904.3749    1.1578834    31.015963       31.016       31.016    29837.116 
  158000    299.64333   -2344.6613   -22805.205   -24687.135      1881.93    1.1578834    31.015963       31.016       31.016    29837.116 
  159000    294.00248   -2721.0075   -22807.729   -24654.231    1846.5022    1.1578834    31.015963       31.016       31.016    29837.116 
  160000    289.36757   -1921.0814    -22850.62   -24668.012    1817.3924    1.1578834    31.015963       31.016       31.016    29837.116 
  161000    302.53451   -2813.1441   -22752.952   -24653.041    1900.0882    1.1578834    31.015963       31.016       31.016    29837.116 
  162000    302.33053   -2825.9916   -22770.045   -24668.852    1898.8071    1.1578834    31.015963       31.016       31.016    29837.116 
  163000    299.68629   -1609.1949   -22736.611   -24618.811    1882.1998    1.1578834    31.015963       31.016       31.016    29837.116 
  164000    300.45179   -2404.4554   -22700.844   -24587.852    1887.0075    1.1578834    31.015963       31.016       31.016    29837.116 
  165000    297.02252   -2410.5502   -22663.045   -24528.514    1865.4697    1.1578834    31.015963       31.016       31.016    29837.116 
  166000    303.78762   -2165.4614   -22646.388   -24554.346    1907.9584    1.1578834    31.015963       31.016       31.016    29837.116 
  167000    290.57859   -2453.3625   -22766.066   -24591.064    1824.9983    1.1578834    31.015963       31.016       31.016    29837.116 
  168000    297.82062   -1106.0485   -22763.567    -24634.05    1870.4823    1.1578834    31.015963       31.016       31.016    29837.116 
  169000    295.01331   -1116.2175   -22727.203   -24580.054    1852.8508    1.1578834    31.015963       31.016       31.016    29837.116 
  170000    301.65389   -2970.0016   -22742.947   -24637.504    1894.5574    1.1578834    31.015963       31.016       31.016    29837.116 
  171000    301.25672   -3057.8192   -22773.777    -24665.84     1892.063    1.1578834    31.015963       31.016       31.016    29837.116 
  172000    304.07459   -3576.1734   -22738.829    -24648.59    1909.7608    1.1578834    31.015963       31.016       31.016    29837.116 
  173000    303.47546   -1708.2271   -22771.067   -24677.065    1905.9979    1.1578834    31.015963       31.016       31.016    29837.116 
  174000     295.3314   -2858.5971   -22807.284   -24662.132    1854.8486    1.1578834    31.015963       31.016       31.016    29837.116 
  175000    297.76673   -2697.6023   -22696.802   -24566.946    1870.1438    1.1578834    31.015963       31.016       31.016    29837.116 
  176000    303.82986    -2413.613   -22592.077   -24500.301    1908.2237    1.1578834    31.015963       31.016       31.016    29837.116 
  177000    297.66396   -1770.1881   -22743.064   -24612.563    1869.4984    1.1578834    31.015963       31.016       31.016    29837.116 
  178000    299.08584   -1405.4669    -22704.77   -24583.199    1878.4286    1.1578834    31.015963       31.016       31.016    29837.116 
  179000    305.32824   -1981.0837   -22702.292   -24619.926    1917.6344    1.1578834    31.015963       31.016       31.016    29837.116 
  180000    295.17625   -2301.9281   -22765.629   -24619.503    1853.8742    1.1578834    31.015963       31.016       31.016    29837.116 
  181000    298.11815   -1802.8403   -22770.789    -24643.14    1872.3509    1.1578834    31.015963       31.016       31.016    29837.116 
  182000    308.36198   -1577.9661   -22677.374   -24614.062     1936.688    1.1578834    31.015963       31.016       31.016    29837.116 
  183000    295.92395   -2701.5635    -22834.99    -24693.56    1858.5701    1.1578834    31.015963       31.016       31.016    29837.116 
  184000    300.98421   -2118.4955   -22734.056   -24624.408    1890.3514    1.1578834    31.015963       31.016       31.016    29837.116 
  185000    307.32801   -2712.1353   -22713.052   -24643.246    1930.1941    1.1578834    31.015963       31.016       31.016    29837.116 
  186000    305.21543   -2638.4939   -22726.448   -24643.374    1916.9259    1.1578834    31.015963       31.016       31.016    29837.116 
  187000    298.83826   -3021.1717   -22795.413   -24672.286    1876.8736    1.1578834    31.015963       31.016       31.016    29837.116 
  188000    295.88584   -2549.2886    -22730.16    -24588.49    1858.3307    1.1578834    31.015963       31.016       31.016    29837.116 
  189000    297.87192   -2625.4166   -22710.734   -24581.538    1870.8045    1.1578834    31.015963       31.016       31.016    29837.116 
  190000    297.16562   -1814.6953   -22663.155   -24529.524    1866.3685    1.1578834    31.015963       31.016       31.016    29837.116 
  191000    299.99944   -2777.5328   -22800.109   -24684.276    1884.1665    1.1578834    31.015963       31.016       31.016    29837.116 
  192000    302.37206   -1162.5801   -22787.871   -24686.939    1899.0679    1.1578834    31.015963       31.016       31.016    29837.116 
  193000    291.99951   -1780.5772   -22810.246   -24644.168    1833.9224    1.1578834    31.015963       31.016       31.016    29837.116 
  194000     298.9561   -1918.5286   -22815.784   -24693.397    1877.6138    1.1578834    31.015963       31.016       31.016    29837.116 
  195000    303.18424   -2555.7414   -22733.467   -24637.636    1904.1689    1.1578834    31.015963       31.016       31.016    29837.116 
  196000    295.57735   -2305.9028    -22849.31   -24705.703    1856.3933    1.1578834    31.015963       31.016       31.016    29837.116 
  197000    312.57742   -1407.1877   -22715.638   -24678.801    1963.1634    1.1578834    31.015963       31.016       31.016    29837.116 
  198000    297.01372   -3209.1994   -22819.957   -24685.371    1865.4145    1.1578834    31.015963       31.016       31.016    29837.116 
  199000    301.71589   -2793.8731   -22798.862   -24693.808    1894.9468    1.1578834    31.015963       31.016       31.016    29837.116 
  200000    300.23435   -2054.4665   -22690.299   -24575.941    1885.6419    1.1578834    31.015963       31.016       31.016    29837.116 
  201000    299.49746   -1918.8981   -22830.278   -24711.292    1881.0138    1.1578834    31.015963       31.016       31.016    29837.116 
  202000     297.0144   -1716.3397   -22740.338   -24605.757    1865.4188    1.1578834    31.015963       31.016       31.016    29837.116 
  203000    294.59294   -2119.6063   -22756.833   -24607.043    1850.2106    1.1578834    31.015963       31.016       31.016    29837.116 
  204000    296.10714   -1614.2694   -22790.782   -24650.503    1859.7207    1.1578834    31.015963       31.016       31.016    29837.116 
  205000    305.41655   -2827.2874   -22788.844   -24707.033     1918.189    1.1578834    31.015963       31.016       31.016    29837.116 
  206000    302.03598   -2395.3675   -22666.789   -24563.746    1896.9571    1.1578834    31.015963       31.016       31.016    29837.116 
  207000     298.6608   -1476.5919   -22710.188   -24585.947    1875.7591    1.1578834    31.015963       31.016       31.016    29837.116 
  208000    293.85071   -897.00181   -22779.737   -24625.286     1845.549    1.1578834    31.015963       31.016       31.016    29837.116 
  209000    290.05484   -2097.3056   -22829.811    -24651.52    1821.7088    1.1578834    31.015963       31.016       31.016    29837.116 
  210000    292.93719   -2269.2778   -22792.408    -24632.22    1839.8116    1.1578834    31.015963       31.016       31.016    29837.116 
  211000    305.07151   -1839.7107   -22800.401   -24716.423     1916.022    1.1578834    31.015963       31.016       31.016    29837.116 
  212000    296.60991   -1636.3908    -22839.94   -24702.819    1862.8783    1.1578834    31.015963       31.016       31.016    29837.116 
  213000    302.00485   -3628.5686   -22768.096   -24664.857    1896.7616    1.1578834    31.015963       31.016       31.016    29837.116 
  214000    301.52557   -2850.3845   -22795.539   -24689.291    1893.7515    1.1578834    31.015963       31.016       31.016    29837.116 
  215000    295.70667   -1964.8221   -22777.809   -24635.014    1857.2055    1.1578834    31.015963       31.016       31.016    29837.116 
  216000    306.84297   -1744.0864   -22770.292    -24697.44    1927.1478    1.1578834    31.015963       31.016       31.016    29837.116 
  217000    297.09987   -2740.6937   -22767.614   -24633.569    1865.9556    1.1578834    31.015963       31.016       31.016    29837.116 
  218000    303.92031   -2302.7803   -22659.045   -24567.837    1908.7918    1.1578834    31.015963       31.016       31.016    29837.116 
  219000    301.91036   -1634.8654   -22781.499   -24677.668    1896.1682    1.1578834    31.015963       31.016       31.016    29837.116 
  220000    302.55661   -2831.6333   -22737.538   -24637.765     1900.227    1.1578834    31.015963       31.016       31.016    29837.116 
  221000    296.30524   -2570.3326   -22774.212   -24635.176    1860.9649    1.1578834    31.015963       31.016       31.016    29837.116 
  222000    300.66086   -2548.9988   -22750.222   -24638.543    1888.3206    1.1578834    31.015963       31.016       31.016    29837.116 
  223000    300.49488   -2730.0633   -22688.116   -24575.394    1887.2782    1.1578834    31.015963       31.016       31.016    29837.116 
  224000    302.93506   -2309.8277   -22769.074   -24671.678    1902.6039    1.1578834    31.015963       31.016       31.016    29837.116 
  225000    295.54654   -1959.7939   -22770.616   -24626.816    1856.1998    1.1578834    31.015963       31.016       31.016    29837.116 
  226000    299.99748   -3032.2953   -22731.823   -24615.977    1884.1542    1.1578834    31.015963       31.016       31.016    29837.116 
  227000     292.3574   -2841.9137    -22863.29    -24699.46    1836.1701    1.1578834    31.015963       31.016       31.016    29837.116 
  228000    292.80429   -2886.4659   -22864.394   -24703.371    1838.9769    1.1578834    31.015963       31.016       31.016    29837.116 
  229000    290.94294    -2469.742   -22855.515   -24682.802    1827.2865    1.1578834    31.015963       31.016       31.016    29837.116 
  230000    298.78877   -1873.2423   -22761.504   -24638.067    1876.5628    1.1578834    31.015963       31.016       31.016    29837.116 
  231000    299.10752   -1399.8337   -22816.166   -24694.731    1878.5647    1.1578834    31.015963       31.016       31.016    29837.116 
  232000    296.24726   -1349.3848   -22770.986   -24631.587    1860.6007    1.1578834    31.015963       31.016       31.016    29837.116 
  233000     300.6204   -2847.3604   -22731.006   -24619.072    1888.0665    1.1578834    31.015963       31.016       31.016    29837.116 
  234000    301.55381    -2456.118   -22718.498   -24612.427    1893.9288    1.1578834    31.015963       31.016       31.016    29837.116 
  235000    290.22098   -3516.5554   -22787.012   -24609.765    1822.7523    1.1578834    31.015963       31.016       31.016    29837.116 
  236000    296.31462    -1832.405   -22842.488   -24703.511    1861.0237    1.1578834    31.015963       31.016       31.016    29837.116 
  237000    304.38463   -2072.2912   -22707.651   -24619.359     1911.708    1.1578834    31.015963       31.016       31.016    29837.116 
  238000    287.80974   -2741.9048   -22773.523   -24581.131    1807.6083    1.1578834    31.015963       31.016       31.016    29837.116 
  239000    300.96938   -1909.7568   -22737.542   -24627.801    1890.2583    1.1578834    31.015963       31.016       31.016    29837.116 
  240000    302.82738   -2171.2408   -22669.067   -24570.995    1901.9276    1.1578834    31.015963       31.016       31.016    29837.116 
  241000    297.59173    -2668.133   -22799.363   -24668.408    1869.0448    1.1578834    31.015963       31.016       31.016    29837.116 
  242000    300.97263    -1435.327   -22749.189   -24639.468    1890.2787    1.1578834    31.015963       31.016       31.016    29837.116 
  243000    295.20681   -2176.6887   -22844.788   -24698.854    1854.0661    1.1578834    31.015963       31.016       31.016    29837.116 
  244000    299.12069    -1548.107   -22726.091   -24604.738    1878.6475    1.1578834    31.015963       31.016       31.016    29837.116 
  245000    293.24016   -1845.6559   -22677.024   -24518.738    1841.7144    1.1578834    31.015963       31.016       31.016    29837.116 
  246000    294.75832   -1802.6462   -22708.803   -24560.052    1851.2493    1.1578834    31.015963       31.016       31.016    29837.116 
  247000    305.65784   -2113.6139   -22601.717   -24521.421    1919.7045    1.1578834    31.015963       31.016       31.016    29837.116 
  248000    305.45068   -2060.5699   -22734.125   -24652.529    1918.4034    1.1578834    31.015963       31.016       31.016    29837.116 
  249000    296.70205   -2020.9966   -22660.408   -24523.865     1863.457    1.1578834    31.015963       31.016       31.016    29837.116 
  250000    290.82919   -2075.9548   -22724.603   -24551.175    1826.5722    1.1578834    31.015963       31.016       31.016    29837.116 
  251000    304.90877    -1596.061   -22716.963   -24631.963    1914.9999    1.1578834    31.015963       31.016       31.016    29837.116 
  252000    297.20641   -2612.7588   -22688.733   -24555.358    1866.6247    1.1578834    31.015963       31.016       31.016    29837.116 
  253000    299.67752   -2800.4857   -22741.582   -24623.727    1882.1447    1.1578834    31.015963       31.016       31.016    29837.116 
  254000    303.37965   -2281.6808   -22686.227   -24591.623    1905.3961    1.1578834    31.015963       31.016       31.016    29837.116 
  255000    303.50222   -2802.0849    -22728.74   -24634.906    1906.1659    1.1578834    31.015963       31.016       31.016    29837.116 
  256000    296.25938   -2052.8303   -22668.424   -24529.101    1860.6768    1.1578834    31.015963       31.016       31.016    29837.116 
  257000    301.53314   -2519.6499   -22799.462   -24693.261     1893.799    1.1578834    31.015963       31.016       31.016    29837.116 
  258000    302.91372   -1571.4931   -22731.013   -24633.483    1902.4699    1.1578834    31.015963       31.016       31.016    29837.116 
  259000     300.3616    -2618.337   -22833.752   -24720.193    1886.4411    1.1578834    31.015963       31.016       31.016    29837.116 
  260000    297.41753   -3558.4748    -22817.21    -24685.16    1867.9507    1.1578834    31.015963       31.016       31.016    29837.116 
  261000    298.90095   -2752.2599   -22840.505   -24717.772    1877.2673    1.1578834    31.015963       31.016       31.016    29837.116 
  262000    289.96578   -1876.5428   -22834.581    -24655.73    1821.1495    1.1578834    31.015963       31.016       31.016    29837.116 
  263000    300.10025   -2237.5514   -22820.813   -24705.612    1884.7996    1.1578834    31.015963       31.016       31.016    29837.116 
  264000    294.88356   -3268.1631   -22788.493   -24640.529    1852.0359    1.1578834    31.015963       31.016       31.016    29837.116 
  265000    299.46922   -2414.3412   -22786.537   -24667.373    1880.8364    1.1578834    31.015963       31.016       31.016    29837.116 
  266000    291.36571   -2899.7583     -22841.2   -24671.142    1829.9418    1.1578834    31.015963       31.016       31.016    29837.116 
  267000    302.14453   -2545.4439   -22806.305   -24703.943    1897.6389    1.1578834    31.015963       31.016       31.016    29837.116 
  268000    290.36166   -2400.7292   -22792.331   -24615.967    1823.6358    1.1578834    31.015963       31.016       31.016    29837.116 
  269000    301.52567   -2441.4525   -22750.366   -24644.118    1893.7521    1.1578834    31.015963       31.016       31.016    29837.116 
  270000    299.27214   -1871.1016   -22787.365   -24666.964    1879.5987    1.1578834    31.015963       31.016       31.016    29837.116 
  271000    288.45164   -2681.0345   -22772.593   -24584.233    1811.6398    1.1578834    31.015963       31.016       31.016    29837.116 
  272000    297.82358   -2232.9502   -22732.138   -24602.639    1870.5009    1.1578834    31.015963       31.016       31.016    29837.116 
  273000    302.93843   -1620.8559   -22767.061   -24669.686     1902.625    1.1578834    31.015963       31.016       31.016    29837.116 
  274000    296.95156   -2022.9956   -22816.563   -24681.587    1865.0241    1.1578834    31.015963       31.016       31.016    29837.116 
  275000    299.93373   -1537.1624   -22778.634   -24662.388    1883.7538    1.1578834    31.015963       31.016       31.016    29837.116 
  276000    296.12253   -1782.3335   -22737.661   -24597.479    1859.8173    1.1578834    31.015963       31.016       31.016    29837.116 
  277000    297.00541    -2218.972   -22684.935   -24550.298    1865.3623    1.1578834    31.015963       31.016       31.016    29837.116 
  278000    295.47659   -2524.8733    -22740.38   -24596.141    1855.7604    1.1578834    31.015963       31.016       31.016    29837.116 
  279000    306.16853   -3549.5803   -22719.582   -24642.494    1922.9119    1.1578834    31.015963       31.016       31.016    29837.116 
  280000    298.22928   -2889.6721   -22801.244   -24674.293    1873.0489    1.1578834    31.015963       31.016       31.016    29837.116 
  281000    294.60751   -1392.8355   -22815.786   -24666.088    1850.3021    1.1578834    31.015963       31.016       31.016    29837.116 
  282000    293.45191   -2916.2777   -22797.869   -24640.913    1843.0443    1.1578834    31.015963       31.016       31.016    29837.116 
  283000    296.84192   -2066.8825    -22736.28   -24600.616    1864.3355    1.1578834    31.015963       31.016       31.016    29837.116 
  284000    300.40934     -2020.61   -22807.514   -24694.255    1886.7409    1.1578834    31.015963       31.016       31.016    29837.116 
  285000    295.47729   -1851.3717   -22791.239   -24647.004    1855.7649    1.1578834    31.015963       31.016       31.016    29837.116 
  286000    290.59634   -2920.7985   -22827.508   -24652.618    1825.1097    1.1578834    31.015963       31.016       31.016    29837.116 
  287000    296.24412   -2294.0487   -22690.557   -24551.138     1860.581    1.1578834    31.015963       31.016       31.016    29837.116 
  288000     299.7881   -1755.6748   -22779.696   -24662.536    1882.8392    1.1578834    31.015963       31.016       31.016    29837.116 
  289000    299.30794    -1557.578   -22719.963   -24599.786    1879.8235    1.1578834    31.015963       31.016       31.016    29837.116 
  290000    292.69708   -1964.0453   -22805.838   -24644.141    1838.3035    1.1578834    31.015963       31.016       31.016    29837.116 
  291000    305.89807   -1609.6648    -22766.29   -24687.503    1921.2132    1.1578834    31.015963       31.016       31.016    29837.116 
  292000    308.13974   -3175.3243   -22582.453   -24517.746    1935.2922    1.1578834    31.015963       31.016       31.016    29837.116 
  293000    301.04013   -1786.1418   -22712.664   -24603.367    1890.7026    1.1578834    31.015963       31.016       31.016    29837.116 
  294000    307.50767   -1644.6376   -22756.856   -24688.178    1931.3225    1.1578834    31.015963       31.016       31.016    29837.116 
  295000    292.85704   -1547.0116   -22767.399   -24606.707    1839.3082    1.1578834    31.015963       31.016       31.016    29837.116 
  296000    298.23943   -3406.5835   -22818.093   -24691.205    1873.1127    1.1578834    31.015963       31.016       31.016    29837.116 
  297000    300.42955   -2571.6745   -22784.879   -24671.747    1886.8678    1.1578834    31.015963       31.016       31.016    29837.116 
  298000    299.94092   -2898.9473   -22787.222   -24671.021     1883.799    1.1578834    31.015963       31.016       31.016    29837.116 
  299000    300.16204   -1906.4695   -22800.274   -24685.462    1885.1877    1.1578834    31.015963       31.016       31.016    29837.116 
  300000    304.87928   -2778.6107    -22774.42   -24689.234    1914.8147    1.1578834    31.015963       31.016       31.016    29837.116 
  301000    293.84305   -3037.7798   -22711.819    -24557.32    1845.5009    1.1578834    31.015963       31.016       31.016    29837.116 
  302000    302.37352   -3019.3969   -22781.639   -24680.716    1899.0771    1.1578834    31.015963       31.016       31.016    29837.116 
  303000    297.43543   -2213.4197   -22745.962   -24614.025    1868.0631    1.1578834    31.015963       31.016       31.016    29837.116 
  304000    298.08278   -1951.1905   -22725.674   -24597.802    1872.1288    1.1578834    31.015963       31.016       31.016    29837.116 
  305000    289.22102   -2261.2387   -22746.535   -24563.007    1816.4719    1.1578834    31.015963       31.016       31.016    29837.116 
  306000    300.82033   -1717.5122   -22785.263   -24674.585    1889.3222    1.1578834    31.015963       31.016       31.016    29837.116 
  307000    298.69542   -2400.9454   -22760.035   -24636.012    1875.9766    1.1578834    31.015963       31.016       31.016    29837.116 
  308000    293.13525   -3005.6103   -22738.854    -24579.91    1841.0555    1.1578834    31.015963       31.016       31.016    29837.116 
  309000     295.7424   -2006.4665   -22756.204   -24613.634    1857.4299    1.1578834    31.015963       31.016       31.016    29837.116 
  310000    300.38353   -1625.8999   -22780.364   -24666.943    1886.5788    1.1578834    31.015963       31.016       31.016    29837.116 
  311000    299.89549   -1981.1616   -22803.394   -24686.908    1883.5137    1.1578834    31.015963       31.016       31.016    29837.116 
  312000    293.65054   -2935.7289   -22809.147   -24653.439    1844.2919    1.1578834    31.015963       31.016       31.016    29837.116 
  313000    297.45766   -2419.6949   -22785.124   -24653.327    1868.2027    1.1578834    31.015963       31.016       31.016    29837.116 
  314000    302.40689   -2109.5669    -22797.55   -24696.837    1899.2867    1.1578834    31.015963       31.016       31.016    29837.116 
  315000    302.87702      -1298.7   -22693.446   -24595.686    1902.2393    1.1578834    31.015963       31.016       31.016    29837.116 
  316000    307.20469   -2565.2465   -22615.702   -24545.122    1929.4196    1.1578834    31.015963       31.016       31.016    29837.116 
  317000    302.48658    -2119.477   -22790.503    -24690.29    1899.7872    1.1578834    31.015963       31.016       31.016    29837.116 
  318000    298.11411   -968.82217   -22775.013   -24647.339    1872.3256    1.1578834    31.015963       31.016       31.016    29837.116 
  319000    293.30673   -2689.8547   -22797.218    -24639.35    1842.1325    1.1578834    31.015963       31.016       31.016    29837.116 
  320000    299.27275   -1737.7826   -22831.826   -24711.428    1879.6025    1.1578834    31.015963       31.016       31.016    29837.116 
  321000     296.4104   -2182.4394   -22767.494   -24629.119    1861.6253    1.1578834    31.015963       31.016       31.016    29837.116 
  322000    296.53816   -2121.9984   -22801.746   -24664.174    1862.4277    1.1578834    31.015963       31.016       31.016    29837.116 
  323000    293.74953     -3130.09   -22773.383   -24618.296    1844.9135    1.1578834    31.015963       31.016       31.016    29837.116 
  324000    294.03939   -3375.6513    -22783.64   -24630.374     1846.734    1.1578834    31.015963       31.016       31.016    29837.116 
  325000    300.78524   -1762.2778   -22736.216   -24625.318    1889.1018    1.1578834    31.015963       31.016       31.016    29837.116 
  326000    301.46499   -2362.8166   -22758.603   -24651.974     1893.371    1.1578834    31.015963       31.016       31.016    29837.116 
  327000    298.05317   -2366.6681   -22785.827   -24657.769    1871.9428    1.1578834    31.015963       31.016       31.016    29837.116 
  328000     297.1137   -2441.9555   -22794.374   -24660.416    1866.0424    1.1578834    31.015963       31.016       31.016    29837.116 
  329000    290.54019   -2452.7359   -22832.238   -24656.995    1824.7571    1.1578834    31.015963       31.016       31.016    29837.116 
  330000    299.00626   -2621.1802   -22799.939   -24677.868    1877.9288    1.1578834    31.015963       31.016       31.016    29837.116 
  331000    295.95901   -1884.7709   -22730.831   -24589.621    1858.7904    1.1578834    31.015963       31.016       31.016    29837.116 
  332000    303.85999      -2696.6   -22801.472   -24709.885     1908.413    1.1578834    31.015963       31.016       31.016    29837.116 
  333000    296.23155   -2601.4743   -22733.916   -24594.418     1860.502    1.1578834    31.015963       31.016       31.016    29837.116 
  334000    295.46909   -2394.9202   -22736.053   -24591.766    1855.7134    1.1578834    31.015963       31.016       31.016    29837.116 
  335000     301.6927   -2468.7976     -22765.5   -24660.301    1894.8012    1.1578834    31.015963       31.016       31.016    29837.116 
  336000     301.2083   -2223.9675   -22832.163   -24723.921    1891.7588    1.1578834    31.015963       31.016       31.016    29837.116 
  337000    305.97481   -2479.2192   -22717.735    -24639.43    1921.6952    1.1578834    31.015963       31.016       31.016    29837.116 
  338000     300.6353   -2831.7183   -22784.199   -24672.359    1888.1601    1.1578834    31.015963       31.016       31.016    29837.116 
  339000    288.39915   -2688.1916   -22880.285   -24691.595    1811.3101    1.1578834    31.015963       31.016       31.016    29837.116 
  340000    297.26291   -2265.0063   -22783.342   -24650.322    1866.9796    1.1578834    31.015963       31.016       31.016    29837.116 
  341000    287.85855   -2623.7215   -22801.953   -24609.868    1807.9148    1.1578834    31.015963       31.016       31.016    29837.116 
  342000    296.10654   -2409.9373   -22780.247   -24639.964    1859.7169    1.1578834    31.015963       31.016       31.016    29837.116 
  343000    304.38116   -2160.8872   -22823.115   -24734.801    1911.6862    1.1578834    31.015963       31.016       31.016    29837.116 
  344000    302.83234   -2937.5903   -22823.821   -24725.779    1901.9588    1.1578834    31.015963       31.016       31.016    29837.116 
  345000    295.30495   -2585.5483   -22848.827    -24703.51    1854.6825    1.1578834    31.015963       31.016       31.016    29837.116 
  346000    295.32713   -1638.3416   -22845.211   -24700.032    1854.8217    1.1578834    31.015963       31.016       31.016    29837.116 
  347000    294.26108   -2520.2092   -22790.635   -24638.761    1848.1264    1.1578834    31.015963       31.016       31.016    29837.116 
  348000    299.93248   -1599.2178   -22828.029   -24711.775    1883.7459    1.1578834    31.015963       31.016       31.016    29837.116 
  349000    291.91951    -2314.156   -22908.736   -24742.156      1833.42    1.1578834    31.015963       31.016       31.016    29837.116 
  350000    303.25773   -2622.8929   -22832.232   -24736.862    1904.6304    1.1578834    31.015963       31.016       31.016    29837.116 
  351000    301.10561   -2475.5153   -22811.094   -24702.208    1891.1139    1.1578834    31.015963       31.016       31.016    29837.116 
  352000    297.41346   -1517.2673   -22862.336   -24730.261    1867.9251    1.1578834    31.015963       31.016       31.016    29837.116 
  353000    302.99166   -1880.2589   -22730.545   -24633.504    1902.9593    1.1578834    31.015963       31.016       31.016    29837.116 
  354000    296.20588    -2618.863   -22912.342   -24772.683    1860.3408    1.1578834    31.015963       31.016       31.016    29837.116 
  355000    290.56004   -2333.1679   -22734.037   -24558.919    1824.8818    1.1578834    31.015963       31.016       31.016    29837.116 
  356000    297.70921   -1187.4539   -22756.988   -24626.771    1869.7826    1.1578834    31.015963       31.016       31.016    29837.116 
  357000    293.18674   -1955.1991    -22749.29   -24590.669    1841.3789    1.1578834    31.015963       31.016       31.016    29837.116 
  358000    296.69173   -2912.3213   -22823.427   -24686.819    1863.3922    1.1578834    31.015963       31.016       31.016    29837.116 
  359000    301.00494   -2298.6684   -22786.681   -24677.163    1890.4816    1.1578834    31.015963       31.016       31.016    29837.116 
  360000    298.68432   -1774.1166    -22747.14   -24623.047    1875.9068    1.1578834    31.015963       31.016       31.016    29837.116 
  361000    301.31535   -2869.8552   -22771.385   -24663.816    1892.4312    1.1578834    31.015963       31.016       31.016    29837.116 
  362000    294.89134   -1446.7011    -22796.87   -24648.955    1852.0847    1.1578834    31.015963       31.016       31.016    29837.116 
  363000    306.34515   -782.18667   -22687.674   -24611.695    1924.0211    1.1578834    31.015963       31.016       31.016    29837.116 
  364000    296.99071   -287.64251   -22783.226   -24648.496      1865.27    1.1578834    31.015963       31.016       31.016    29837.116 
  365000     300.8298    -2538.174    -22745.78   -24635.161    1889.3816    1.1578834    31.015963       31.016       31.016    29837.116 
  366000    294.55543   -3804.4268   -22769.897   -24619.872     1849.975    1.1578834    31.015963       31.016       31.016    29837.116 
  367000    294.84223   -1895.6708   -22751.632   -24603.409    1851.7763    1.1578834    31.015963       31.016       31.016    29837.116 
  368000    295.45744   -3244.0628   -22848.609   -24704.249    1855.6402    1.1578834    31.015963       31.016       31.016    29837.116 
  369000    301.62626   -2694.9731   -22790.213   -24684.597    1894.3839    1.1578834    31.015963       31.016       31.016    29837.116 
  370000    298.12854   -2720.5589    -22873.51   -24745.926    1872.4162    1.1578834    31.015963       31.016       31.016    29837.116 
  371000    300.38412   -2553.1843   -22857.673   -24744.256    1886.5825    1.1578834    31.015963       31.016       31.016    29837.116 
  372000      298.848   -1784.4934    -22808.04   -24684.975    1876.9348    1.1578834    31.015963       31.016       31.016    29837.116 
  373000    302.82819   -2780.5005   -22808.045   -24709.977    1901.9327    1.1578834    31.015963       31.016       31.016    29837.116 
  374000    300.46477   -3279.1282    -22697.14   -24584.229    1887.0891    1.1578834    31.015963       31.016       31.016    29837.116 
  375000    305.16458   -2232.6229   -22789.552   -24706.158    1916.6065    1.1578834    31.015963       31.016       31.016    29837.116 
  376000    300.42203   -2810.8426   -22870.487   -24757.307    1886.8206    1.1578834    31.015963       31.016       31.016    29837.116 
  377000    290.93835   -1692.2054   -22814.178   -24641.436    1827.2577    1.1578834    31.015963       31.016       31.016    29837.116 
  378000    297.94754   -1668.4524   -22761.262   -24632.542    1871.2794    1.1578834    31.015963       31.016       31.016    29837.116 
  379000    301.35859   -2471.9998   -22790.044   -24682.747    1892.7028    1.1578834    31.015963       31.016       31.016    29837.116 
  380000    306.37667   -2703.9952   -22831.501    -24755.72    1924.2192    1.1578834    31.015963       31.016       31.016    29837.116 
  381000     303.5332   -2149.6076   -22848.014   -24754.375    1906.3606    1.1578834    31.015963       31.016       31.016    29837.116 
  382000    298.72206   -1822.1478   -22869.103   -24745.247    1876.1439    1.1578834    31.015963       31.016       31.016    29837.116 
  383000    295.54514   -1880.2486   -22894.164   -24750.354     1856.191    1.1578834    31.015963       31.016       31.016    29837.116 
  384000    297.56092   -1725.6327   -22838.731   -24707.583    1868.8512    1.1578834    31.015963       31.016       31.016    29837.116 
  385000    299.72903   -2295.2159   -22911.183   -24793.651    1882.4682    1.1578834    31.015963       31.016       31.016    29837.116 
  386000    301.11382   -2518.8464   -22867.925    -24759.09    1891.1655    1.1578834    31.015963       31.016       31.016    29837.116 
  387000     299.4451   -1430.7744   -22856.913   -24737.597     1880.685    1.1578834    31.015963       31.016       31.016    29837.116 
  388000    297.76065   -3185.1023   -22825.571   -24695.676    1870.1056    1.1578834    31.015963       31.016       31.016    29837.116 
  389000    296.39124   -2161.5595   -22862.612   -24724.117     1861.505    1.1578834    31.015963       31.016       31.016    29837.116 
  390000    299.51656   -2472.0686   -22805.834   -24686.968    1881.1337    1.1578834    31.015963       31.016       31.016    29837.116 
  391000    298.92136   -3169.4223   -22811.456   -24688.851    1877.3955    1.1578834    31.015963       31.016       31.016    29837.116 
  392000    293.61079   -1987.0614    -22867.63   -24711.672    1844.0422    1.1578834    31.015963       31.016       31.016    29837.116 
  393000    304.79675   -2359.6869   -22748.294    -24662.59    1914.2963    1.1578834    31.015963       31.016       31.016    29837.116 
  394000     296.6821   -2508.8679   -22820.646   -24683.978    1863.3317    1.1578834    31.015963       31.016       31.016    29837.116 
  395000    298.36774   -2564.8843   -22901.953   -24775.872    1873.9185    1.1578834    31.015963       31.016       31.016    29837.116 
  396000    296.31854   -3209.4868    -22996.04   -24857.088    1861.0484    1.1578834    31.015963       31.016       31.016    29837.116 
  397000    299.57775   -2659.6487   -22880.665   -24762.183    1881.5181    1.1578834    31.015963       31.016       31.016    29837.116 
  398000    303.88473   -2757.5236   -22754.959   -24663.528    1908.5683    1.1578834    31.015963       31.016       31.016    29837.116 
  399000    301.19145   -3487.1784   -22845.338   -24736.991     1891.653    1.1578834    31.015963       31.016       31.016    29837.116 
  400000    294.09208    -1416.655    -22914.37   -24761.435    1847.0649    1.1578834    31.015963       31.016       31.016    29837.116 
  401000    292.36304   -2530.7314   -22929.772   -24765.977    1836.2056    1.1578834    31.015963       31.016       31.016    29837.116 
  402000     291.4379   -3503.0641   -22897.657   -24728.052    1830.3952    1.1578834    31.015963       31.016       31.016    29837.116 
  403000    296.49015   -3108.4507   -22895.345   -24757.471    1862.1262    1.1578834    31.015963       31.016       31.016    29837.116 
  404000    290.72582   -2360.2466   -22788.105   -24614.027     1825.923    1.1578834    31.015963       31.016       31.016    29837.116 
  405000    301.16062   -2561.7011   -22785.008   -24676.468    1891.4594    1.1578834    31.015963       31.016       31.016    29837.116 
  406000    300.62825    -3203.848   -22794.793   -24682.909    1888.1158    1.1578834    31.015963       31.016       31.016    29837.116 
  407000    296.96563   -2524.8757   -22898.363   -24763.475    1865.1124    1.1578834    31.015963       31.016       31.016    29837.116 
  408000    290.72256   -3412.8581   -22942.652   -24768.555    1825.9025    1.1578834    31.015963       31.016       31.016    29837.116 
  409000    294.09888   -3045.3292   -22838.653   -24685.761    1847.1076    1.1578834    31.015963       31.016       31.016    29837.116 
  410000    303.58739   -2913.3666   -22797.813   -24704.514    1906.7009    1.1578834    31.015963       31.016       31.016    29837.116 
  411000    294.65807   -2392.3779    -22819.94    -24670.56    1850.6197    1.1578834    31.015963       31.016       31.016    29837.116 
  412000    298.42466   -2569.2872   -22821.164    -24695.44     1874.276    1.1578834    31.015963       31.016       31.016    29837.116 
  413000      303.124   -2885.7209   -22810.817   -24714.608    1903.7905    1.1578834    31.015963       31.016       31.016    29837.116 
  414000    303.42762   -2240.0141   -22634.267   -24539.964    1905.6974    1.1578834    31.015963       31.016       31.016    29837.116 
  415000    305.85539   -2073.9388   -22855.037   -24775.982    1920.9452    1.1578834    31.015963       31.016       31.016    29837.116 
  416000    298.85389   -2856.0155   -22872.333   -24749.305    1876.9718    1.1578834    31.015963       31.016       31.016    29837.116 
  417000    295.02025   -2007.5554    -22784.37   -24637.264    1852.8944    1.1578834    31.015963       31.016       31.016    29837.116 
  418000     293.7643   -1989.1201   -22838.368   -24683.374    1845.0063    1.1578834    31.015963       31.016       31.016    29837.116 
  419000    299.79622   -1642.2217   -22799.549   -24682.439    1882.8902    1.1578834    31.015963       31.016       31.016    29837.116 
  420000    292.86592   -2700.6328   -22854.661   -24694.025     1839.364    1.1578834    31.015963       31.016       31.016    29837.116 
  421000    307.05562   -2379.1484   -22750.797   -24679.281    1928.4833    1.1578834    31.015963       31.016       31.016    29837.116 
  422000    298.40888    -3273.578   -22887.237   -24761.414    1874.1769    1.1578834    31.015963       31.016       31.016    29837.116 
  423000    307.22725   -2143.3474   -22735.252   -24664.813    1929.5613    1.1578834    31.015963       31.016       31.016    29837.116 
  424000    293.66407   -2311.7365   -22885.916   -24730.292    1844.3768    1.1578834    31.015963       31.016       31.016    29837.116 
  425000    298.65284   -2484.1526   -22825.451    -24701.16    1875.7091    1.1578834    31.015963       31.016       31.016    29837.116 
  426000    299.79074   -3320.8674   -22856.036   -24738.892    1882.8557    1.1578834    31.015963       31.016       31.016    29837.116 
  427000    294.12205   -3352.1521   -22906.702   -24753.955    1847.2532    1.1578834    31.015963       31.016       31.016    29837.116 
  428000    309.61962   -2707.4669   -22711.678   -24656.264    1944.5867    1.1578834    31.015963       31.016       31.016    29837.116 
  429000    299.42297   -2218.5371   -22806.233   -24686.779    1880.5459    1.1578834    31.015963       31.016       31.016    29837.116 
  430000    288.52072   -1925.0414   -22808.799   -24620.872    1812.0737    1.1578834    31.015963       31.016       31.016    29837.116 
  431000    298.50597   -1746.1372   -22741.941   -24616.728    1874.7867    1.1578834    31.015963       31.016       31.016    29837.116 
  432000    299.24533   -2143.0671   -22810.503   -24689.934    1879.4303    1.1578834    31.015963       31.016       31.016    29837.116 
  433000     298.2931   -2158.7474   -22839.821   -24713.271    1873.4498    1.1578834    31.015963       31.016       31.016    29837.116 
  434000    304.08508   -2580.9523   -22777.323    -24687.15    1909.8267    1.1578834    31.015963       31.016       31.016    29837.116 
  435000    306.29861   -3279.8191   -22765.641    -24689.37    1923.7289    1.1578834    31.015963       31.016       31.016    29837.116 
  436000    295.02307   -2883.7042   -22878.123   -24731.035    1852.9121    1.1578834    31.015963       31.016       31.016    29837.116 
  437000    295.36549   -2138.5868   -22770.609   -24625.672    1855.0627    1.1578834    31.015963       31.016       31.016    29837.116 
  438000    302.54452   -1334.0929   -22804.564   -24704.715     1900.151    1.1578834    31.015963       31.016       31.016    29837.116 
  439000    296.49166    -1878.964   -22763.564   -24625.699    1862.1357    1.1578834    31.015963       31.016       31.016    29837.116 
  440000    300.32009    -1738.422     -22840.3    -24726.48    1886.1804    1.1578834    31.015963       31.016       31.016    29837.116 
  441000     294.7102   -1753.8789   -22813.103    -24664.05    1850.9471    1.1578834    31.015963       31.016       31.016    29837.116 
  442000    304.24346    -1579.611   -22708.507   -24619.328    1910.8214    1.1578834    31.015963       31.016       31.016    29837.116 
  443000    296.52857   -1506.8086   -22866.022   -24728.389    1862.3675    1.1578834    31.015963       31.016       31.016    29837.116 
  444000    310.20772   -2864.2661    -22698.52     -24646.8    1948.2803    1.1578834    31.015963       31.016       31.016    29837.116 
  445000    301.04436   -2974.4648   -22838.771     -24729.5    1890.7292    1.1578834    31.015963       31.016       31.016    29837.116 
  446000    296.59623   -2523.3868   -22896.737   -24759.529    1862.7924    1.1578834    31.015963       31.016       31.016    29837.116 
  447000    307.48097   -1768.5753    -22738.41   -24669.564    1931.1548    1.1578834    31.015963       31.016       31.016    29837.116 
  448000    298.74804   -981.36069   -22864.484   -24740.791     1876.307    1.1578834    31.015963       31.016       31.016    29837.116 
  449000    306.91876   -2146.8069   -22686.639   -24614.263    1927.6237    1.1578834    31.015963       31.016       31.016    29837.116 
  450000    296.72845   -2502.9644   -22807.768   -24671.391    1863.6228    1.1578834    31.015963       31.016       31.016    29837.116 
  451000    295.88652   -2047.1256   -22862.273   -24720.609    1858.3351    1.1578834    31.015963       31.016       31.016    29837.116 
  452000    304.17649     -2698.54   -22791.622   -24702.023    1910.4008    1.1578834    31.015963       31.016       31.016    29837.116 
  453000     306.5167   -2927.6457   -22813.479   -24738.578    1925.0986    1.1578834    31.015963       31.016       31.016    29837.116 
  454000    297.05104   -1453.2977   -22789.049   -24654.698    1865.6489    1.1578834    31.015963       31.016       31.016    29837.116 
  455000    296.63554   -1483.6327   -22869.557   -24732.596    1863.0393    1.1578834    31.015963       31.016       31.016    29837.116 
  456000    305.04839   -2722.9078   -22637.813    -24553.69    1915.8768    1.1578834    31.015963       31.016       31.016    29837.116 
  457000    299.02597   -2723.5598   -22798.518    -24676.57    1878.0525    1.1578834    31.015963       31.016       31.016    29837.116 
  458000    300.68688   -2814.8673    -22904.76   -24793.244     1888.484    1.1578834    31.015963       31.016       31.016    29837.116 
  459000    308.17193   -3183.2888    -22742.94   -24678.434    1935.4944    1.1578834    31.015963       31.016       31.016    29837.116 
  460000    290.81762   -2937.9009   -22817.583   -24644.083    1826.4995    1.1578834    31.015963       31.016       31.016    29837.116 
  461000    292.98425   -2302.6823   -22790.431   -24630.539    1840.1071    1.1578834    31.015963       31.016       31.016    29837.116 
  462000    294.80297    -2699.484   -22813.477   -24665.007    1851.5298    1.1578834    31.015963       31.016       31.016    29837.116 
  463000    305.47162   -2631.5428   -22760.028   -24678.563    1918.5349    1.1578834    31.015963       31.016       31.016    29837.116 
  464000    306.72826   -2152.2788   -22745.543   -24671.971    1926.4273    1.1578834    31.015963       31.016       31.016    29837.116 
  465000    294.23914   -2518.2614   -22800.075   -24648.064    1847.9886    1.1578834    31.015963       31.016       31.016    29837.116 
  466000    294.65686   -2887.8829   -22850.137   -24700.749    1850.6121    1.1578834    31.015963       31.016       31.016    29837.116 
  467000    303.43069   -3176.9861   -22887.884   -24793.601    1905.7167    1.1578834    31.015963       31.016       31.016    29837.116 
  468000    297.31791   -2303.0088   -22872.748   -24740.073     1867.325    1.1578834    31.015963       31.016       31.016    29837.116 
  469000    299.24567   -2284.2226   -22863.576   -24743.008    1879.4324    1.1578834    31.015963       31.016       31.016    29837.116 
  470000    304.89276   -2650.1162   -22895.632   -24810.532    1914.8993    1.1578834    31.015963       31.016       31.016    29837.116 
  471000    300.03827   -3503.2524   -22828.477   -24712.887    1884.4104    1.1578834    31.015963       31.016       31.016    29837.116 
  472000    298.96962   -2622.9878   -22819.551    -24697.25    1877.6987    1.1578834    31.015963       31.016       31.016    29837.116 
  473000    296.40665   -2093.6852   -22861.715   -24723.317    1861.6017    1.1578834    31.015963       31.016       31.016    29837.116 
  474000    300.50476   -3278.3014    -22880.16     -24767.5    1887.3402    1.1578834    31.015963       31.016       31.016    29837.116 
  475000    306.10807   -2963.7525   -22803.286   -24725.818    1922.5322    1.1578834    31.015963       31.016       31.016    29837.116 
  476000    306.84749   -3575.2668   -22938.624     -24865.8    1927.1762    1.1578834    31.015963       31.016       31.016    29837.116 
  477000    301.57007   -2742.4146   -22803.379    -24697.41     1894.031    1.1578834    31.015963       31.016       31.016    29837.116 
  478000     293.4701   -1325.2033   -22881.569   -24724.727    1843.1586    1.1578834    31.015963       31.016       31.016    29837.116 
  479000    294.82937    -1986.862   -22756.096   -24607.791    1851.6956    1.1578834    31.015963       31.016       31.016    29837.116 
  480000    292.99948   -2659.9201   -22881.335   -24721.538    1840.2028    1.1578834    31.015963       31.016       31.016    29837.116 
  481000     302.8268   -2520.7223   -22707.076       -24609    1901.9239    1.1578834    31.015963       31.016       31.016    29837.116 
  482000    297.88402   -2395.1905   -22844.851   -24715.732    1870.8805    1.1578834    31.015963       31.016       31.016    29837.116 
  483000     298.9421   -2194.3012   -22881.828   -24759.354    1877.5259    1.1578834    31.015963       31.016       31.016    29837.116 
  484000     289.3104   -1818.9361    -22901.77   -24718.803    1817.0333    1.1578834    31.015963       31.016       31.016    29837.116 
  485000    298.72018   -1883.8265    -22889.27   -24765.402     1876.132    1.1578834    31.015963       31.016       31.016    29837.116 
  486000     301.2714   -1599.6734   -22718.606   -24610.762    1892.1552    1.1578834    31.015963       31.016       31.016    29837.116 
  487000     304.5801   -2983.1103   -22745.353   -24658.288    1912.9356    1.1578834    31.015963       31.016       31.016    29837.116 
  488000    306.61727   -1855.8616     -22777.6    -24703.33    1925.7302    1.1578834    31.015963       31.016       31.016    29837.116 
  489000     298.8611   -2654.4019   -22804.937   -24681.954    1877.0171    1.1578834    31.015963       31.016       31.016    29837.116 
  490000    299.22938   -1978.8709   -22853.474   -24732.804    1879.3301    1.1578834    31.015963       31.016       31.016    29837.116 
  491000    294.59648   -1953.5459   -22826.518   -24676.751    1850.2329    1.1578834    31.015963       31.016       31.016    29837.116 
  492000    304.63348   -3230.5937   -22712.003   -24625.274    1913.2709    1.1578834    31.015963       31.016       31.016    29837.116 
  493000      306.369    -2196.538   -22690.098   -24614.269    1924.1709    1.1578834    31.015963       31.016       31.016    29837.116 
  494000    297.09647   -3035.2832   -22737.764   -24603.698    1865.9342    1.1578834    31.015963       31.016       31.016    29837.116 
  495000    286.48847   -2937.0153   -22890.061   -24689.371      1799.31    1.1578834    31.015963       31.016       31.016    29837.116 
  496000    287.72515   -3048.8418   -22912.976   -24720.053     1807.077    1.1578834    31.015963       31.016       31.016    29837.116 
  497000    298.23451   -2747.8499   -22827.834   -24700.915    1873.0818    1.1578834    31.015963       31.016       31.016    29837.116 
  498000    305.69742   -3706.8053   -22774.335   -24694.288    1919.9531    1.1578834    31.015963       31.016       31.016    29837.116 
  499000    309.15781   -2623.1022   -22773.343   -24715.029    1941.6863    1.1578834    31.015963       31.016       31.016    29837.116 
  500000     303.2612   -3010.8657   -22763.057    -24667.71    1904.6522    1.1578834    31.015963       31.016       31.016    29837.116 
  501000    299.62499   -2444.0463   -22811.885   -24693.699    1881.8147    1.1578834    31.015963       31.016       31.016    29837.116 
  502000    300.71318   -3564.8975   -22824.753   -24713.403    1888.6492    1.1578834    31.015963       31.016       31.016    29837.116 
  503000    298.51339   -3439.0192   -22785.956   -24660.789    1874.8333    1.1578834    31.015963       31.016       31.016    29837.116 
  504000    305.04613   -2379.6323   -22779.732   -24695.595    1915.8626    1.1578834    31.015963       31.016       31.016    29837.116 
  505000    295.70514   -2093.4108   -22798.271   -24655.467    1857.1959    1.1578834    31.015963       31.016       31.016    29837.116 
  506000    299.09238    -1994.094   -22795.271   -24673.741    1878.4697    1.1578834    31.015963       31.016       31.016    29837.116 
  507000    303.75852   -2821.2498   -22799.399   -24707.174    1907.7756    1.1578834    31.015963       31.016       31.016    29837.116 
  508000    301.09166   -1958.1009   -22749.036   -24640.062    1891.0263    1.1578834    31.015963       31.016       31.016    29837.116 
  509000    296.45498   -2368.6829   -22884.325    -24746.23    1861.9053    1.1578834    31.015963       31.016       31.016    29837.116 
  510000     305.6746   -1939.0799   -22748.821   -24668.631    1919.8097    1.1578834    31.015963       31.016       31.016    29837.116 
  511000    293.67612   -2090.7706   -22891.808   -24736.261    1844.4525    1.1578834    31.015963       31.016       31.016    29837.116 
  512000    304.83152   -2961.5528   -22819.478   -24733.992    1914.5147    1.1578834    31.015963       31.016       31.016    29837.116 
  513000    295.86163   -2183.4303    -22889.37   -24747.549    1858.1787    1.1578834    31.015963       31.016       31.016    29837.116 
  514000    295.70363   -1105.9291   -22938.039   -24795.226    1857.1864    1.1578834    31.015963       31.016       31.016    29837.116 
  515000    300.56119   -2504.4741   -22856.358   -24744.053    1887.6946    1.1578834    31.015963       31.016       31.016    29837.116 
  516000    309.05239   -2516.0326   -22756.706    -24697.73    1941.0242    1.1578834    31.015963       31.016       31.016    29837.116 
  517000    294.63956   -2143.5901   -22850.731   -24701.234    1850.5035    1.1578834    31.015963       31.016       31.016    29837.116 
  518000    299.74526   -3133.0828    -22828.28    -24710.85    1882.5701    1.1578834    31.015963       31.016       31.016    29837.116 
  519000    286.04329   -3056.0096   -22983.309   -24779.823     1796.514    1.1578834    31.015963       31.016       31.016    29837.116 
  520000    304.58929   -2715.6064   -22793.716   -24706.709    1912.9934    1.1578834    31.015963       31.016       31.016    29837.116 
  521000    301.27653   -3228.8949   -22867.932   -24760.119    1892.1874    1.1578834    31.015963       31.016       31.016    29837.116 
  522000    304.62448   -1836.5676   -22738.816    -24652.03    1913.2144    1.1578834    31.015963       31.016       31.016    29837.116 
  523000    292.49783   -2619.7395   -22915.724   -24752.777    1837.0522    1.1578834    31.015963       31.016       31.016    29837.116 
  524000    300.95865     -2385.96   -22719.253   -24609.444    1890.1909    1.1578834    31.015963       31.016       31.016    29837.116 
  525000    299.85699   -567.67691   -22854.881   -24738.152    1883.2719    1.1578834    31.015963       31.016       31.016    29837.116 
  526000    299.70628   -2449.0128   -22831.637   -24713.963    1882.3253    1.1578834    31.015963       31.016       31.016    29837.116 
  527000    305.63589   -2287.8993   -22866.595   -24786.162    1919.5666    1.1578834    31.015963       31.016       31.016    29837.116 
  528000    307.13674   -2497.7381   -22756.377    -24685.37    1928.9928    1.1578834    31.015963       31.016       31.016    29837.116 
  529000    287.62626   -1997.9622   -22863.035   -24669.491    1806.4559    1.1578834    31.015963       31.016       31.016    29837.116 
  530000    295.15596   -2837.5354    -22839.84   -24693.587    1853.7467    1.1578834    31.015963       31.016       31.016    29837.116 
  531000    302.77179   -2205.2989   -22827.749   -24729.328    1901.5784    1.1578834    31.015963       31.016       31.016    29837.116 
  532000     303.8409   -2280.0992   -22772.189   -24680.482    1908.2931    1.1578834    31.015963       31.016       31.016    29837.116 
  533000    299.97455   -2266.3961   -22846.231   -24730.241    1884.0102    1.1578834    31.015963       31.016       31.016    29837.116 
  534000    295.55651   -3123.9365   -22854.309   -24710.572    1856.2624    1.1578834    31.015963       31.016       31.016    29837.116 
  535000    300.09892    -2565.965   -22898.719    -24783.51    1884.7913    1.1578834    31.015963       31.016       31.016    29837.116 
  536000    306.13062   -1978.3805   -22817.575   -24740.249    1922.6738    1.1578834    31.015963       31.016       31.016    29837.116 
  537000    298.35758   -2611.9348   -22783.281   -24657.136    1873.8547    1.1578834    31.015963       31.016       31.016    29837.116 
  538000    300.38194   -2790.5182   -22843.202   -24729.771    1886.5688    1.1578834    31.015963       31.016       31.016    29837.116 
  539000     291.2094   -2707.4766   -22874.587   -24703.548    1828.9601    1.1578834    31.015963       31.016       31.016    29837.116 
  540000    305.89402   -3243.5635    -22820.12   -24741.308    1921.1878    1.1578834    31.015963       31.016       31.016    29837.116 
  541000    298.15212   -2460.6215   -22747.169   -24619.734    1872.5643    1.1578834    31.015963       31.016       31.016    29837.116 
  542000    300.26669   -1846.3105   -22765.673   -24651.518     1885.845    1.1578834    31.015963       31.016       31.016    29837.116 
  543000    297.06552   -3685.2675   -22858.621   -24724.361    1865.7398    1.1578834    31.015963       31.016       31.016    29837.116 
  544000    290.26782   -2092.3717   -22866.792   -24689.838    1823.0464    1.1578834    31.015963       31.016       31.016    29837.116 
  545000    298.80753   -2172.5722   -22857.703   -24734.383    1876.6806    1.1578834    31.015963       31.016       31.016    29837.116 
  546000     298.7106      -3752.9    -22852.97   -24729.041    1876.0719    1.1578834    31.015963       31.016       31.016    29837.116 
  547000    294.81221   -2677.2778   -22917.836   -24769.424    1851.5878    1.1578834    31.015963       31.016       31.016    29837.116 
  548000    304.15179   -2298.5204   -22758.851   -24669.097    1910.2457    1.1578834    31.015963       31.016       31.016    29837.116 
  549000    309.81963   -1316.9782   -22735.015   -24680.858    1945.8429    1.1578834    31.015963       31.016       31.016    29837.116 
  550000    290.00759   -2555.4544   -22781.611   -24603.023     1821.412    1.1578834    31.015963       31.016       31.016    29837.116 
  551000    302.03276   -1416.2656    -22799.46   -24696.397    1896.9369    1.1578834    31.015963       31.016       31.016    29837.116 
  552000    301.19047   -1319.6797   -22747.142   -24638.789    1891.6469    1.1578834    31.015963       31.016       31.016    29837.116 
  553000    302.44912   -1368.2261   -22748.378    -24647.93    1899.5519    1.1578834    31.015963       31.016       31.016    29837.116 
  554000    297.77799   -2246.2038   -22813.923   -24684.138    1870.2146    1.1578834    31.015963       31.016       31.016    29837.116 
  555000    297.77184   -2031.3132    -22731.42   -24601.596    1870.1759    1.1578834    31.015963       31.016       31.016    29837.116 
  556000    293.53317   -2272.4483     -22772.6   -24616.155    1843.5547    1.1578834    31.015963       31.016       31.016    29837.116 
  557000     301.6922   -2264.0181   -22853.673   -24748.471     1894.798    1.1578834    31.015963       31.016       31.016    29837.116 
  558000    296.29534   -3058.3082   -22807.712   -24668.614    1860.9027    1.1578834    31.015963       31.016       31.016    29837.116 
  559000    295.88627    -3205.327   -22807.876    -24666.21    1858.3335    1.1578834    31.015963       31.016       31.016    29837.116 
  560000    292.10808   -2610.0575   -22920.797   -24755.401    1834.6043    1.1578834    31.015963       31.016       31.016    29837.116 
  561000    302.93164   -2758.5717   -22853.735   -24756.317    1902.5824    1.1578834    31.015963       31.016       31.016    29837.116 
  562000    295.67145   -1979.5802   -22826.684   -24683.668    1856.9843    1.1578834    31.015963       31.016       31.016    29837.116 
  563000     294.6853   -2771.9186   -22811.011   -24661.802    1850.7907    1.1578834    31.015963       31.016       31.016    29837.116 
  564000    299.43786   -2354.8358   -22841.955   -24722.595    1880.6395    1.1578834    31.015963       31.016       31.016    29837.116 
  565000    305.50069   -3107.7483    -22783.58   -24702.298    1918.7175    1.1578834    31.015963       31.016       31.016    29837.116 
  566000    302.43473   -2538.4654   -22838.959   -24738.421    1899.4615    1.1578834    31.015963       31.016       31.016    29837.116 
  567000    299.03185   -2098.2197   -22786.638   -24664.728    1878.0895    1.1578834    31.015963       31.016       31.016    29837.116 
  568000    298.74933   -2877.4418   -22787.567   -24663.882    1876.3151    1.1578834    31.015963       31.016       31.016    29837.116 
  569000    302.92114   -2147.5764   -22840.703   -24743.219    1902.5164    1.1578834    31.015963       31.016       31.016    29837.116 
  570000    301.24773   -2355.7734   -22802.395   -24694.401    1892.0065    1.1578834    31.015963       31.016       31.016    29837.116 
  571000    299.34511   -2802.7324   -22806.908   -24686.965     1880.057    1.1578834    31.015963       31.016       31.016    29837.116 
  572000    297.38819   -2222.5766   -22808.026   -24675.792    1867.7664    1.1578834    31.015963       31.016       31.016    29837.116 
  573000    300.53434   -2695.7508   -22802.513   -24690.039     1887.526    1.1578834    31.015963       31.016       31.016    29837.116 
  574000    303.29227   -2082.2309   -22740.891   -24645.739    1904.8474    1.1578834    31.015963       31.016       31.016    29837.116 
  575000    295.18453   -2307.6005   -22838.067   -24691.993    1853.9262    1.1578834    31.015963       31.016       31.016    29837.116 
  576000    287.74533    -3422.371   -22952.948   -24760.152    1807.2038    1.1578834    31.015963       31.016       31.016    29837.116 
  577000    298.42655   -3141.9087   -22856.077   -24730.365    1874.2879    1.1578834    31.015963       31.016       31.016    29837.116 
  578000    298.88645   -2432.7265   -22917.564    -24794.74    1877.1763    1.1578834    31.015963       31.016       31.016    29837.116 
  579000    288.59308    -3755.556   -22914.369   -24726.897    1812.5281    1.1578834    31.015963       31.016       31.016    29837.116 
  580000    302.62587   -2959.3595   -22886.845   -24787.507     1900.662    1.1578834    31.015963       31.016       31.016    29837.116 
  581000    294.43075   -2308.4246   -22973.693   -24822.885     1849.192    1.1578834    31.015963       31.016       31.016    29837.116 
  582000    301.37385   -2605.2472   -22816.294   -24709.092    1892.7986    1.1578834    31.015963       31.016       31.016    29837.116 
  583000    303.55095   -3155.3767   -22861.004   -24767.476     1906.472    1.1578834    31.015963       31.016       31.016    29837.116 
  584000    300.81831   -3039.5928   -22956.838   -24846.148    1889.3095    1.1578834    31.015963       31.016       31.016    29837.116 
  585000    296.72667   -2655.7937   -22994.629   -24858.241    1863.6116    1.1578834    31.015963       31.016       31.016    29837.116 
  586000    298.33887   -3814.1632   -22996.685   -24870.422    1873.7372    1.1578834    31.015963       31.016       31.016    29837.116 
  587000    299.96811   -3322.7177    -22918.53     -24802.5    1883.9698    1.1578834    31.015963       31.016       31.016    29837.116 
  588000    289.67956    -3793.816   -23021.826   -24841.177    1819.3518    1.1578834    31.015963       31.016       31.016    29837.116 
  589000    290.16732    -3054.165   -23033.296   -24855.711    1822.4152    1.1578834    31.015963       31.016       31.016    29837.116 
  590000     299.8941   -3477.6408   -22897.993   -24781.498    1883.5049    1.1578834    31.015963       31.016       31.016    29837.116 
  591000    296.77325   -3067.6776   -22920.788   -24784.692    1863.9042    1.1578834    31.015963       31.016       31.016    29837.116 
  592000    296.78155   -3094.1559   -23004.159   -24868.116    1863.9564    1.1578834    31.015963       31.016       31.016    29837.116 
  593000    293.33496   -3376.2501   -22903.229   -24745.539    1842.3098    1.1578834    31.015963       31.016       31.016    29837.116 
  594000    302.21987   -1188.2861   -22761.836   -24659.948    1898.1121    1.1578834    31.015963       31.016       31.016    29837.116 
  595000     299.8633   -2061.0383   -22853.693   -24737.005    1883.3115    1.1578834    31.015963       31.016       31.016    29837.116 
  596000    294.22278   -2748.9719   -22922.403   -24770.288    1847.8858    1.1578834    31.015963       31.016       31.016    29837.116 
  597000    299.32245   -2978.7644   -22863.926    -24743.84    1879.9146    1.1578834    31.015963       31.016       31.016    29837.116 
  598000    296.87934    -2991.057   -22949.165   -24813.735    1864.5705    1.1578834    31.015963       31.016       31.016    29837.116 
  599000    300.99171   -2053.1733   -22925.895   -24816.294    1890.3985    1.1578834    31.015963       31.016       31.016    29837.116 
  600000    286.71577   -3506.4894   -22945.221   -24745.959    1800.7375    1.1578834    31.015963       31.016       31.016    29837.116 
  601000    301.96039   -2452.6178   -22899.134   -24795.616    1896.4824    1.1578834    31.015963       31.016       31.016    29837.116 
  602000     296.4906   -1989.6492   -22964.907   -24827.036     1862.129    1.1578834    31.015963       31.016       31.016    29837.116 
  603000    291.66608   -3025.1368   -23013.858   -24845.687    1831.8283    1.1578834    31.015963       31.016       31.016    29837.116 
  604000    299.02589    -2657.487   -22863.368    -24741.42    1878.0521    1.1578834    31.015963       31.016       31.016    29837.116 
  605000    294.84906   -3392.2223   -22939.981     -24791.8    1851.8192    1.1578834    31.015963       31.016       31.016    29837.116 
  606000    295.93254   -2625.0511   -22870.063   -24728.687    1858.6241    1.1578834    31.015963       31.016       31.016    29837.116 
  607000    295.82365    -2452.231   -22913.151   -24771.092    1857.9402    1.1578834    31.015963       31.016       31.016    29837.116 
  608000    295.16368   -2218.2117   -22901.435    -24755.23    1853.7952    1.1578834    31.015963       31.016       31.016    29837.116 
  609000    299.20081   -2978.5912   -22912.006   -24791.157    1879.1507    1.1578834    31.015963       31.016       31.016    29837.116 
  610000    295.47285   -3467.1997   -22930.471   -24786.208     1855.737    1.1578834    31.015963       31.016       31.016    29837.116 
  611000    299.78511   -2699.9302   -22897.164   -24779.985    1882.8204    1.1578834    31.015963       31.016       31.016    29837.116 
  612000    298.19447   -2784.8421   -22929.475   -24802.306    1872.8303    1.1578834    31.015963       31.016       31.016    29837.116 
  613000    300.69459   -2490.2039    -22845.92   -24734.453    1888.5325    1.1578834    31.015963       31.016       31.016    29837.116 
  614000    298.17077   -2511.2912    -22794.27   -24666.951    1872.6814    1.1578834    31.015963       31.016       31.016    29837.116 
  615000    297.56189     -1902.28   -22778.568   -24647.426    1868.8573    1.1578834    31.015963       31.016       31.016    29837.116 
  616000    298.09825   -3005.4965   -22890.016   -24762.242     1872.226    1.1578834    31.015963       31.016       31.016    29837.116 
  617000    305.68253   -2225.6089   -22807.585   -24727.445    1919.8595    1.1578834    31.015963       31.016       31.016    29837.116 
  618000    298.39599   -2397.7582   -22839.878   -24713.974     1874.096    1.1578834    31.015963       31.016       31.016    29837.116 
  619000    301.58586   -3022.2856   -22838.769   -24732.899    1894.1301    1.1578834    31.015963       31.016       31.016    29837.116 
  620000    293.14589   -2379.5329   -23031.277     -24872.4    1841.1223    1.1578834    31.015963       31.016       31.016    29837.116 
  621000    293.96167   -2419.3392   -22975.188   -24821.434    1846.2459    1.1578834    31.015963       31.016       31.016    29837.116 
  622000    300.56973   -2961.9448   -22936.909   -24824.657    1887.7482    1.1578834    31.015963       31.016       31.016    29837.116 
  623000    290.24021   -2462.4429   -23026.375   -24849.248     1822.873    1.1578834    31.015963       31.016       31.016    29837.116 
  624000    308.04024     -3287.78   -22839.044   -24773.711    1934.6673    1.1578834    31.015963       31.016       31.016    29837.116 
  625000    302.24776   -2529.2767   -22835.011   -24733.298    1898.2872    1.1578834    31.015963       31.016       31.016    29837.116 
  626000    296.55552   -2911.8486   -22903.424    -24765.96    1862.5367    1.1578834    31.015963       31.016       31.016    29837.116 
  627000    297.37528    -1819.326   -22907.552   -24775.237    1867.6853    1.1578834    31.015963       31.016       31.016    29837.116 
  628000    297.78186   -2982.7862   -22895.728   -24765.967    1870.2388    1.1578834    31.015963       31.016       31.016    29837.116 
  629000    296.34584   -3160.5483   -22903.252   -24764.472    1861.2198    1.1578834    31.015963       31.016       31.016    29837.116 
  630000    295.73424   -2721.6158   -22916.588   -24773.967    1857.3786    1.1578834    31.015963       31.016       31.016    29837.116 
  631000    305.20118   -2055.9207   -22826.382   -24743.218    1916.8364    1.1578834    31.015963       31.016       31.016    29837.116 
  632000    302.94569   -2824.8578   -22867.365   -24770.036    1902.6706    1.1578834    31.015963       31.016       31.016    29837.116 
  633000    299.32331   -3085.8418   -22889.321   -24769.241    1879.9201    1.1578834    31.015963       31.016       31.016    29837.116 
  634000    296.73316   -2107.8626   -22883.701   -24747.354    1863.6524    1.1578834    31.015963       31.016       31.016    29837.116 
  635000    298.40427   -2374.4536   -22887.704   -24761.851    1874.1479    1.1578834    31.015963       31.016       31.016    29837.116 
  636000    295.47327   -2036.3473   -22940.812   -24796.552    1855.7396    1.1578834    31.015963       31.016       31.016    29837.116 
  637000    283.88324    -2446.255   -22995.554   -24778.501    1782.9477    1.1578834    31.015963       31.016       31.016    29837.116 
  638000    305.57102   -3021.7114   -22829.617   -24748.776    1919.1592    1.1578834    31.015963       31.016       31.016    29837.116 
  639000    300.47426   -2175.4781   -22936.173   -24823.321    1887.1486    1.1578834    31.015963       31.016       31.016    29837.116 
  640000    300.95067   -2698.3641    -22722.03   -24612.171    1890.1408    1.1578834    31.015963       31.016       31.016    29837.116 
  641000    295.22262   -2697.6716   -22836.241   -24690.406    1854.1654    1.1578834    31.015963       31.016       31.016    29837.116 
  642000    309.20087   -2651.7195   -22870.265   -24812.221    1941.9567    1.1578834    31.015963       31.016       31.016    29837.116 
  643000    300.65979   -3824.6095   -22898.125   -24786.439    1888.3139    1.1578834    31.015963       31.016       31.016    29837.116 
  644000    311.42286    -2380.258   -22803.913   -24759.825    1955.9121    1.1578834    31.015963       31.016       31.016    29837.116 
  645000    294.01173   -2740.5456   -22997.149   -24843.709    1846.5603    1.1578834    31.015963       31.016       31.016    29837.116 
  646000    292.94984   -2672.4528   -22948.361   -24788.252    1839.8911    1.1578834    31.015963       31.016       31.016    29837.116 
  647000    297.26376   -1819.9778   -22947.946   -24814.931    1866.9849    1.1578834    31.015963       31.016       31.016    29837.116 
  648000    301.43165   -2814.0905   -22926.702   -24819.863    1893.1616    1.1578834    31.015963       31.016       31.016    29837.116 
  649000    295.22303   -3405.7127   -22904.201   -24758.369    1854.1679    1.1578834    31.015963       31.016       31.016    29837.116 
  650000    299.85819   -2129.0621   -22828.408   -24711.687    1883.2794    1.1578834    31.015963       31.016       31.016    29837.116 
  651000    296.23719   -1915.1657     -22874.1   -24734.637    1860.5375    1.1578834    31.015963       31.016       31.016    29837.116 
  652000    304.59538    -2962.088   -22844.926   -24757.958    1913.0316    1.1578834    31.015963       31.016       31.016    29837.116 
  653000    305.72303   -2363.9402   -22830.295   -24750.409    1920.1139    1.1578834    31.015963       31.016       31.016    29837.116 
  654000     296.5066   -1960.2838   -22938.741   -24800.971    1862.2295    1.1578834    31.015963       31.016       31.016    29837.116 
  655000    293.14714   -3570.3526   -22942.405   -24783.535    1841.1302    1.1578834    31.015963       31.016       31.016    29837.116 
  656000     308.3199   -2566.7804   -22803.461   -24739.885    1936.4237    1.1578834    31.015963       31.016       31.016    29837.116 
  657000    299.56725   -2930.0629   -22878.425   -24759.877    1881.4521    1.1578834    31.015963       31.016       31.016    29837.116 
  658000    295.82897   -1803.7518   -22885.518   -24743.491    1857.9736    1.1578834    31.015963       31.016       31.016    29837.116 
  659000    300.99112   -2200.6339   -22832.142   -24722.536    1890.3948    1.1578834    31.015963       31.016       31.016    29837.116 
  660000    298.74373   -3247.5912   -22865.622   -24741.902    1876.2799    1.1578834    31.015963       31.016       31.016    29837.116 
  661000    307.44476   -2958.9479   -22913.321   -24844.248    1930.9273    1.1578834    31.015963       31.016       31.016    29837.116 
  662000    297.00371   -2804.5347   -22909.665   -24775.017    1865.3516    1.1578834    31.015963       31.016       31.016    29837.116 
  663000    299.04548   -2070.7986   -22892.109   -24770.284    1878.1751    1.1578834    31.015963       31.016       31.016    29837.116 
  664000    294.87471   -2727.9952   -22909.674   -24761.654    1851.9803    1.1578834    31.015963       31.016       31.016    29837.116 
  665000    298.70189   -2872.9868   -22802.894   -24678.912    1876.0172    1.1578834    31.015963       31.016       31.016    29837.116 
  666000    294.57303   -2813.7715   -22907.626   -24757.711    1850.0856    1.1578834    31.015963       31.016       31.016    29837.116 
  667000    297.66428   -3025.3666    -22878.23   -24747.731    1869.5004    1.1578834    31.015963       31.016       31.016    29837.116 
  668000    307.27948   -2680.1521   -22767.308   -24697.198    1929.8893    1.1578834    31.015963       31.016       31.016    29837.116 
  669000    306.70704   -2993.3746   -22906.053   -24832.347    1926.2941    1.1578834    31.015963       31.016       31.016    29837.116 
  670000    297.60095   -2984.6436   -22866.866   -24735.969    1869.1026    1.1578834    31.015963       31.016       31.016    29837.116 
  671000    297.18899   -2611.6965   -22903.249   -24769.764    1866.5153    1.1578834    31.015963       31.016       31.016    29837.116 
  672000    304.80684   -2977.5519   -22877.263   -24791.623    1914.3597    1.1578834    31.015963       31.016       31.016    29837.116 
  673000    305.98578   -2683.4989   -22827.242   -24749.006    1921.7641    1.1578834    31.015963       31.016       31.016    29837.116 
  674000    301.25143   -2743.6141   -22898.426   -24790.455    1892.0297    1.1578834    31.015963       31.016       31.016    29837.116 
  675000    301.67769   -3264.2877    -22857.58   -24752.287    1894.7069    1.1578834    31.015963       31.016       31.016    29837.116 
  676000    305.08732   -3131.2751   -22872.353   -24788.474    1916.1213    1.1578834    31.015963       31.016       31.016    29837.116 
  677000     299.5457   -2872.0342   -22967.777   -24849.093    1881.3168    1.1578834    31.015963       31.016       31.016    29837.116 
  678000    301.91584   -2800.5091   -22989.618   -24885.821    1896.2026    1.1578834    31.015963       31.016       31.016    29837.116 
  679000    290.65657   -2874.1569   -22896.736   -24722.224     1825.488    1.1578834    31.015963       31.016       31.016    29837.116 
  680000    288.17003   -2713.6255   -22951.292   -24761.163    1809.8711    1.1578834    31.015963       31.016       31.016    29837.116 
  681000    309.39092   -2103.9964   -22736.161   -24679.311    1943.1503    1.1578834    31.015963       31.016       31.016    29837.116 
  682000    291.51355   -2107.9522   -22882.886   -24713.757    1830.8703    1.1578834    31.015963       31.016       31.016    29837.116 
  683000     297.0913   -2687.4807   -22928.996   -24794.898    1865.9018    1.1578834    31.015963       31.016       31.016    29837.116 
  684000    294.58047    -3133.701   -22926.402   -24776.534    1850.1323    1.1578834    31.015963       31.016       31.016    29837.116 
  685000    304.03505   -1926.9538   -22819.876   -24729.389    1909.5124    1.1578834    31.015963       31.016       31.016    29837.116 
  686000    295.06334   -2877.5987   -22901.164   -24754.329     1853.165    1.1578834    31.015963       31.016       31.016    29837.116 
  687000    305.39281   -2367.3474   -22945.632   -24863.672    1918.0399    1.1578834    31.015963       31.016       31.016    29837.116 
  688000     298.1662   -3398.1157   -22992.233   -24864.886    1872.6528    1.1578834    31.015963       31.016       31.016    29837.116 
  689000    297.92639    -2649.301   -22918.211   -24789.357    1871.1466    1.1578834    31.015963       31.016       31.016    29837.116 
  690000    293.15045   -3524.3143   -22989.047   -24830.198     1841.151    1.1578834    31.015963       31.016       31.016    29837.116 
  691000    302.04491   -2669.6175   -22972.564   -24869.578    1897.0132    1.1578834    31.015963       31.016       31.016    29837.116 
  692000    300.18106   -2961.8177   -22990.591   -24875.899    1885.3072    1.1578834    31.015963       31.016       31.016    29837.116 
  693000    293.37369   -2714.6263    -22939.98   -24782.533    1842.5531    1.1578834    31.015963       31.016       31.016    29837.116 
  694000    299.91734   -2334.2951   -22864.384   -24748.035    1883.6509    1.1578834    31.015963       31.016       31.016    29837.116 
  695000    292.15337   -2440.4223   -22942.554   -24777.443    1834.8888    1.1578834    31.015963       31.016       31.016    29837.116 
  696000    300.58571   -1739.8368   -22935.807   -24823.655    1887.8486    1.1578834    31.015963       31.016       31.016    29837.116 
  697000    296.92913   -2261.1819   -22913.669   -24778.552    1864.8832    1.1578834    31.015963       31.016       31.016    29837.116 
  698000    291.11189   -3543.0189   -22847.839   -24676.187    1828.3477    1.1578834    31.015963       31.016       31.016    29837.116 
  699000     297.0221   -2906.4715   -22854.113   -24719.581    1865.4672    1.1578834    31.015963       31.016       31.016    29837.116 
  700000    305.90701   -2836.6547   -22812.303   -24733.573    1921.2694    1.1578834    31.015963       31.016       31.016    29837.116 
  701000     297.2447   -3307.3727   -22924.349   -24791.215    1866.8652    1.1578834    31.015963       31.016       31.016    29837.116 
  702000    302.56955    -1705.775   -22824.848   -24725.157    1900.3083    1.1578834    31.015963       31.016       31.016    29837.116 
  703000    293.47502    -2758.936   -22896.318   -24739.507    1843.1895    1.1578834    31.015963       31.016       31.016    29837.116 
  704000    304.10306    -2949.448   -22808.417   -24718.357    1909.9396    1.1578834    31.015963       31.016       31.016    29837.116 
  705000    296.48393   -2206.9616   -22847.808   -24709.895    1862.0871    1.1578834    31.015963       31.016       31.016    29837.116 
  706000    302.05828    -2075.552    -22867.06   -24764.157    1897.0972    1.1578834    31.015963       31.016       31.016    29837.116 
  707000    294.69173   -2807.7643   -22904.148   -24754.979    1850.8311    1.1578834    31.015963       31.016       31.016    29837.116 
  708000    299.36314   -2555.8458   -22880.878   -24761.048    1880.1702    1.1578834    31.015963       31.016       31.016    29837.116 
  709000    293.53598   -3353.0973   -22855.659   -24699.231    1843.5723    1.1578834    31.015963       31.016       31.016    29837.116 
  710000    307.43849   -2303.6282   -22759.599   -24690.487    1930.8879    1.1578834    31.015963       31.016       31.016    29837.116 
  711000    294.61358   -3210.1361   -23004.109   -24854.449    1850.3403    1.1578834    31.015963       31.016       31.016    29837.116 
  712000    301.47904    -1715.718   -22894.901    -24788.36    1893.4592    1.1578834    31.015963       31.016       31.016    29837.116 
  713000    297.35618   -1735.8638    -22905.88   -24773.445    1867.5654    1.1578834    31.015963       31.016       31.016    29837.116 
  714000    298.30917   -3241.8353   -22932.853   -24806.403    1873.5507    1.1578834    31.015963       31.016       31.016    29837.116 
  715000    288.17027   -2791.2031   -22902.176   -24712.048    1809.8726    1.1578834    31.015963       31.016       31.016    29837.116 
  716000    295.40516   -2392.8535   -22949.018    -24804.33    1855.3119    1.1578834    31.015963       31.016       31.016    29837.116 
  717000     301.0537   -2190.9306   -22908.839   -24799.627    1890.7878    1.1578834    31.015963       31.016       31.016    29837.116 
  718000    292.97402   -3299.7002   -23044.998   -24885.041    1840.0429    1.1578834    31.015963       31.016       31.016    29837.116 
  719000    296.39143   -3416.6559   -22945.355   -24806.861    1861.5062    1.1578834    31.015963       31.016       31.016    29837.116 
  720000    302.67799   -3233.9042   -22858.113   -24759.102    1900.9894    1.1578834    31.015963       31.016       31.016    29837.116 
  721000    301.19557    -3393.441   -23023.813   -24915.492    1891.6789    1.1578834    31.015963       31.016       31.016    29837.116 
  722000    291.05009     -3035.19   -22927.958   -24755.917    1827.9595    1.1578834    31.015963       31.016       31.016    29837.116 
  723000    296.79411   -2889.2942   -22930.828   -24794.863    1864.0352    1.1578834    31.015963       31.016       31.016    29837.116 
  724000    299.06324   -3464.5292   -22969.369   -24847.656    1878.2866    1.1578834    31.015963       31.016       31.016    29837.116 
  725000    295.99398   -2722.1153   -22864.376   -24723.386      1859.01    1.1578834    31.015963       31.016       31.016    29837.116 
  726000    299.32493   -3348.5003    -22901.59    -24781.52    1879.9302    1.1578834    31.015963       31.016       31.016    29837.116 
  727000    304.44572   -1649.9608   -22809.584   -24721.676    1912.0917    1.1578834    31.015963       31.016       31.016    29837.116 
  728000    291.54112   -2662.1725   -22940.932   -24771.976    1831.0435    1.1578834    31.015963       31.016       31.016    29837.116 
  729000    300.75819   -1759.3542   -22929.152   -24818.084    1888.9319    1.1578834    31.015963       31.016       31.016    29837.116 
  730000     299.8847    -2363.661   -22876.079   -24759.525    1883.4459    1.1578834    31.015963       31.016       31.016    29837.116 
  731000       304.63   -2048.2789   -22790.294   -24703.543    1913.2491    1.1578834    31.015963       31.016       31.016    29837.116 
  732000    293.62941    -2009.514   -22858.536   -24702.695    1844.1591    1.1578834    31.015963       31.016       31.016    29837.116 
  733000    297.17316   -2409.0492   -22945.367   -24811.783    1866.4158    1.1578834    31.015963       31.016       31.016    29837.116 
  734000    296.00548   -2017.9581   -22861.385   -24720.467    1859.0822    1.1578834    31.015963       31.016       31.016    29837.116 
  735000    297.68569   -2495.8785   -22874.191   -24743.826    1869.6348    1.1578834    31.015963       31.016       31.016    29837.116 
  736000    304.76249   -3391.7946   -22962.489    -24876.57    1914.0812    1.1578834    31.015963       31.016       31.016    29837.116 
  737000    295.59947   -3644.5725   -22883.572   -24740.104    1856.5322    1.1578834    31.015963       31.016       31.016    29837.116 
  738000    297.81816   -3118.4316   -22882.682   -24753.149    1870.4668    1.1578834    31.015963       31.016       31.016    29837.116 
  739000    297.08392   -3967.0392   -22932.996   -24798.851    1865.8554    1.1578834    31.015963       31.016       31.016    29837.116 
  740000    298.68083   -2677.1519   -22903.456   -24779.341    1875.8849    1.1578834    31.015963       31.016       31.016    29837.116 
  741000    304.03085   -2455.2007   -22883.588   -24793.075    1909.4861    1.1578834    31.015963       31.016       31.016    29837.116 
  742000    300.24257   -1961.9417    -22903.24   -24788.934    1885.6935    1.1578834    31.015963       31.016       31.016    29837.116 
  743000    308.25878   -2079.0325   -22750.747   -24686.787    1936.0399    1.1578834    31.015963       31.016       31.016    29837.116 
  744000    296.38773   -3147.3403   -22825.735   -24687.218    1861.4829    1.1578834    31.015963       31.016       31.016    29837.116 
  745000    301.76681   -2282.8905   -22878.329   -24773.595    1895.2666    1.1578834    31.015963       31.016       31.016    29837.116 
  746000    298.62117   -3007.1354   -22941.763   -24817.273    1875.5102    1.1578834    31.015963       31.016       31.016    29837.116 
  747000    302.38256   -1958.8601   -22789.262   -24688.396    1899.1339    1.1578834    31.015963       31.016       31.016    29837.116 
  748000    302.11008   -3120.9475   -22804.602   -24702.024    1897.4225    1.1578834    31.015963       31.016       31.016    29837.116 
  749000    300.62541   -2621.2952   -22767.671   -24655.769    1888.0979    1.1578834    31.015963       31.016       31.016    29837.116 
  750000    286.54566   -2212.0324   -23022.727   -24822.396    1799.6692    1.1578834    31.015963       31.016       31.016    29837.116 
  751000    298.22357   -2365.9511   -22917.254   -24790.267    1873.0131    1.1578834    31.015963       31.016       31.016    29837.116 
  752000    301.03376   -1831.9368   -22831.601   -24722.264    1890.6626    1.1578834    31.015963       31.016       31.016    29837.116 
  753000    303.67178   -1933.0758   -22791.571   -24698.802    1907.2309    1.1578834    31.015963       31.016       31.016    29837.116 
  754000    300.11235   -784.18782   -22789.606   -24674.481    1884.8757    1.1578834    31.015963       31.016       31.016    29837.116 
  755000    299.68012   -1848.3823   -22841.632   -24723.793     1882.161    1.1578834    31.015963       31.016       31.016    29837.116 
  756000    293.31881   -2162.0241    -22904.59   -24746.798    1842.2084    1.1578834    31.015963       31.016       31.016    29837.116 
  757000    299.64881   -2635.9287   -22855.229   -24737.194    1881.9643    1.1578834    31.015963       31.016       31.016    29837.116 
  758000    303.88461   -2482.7701   -22823.475   -24732.043    1908.5676    1.1578834    31.015963       31.016       31.016    29837.116 
  759000    302.80124   -2387.3639   -22923.267    -24825.03    1901.7634    1.1578834    31.015963       31.016       31.016    29837.116 
  760000    298.02642   -3610.7579   -22889.724   -24761.499    1871.7748    1.1578834    31.015963       31.016       31.016    29837.116 
  761000    291.92295   -2309.2833   -22912.453   -24745.894    1833.4416    1.1578834    31.015963       31.016       31.016    29837.116 
  762000    293.91158   -1501.8272   -22886.642   -24732.573    1845.9313    1.1578834    31.015963       31.016       31.016    29837.116 
  763000    297.06376   -3041.4565   -22875.635   -24741.364    1865.7288    1.1578834    31.015963       31.016       31.016    29837.116 
  764000    296.43744   -2111.1701   -22939.987   -24801.782    1861.7951    1.1578834    31.015963       31.016       31.016    29837.116 
  765000    294.44854   -2351.2151   -22892.767    -24742.07    1849.3037    1.1578834    31.015963       31.016       31.016    29837.116 
  766000    296.81441   -2129.4807   -22899.448   -24763.611    1864.1627    1.1578834    31.015963       31.016       31.016    29837.116 
  767000    302.30013   -2650.0909   -22851.762   -24750.378    1898.6161    1.1578834    31.015963       31.016       31.016    29837.116 
  768000    297.11512   -3380.2329   -22956.613   -24822.664    1866.0513    1.1578834    31.015963       31.016       31.016    29837.116 
  769000    290.36952   -2513.0133   -22917.616   -24741.301    1823.6852    1.1578834    31.015963       31.016       31.016    29837.116 
  770000    294.81328   -3192.6218   -22877.948   -24729.543    1851.5945    1.1578834    31.015963       31.016       31.016    29837.116 
  771000    299.74277   -2590.5759   -22709.047   -24591.602    1882.5545    1.1578834    31.015963       31.016       31.016    29837.116 
  772000    295.08306   -3128.3839   -22891.701    -24744.99    1853.2889    1.1578834    31.015963       31.016       31.016    29837.116 
  773000    291.44551   -1615.2788   -22889.052   -24719.495     1830.443    1.1578834    31.015963       31.016       31.016    29837.116 
  774000    298.56939   -2980.0731   -22870.299   -24745.484     1875.185    1.1578834    31.015963       31.016       31.016    29837.116 
  775000    297.00088   -2877.3787   -22821.839   -24687.172    1865.3339    1.1578834    31.015963       31.016       31.016    29837.116 
  776000    301.88362   -2610.6959   -22876.846   -24772.847    1896.0002    1.1578834    31.015963       31.016       31.016    29837.116 
  777000    296.19199   -2703.2803   -22823.757   -24684.011    1860.2536    1.1578834    31.015963       31.016       31.016    29837.116 
  778000    309.19718   -2651.6361   -22876.607    -24818.54    1941.9335    1.1578834    31.015963       31.016       31.016    29837.116 
  779000    299.91474   -2537.8015   -22818.766     -24702.4    1883.6346    1.1578834    31.015963       31.016       31.016    29837.116 
  780000    305.17693   -2763.8673   -22811.496    -24728.18    1916.6841    1.1578834    31.015963       31.016       31.016    29837.116 
  781000    307.11954   -3040.6758   -22841.638   -24770.523    1928.8848    1.1578834    31.015963       31.016       31.016    29837.116 
  782000    297.09598   -2828.8435   -22884.737   -24750.668    1865.9311    1.1578834    31.015963       31.016       31.016    29837.116 
  783000    301.17295   -2476.2623   -22970.086   -24861.623    1891.5369    1.1578834    31.015963       31.016       31.016    29837.116 
  784000    291.67016   -1835.2679   -22977.444   -24809.298    1831.8539    1.1578834    31.015963       31.016       31.016    29837.116 
  785000    295.22107   -2498.7022   -22917.177   -24771.333    1854.1556    1.1578834    31.015963       31.016       31.016    29837.116 
  786000    310.52668    -3347.184   -22951.726   -24902.009    1950.2836    1.1578834    31.015963       31.016       31.016    29837.116 
  787000     290.9363   -2256.8326   -22992.471   -24819.716    1827.2448    1.1578834    31.015963       31.016       31.016    29837.116 
  788000    298.09829   -2446.0357   -22966.684    -24838.91    1872.2262    1.1578834    31.015963       31.016       31.016    29837.116 
  789000    300.59901   -3171.1861   -22928.956   -24816.888    1887.9321    1.1578834    31.015963       31.016       31.016    29837.116 
  790000    304.25564   -2450.7392    -22885.53   -24796.428    1910.8979    1.1578834    31.015963       31.016       31.016    29837.116 
  791000    299.62837   -3210.5741   -22922.249   -24804.085     1881.836    1.1578834    31.015963       31.016       31.016    29837.116 
  792000    304.13315   -2234.2319    -22924.71   -24834.839    1910.1285    1.1578834    31.015963       31.016       31.016    29837.116 
  793000    305.19224   -3236.8972   -22898.969   -24815.749    1916.7803    1.1578834    31.015963       31.016       31.016    29837.116 
  794000    295.87343   -2839.4676   -22976.311   -24834.564    1858.2528    1.1578834    31.015963       31.016       31.016    29837.116 
  795000    301.70685   -3273.9808    -22811.86    -24706.75      1894.89    1.1578834    31.015963       31.016       31.016    29837.116 
  796000    296.96447   -3620.9924   -22949.515    -24814.62    1865.1052    1.1578834    31.015963       31.016       31.016    29837.116 
  797000    295.69138   -3109.0121   -22963.841   -24820.951    1857.1094    1.1578834    31.015963       31.016       31.016    29837.116 
  798000    305.24033   -3193.5814   -22822.259   -24739.341    1917.0823    1.1578834    31.015963       31.016       31.016    29837.116 
  799000    305.42402   -3179.3091   -22877.167   -24795.403     1918.236    1.1578834    31.015963       31.016       31.016    29837.116 
  800000    292.99635   -3201.7629   -22971.168   -24811.352    1840.1831    1.1578834    31.015963       31.016       31.016    29837.116 
  801000    304.44518   -3258.8128   -22837.363   -24749.451    1912.0883    1.1578834    31.015963       31.016       31.016    29837.116 
  802000    295.28328   -2686.6166   -22899.071   -24753.618    1854.5463    1.1578834    31.015963       31.016       31.016    29837.116 
  803000    296.16036   -2615.0052   -22975.548   -24835.603    1860.0549    1.1578834    31.015963       31.016       31.016    29837.116 
  804000    301.08941   -2323.1135   -22843.029   -24734.041    1891.0121    1.1578834    31.015963       31.016       31.016    29837.116 
  805000    295.88972    -2631.108   -22966.449   -24824.805    1858.3551    1.1578834    31.015963       31.016       31.016    29837.116 
  806000    298.14405   -3219.7835   -22927.002   -24799.515    1872.5136    1.1578834    31.015963       31.016       31.016    29837.116 
  807000    300.14686   -2929.3432   -22911.955   -24797.048    1885.0924    1.1578834    31.015963       31.016       31.016    29837.116 
  808000     304.8746   -3290.0007   -22900.784   -24815.569    1914.7853    1.1578834    31.015963       31.016       31.016    29837.116 
  809000    288.80743   -2177.1125   -23042.249   -24856.123    1813.8744    1.1578834    31.015963       31.016       31.016    29837.116 
  810000    303.73324    -2371.784   -22946.122   -24853.739    1907.6169    1.1578834    31.015963       31.016       31.016    29837.116 
  811000    309.24235   -2632.5361   -22897.589   -24839.806    1942.2172    1.1578834    31.015963       31.016       31.016    29837.116 
  812000    302.87202   -2741.6941   -22853.158   -24755.366     1902.208    1.1578834    31.015963       31.016       31.016    29837.116 
  813000    299.70864   -2188.7272   -22862.266   -24744.606    1882.3401    1.1578834    31.015963       31.016       31.016    29837.116 
  814000    297.65511   -2421.4356   -22909.494   -24778.937    1869.4428    1.1578834    31.015963       31.016       31.016    29837.116 
  815000    299.02004   -2666.2446   -22792.449   -24670.464    1878.0153    1.1578834    31.015963       31.016       31.016    29837.116 
  816000     296.5374   -1898.7368   -22784.233   -24646.656     1862.423    1.1578834    31.015963       31.016       31.016    29837.116 
  817000    303.79662    -2487.681   -22862.001   -24770.016     1908.015    1.1578834    31.015963       31.016       31.016    29837.116 
  818000    297.64991   -2394.9114   -22839.401   -24708.811    1869.4101    1.1578834    31.015963       31.016       31.016    29837.116 
  819000    290.83702   -2582.7488   -22911.441   -24738.062    1826.6213    1.1578834    31.015963       31.016       31.016    29837.116 
  820000    297.87577   -2921.0292   -22899.361    -24770.19    1870.8286    1.1578834    31.015963       31.016       31.016    29837.116 
  821000    301.58001   -3096.4255   -22828.488   -24722.581    1894.0934    1.1578834    31.015963       31.016       31.016    29837.116 
  822000    302.28278   -2084.0157   -22879.195   -24777.702    1898.5072    1.1578834    31.015963       31.016       31.016    29837.116 
  823000    297.73694   -2764.8433    -22915.35   -24785.307    1869.9567    1.1578834    31.015963       31.016       31.016    29837.116 
  824000    297.81242   -2523.7613   -22942.052   -24812.482    1870.4308    1.1578834    31.015963       31.016       31.016    29837.116 
  825000    303.73862   -2970.8092   -22924.795   -24832.446    1907.6507    1.1578834    31.015963       31.016       31.016    29837.116 
  826000    306.68167   -2091.2934   -22853.446   -24779.581    1926.1347    1.1578834    31.015963       31.016       31.016    29837.116 
  827000    300.53997   -1938.7546   -22881.989    -24769.55    1887.5614    1.1578834    31.015963       31.016       31.016    29837.116 
  828000    300.77039   -2636.1229   -22947.163   -24836.172    1889.0085    1.1578834    31.015963       31.016       31.016    29837.116 
  829000    300.53298   -1941.4216   -22986.944   -24874.461    1887.5175    1.1578834    31.015963       31.016       31.016    29837.116 
  830000    297.60883   -3138.1773   -22966.858   -24836.011    1869.1522    1.1578834    31.015963       31.016       31.016    29837.116 
  831000    298.98376    -2871.592   -22837.666   -24715.453    1877.7875    1.1578834    31.015963       31.016       31.016    29837.116 
  832000    299.65797   -3640.8514   -22766.385   -24648.407    1882.0219    1.1578834    31.015963       31.016       31.016    29837.116 
  833000    306.60079   -3302.3751   -22751.154   -24676.781    1925.6267    1.1578834    31.015963       31.016       31.016    29837.116 
  834000    297.57103   -2588.1602   -22848.376   -24717.291    1868.9147    1.1578834    31.015963       31.016       31.016    29837.116 
  835000    299.54087   -2021.8688   -22849.882   -24731.168    1881.2864    1.1578834    31.015963       31.016       31.016    29837.116 
  836000    287.85519   -2014.9717   -22970.828   -24778.722    1807.8938    1.1578834    31.015963       31.016       31.016    29837.116 
  837000    288.59213   -2667.0662   -22975.128    -24787.65    1812.5222    1.1578834    31.015963       31.016       31.016    29837.116 
  838000    304.68564    -3023.063   -22882.578   -24796.177    1913.5985    1.1578834    31.015963       31.016       31.016    29837.116 
  839000    298.85882   -2102.2151   -22897.194   -24774.197    1877.0028    1.1578834    31.015963       31.016       31.016    29837.116 
  840000    310.74902   -2791.4983   -22781.411   -24733.091      1951.68    1.1578834    31.015963       31.016       31.016    29837.116 
  841000    300.33985   -1920.0688   -22925.714   -24812.018    1886.3045    1.1578834    31.015963       31.016       31.016    29837.116 
  842000    284.63152    -2856.855   -22977.159   -24764.806    1787.6473    1.1578834    31.015963       31.016       31.016    29837.116 
  843000    299.61481   -2783.5074   -22955.648   -24837.399    1881.7508    1.1578834    31.015963       31.016       31.016    29837.116 
  844000    295.05954    -2792.827   -22919.935   -24773.076    1853.1411    1.1578834    31.015963       31.016       31.016    29837.116 
  845000    303.57672    -3062.034   -22854.306    -24760.94    1906.6339    1.1578834    31.015963       31.016       31.016    29837.116 
  846000    305.15804   -2492.8642   -22841.427   -24757.993    1916.5655    1.1578834    31.015963       31.016       31.016    29837.116 
  847000     300.5744   -2156.4982   -22897.621   -24785.399    1887.7776    1.1578834    31.015963       31.016       31.016    29837.116 
  848000    296.51639   -2424.6522   -22962.262   -24824.553     1862.291    1.1578834    31.015963       31.016       31.016    29837.116 
  849000    298.71552   -1634.6056   -22832.849   -24708.952    1876.1028    1.1578834    31.015963       31.016       31.016    29837.116 
  850000    302.59244   -2624.3118    -22901.06   -24801.512     1900.452    1.1578834    31.015963       31.016       31.016    29837.116 
  851000    285.84228   -2456.8531   -22954.971   -24750.223    1795.2515    1.1578834    31.015963       31.016       31.016    29837.116 
  852000     297.7911    -3393.958   -22934.302   -24804.599    1870.2969    1.1578834    31.015963       31.016       31.016    29837.116 
  853000      302.108   -3023.3661    -22849.82   -24747.229    1897.4094    1.1578834    31.015963       31.016       31.016    29837.116 
  854000    305.46247   -3132.5325   -22851.951   -24770.428    1918.4775    1.1578834    31.015963       31.016       31.016    29837.116 
  855000    300.66076   -2491.8623   -22771.722   -24660.042      1888.32    1.1578834    31.015963       31.016       31.016    29837.116 
  856000    293.34293   -2244.0547   -22840.982   -24683.342    1842.3599    1.1578834    31.015963       31.016       31.016    29837.116 
  857000    298.48507   -3419.3934   -22981.381   -24856.037    1874.6554    1.1578834    31.015963       31.016       31.016    29837.116 
  858000    293.42874   -2735.0769   -22902.198   -24745.097    1842.8988    1.1578834    31.015963       31.016       31.016    29837.116 
  859000    298.62398   -2713.8583   -22920.741   -24796.268    1875.5278    1.1578834    31.015963       31.016       31.016    29837.116 
  860000    302.54923   -3193.0615   -22806.947   -24707.128    1900.1806    1.1578834    31.015963       31.016       31.016    29837.116 
  861000    289.65994   -2782.1842   -22950.627   -24769.855    1819.2286    1.1578834    31.015963       31.016       31.016    29837.116 
  862000    297.53055   -2319.2924   -22890.073   -24758.734    1868.6605    1.1578834    31.015963       31.016       31.016    29837.116 
  863000    303.03819   -3443.6939   -22926.632   -24829.884    1903.2516    1.1578834    31.015963       31.016       31.016    29837.116 
  864000    293.07771   -2912.9159   -22986.168   -24826.862    1840.6942    1.1578834    31.015963       31.016       31.016    29837.116 
  865000    308.46663   -2706.9539    -22851.95   -24789.296    1937.3453    1.1578834    31.015963       31.016       31.016    29837.116 
  866000    291.67406   -1938.8023   -22869.141    -24701.02    1831.8784    1.1578834    31.015963       31.016       31.016    29837.116 
  867000    297.71163   -2010.1952    -22879.72   -24749.518    1869.7978    1.1578834    31.015963       31.016       31.016    29837.116 
  868000    302.38267   -2949.6329   -22867.158   -24766.293    1899.1346    1.1578834    31.015963       31.016       31.016    29837.116 
  869000    292.14072   -2225.2426   -22899.096   -24733.906    1834.8093    1.1578834    31.015963       31.016       31.016    29837.116 
  870000      286.962   -2822.4346   -22934.516     -24736.8     1802.284    1.1578834    31.015963       31.016       31.016    29837.116 
  871000    306.01505   -2958.6177   -22835.588   -24757.536    1921.9479    1.1578834    31.015963       31.016       31.016    29837.116 
  872000    300.66855   -2398.5228   -22921.465   -24809.834    1888.3689    1.1578834    31.015963       31.016       31.016    29837.116 
  873000    298.21922   -2710.5486   -22978.864    -24851.85    1872.9857    1.1578834    31.015963       31.016       31.016    29837.116 
  874000    296.26956    -1878.496   -22898.057   -24758.798    1860.7407    1.1578834    31.015963       31.016       31.016    29837.116 
  875000    296.41722   -2840.7015    -22861.94   -24723.608    1861.6682    1.1578834    31.015963       31.016       31.016    29837.116 
  876000    296.37858   -3123.0235   -22948.592   -24810.018    1861.4254    1.1578834    31.015963       31.016       31.016    29837.116 
  877000    298.98263   -2791.5262   -22916.082   -24793.862    1877.7804    1.1578834    31.015963       31.016       31.016    29837.116 
  878000    298.66914   -1885.6939   -22884.875   -24760.687    1875.8115    1.1578834    31.015963       31.016       31.016    29837.116 
  879000    286.55724   -2714.0262   -23002.385   -24802.127    1799.7419    1.1578834    31.015963       31.016       31.016    29837.116 
  880000    306.01301    -2174.154   -22869.787   -24791.722    1921.9351    1.1578834    31.015963       31.016       31.016    29837.116 
  881000    306.00024   -2615.3333   -22880.531   -24802.386     1921.855    1.1578834    31.015963       31.016       31.016    29837.116 
  882000    301.84843   -2858.3239   -22951.074   -24846.853    1895.7792    1.1578834    31.015963       31.016       31.016    29837.116 
  883000    300.66757   -1628.8852   -22834.786   -24723.149    1888.3627    1.1578834    31.015963       31.016       31.016    29837.116 
  884000    299.73371   -2545.5548   -22932.541   -24815.039    1882.4976    1.1578834    31.015963       31.016       31.016    29837.116 
  885000    296.37716   -2944.7873   -22948.738   -24810.155    1861.4166    1.1578834    31.015963       31.016       31.016    29837.116 
  886000    299.03993   -3265.4429   -22876.461   -24754.601    1878.1403    1.1578834    31.015963       31.016       31.016    29837.116 
  887000    294.51904   -2953.8397    -22958.29   -24808.037    1849.7465    1.1578834    31.015963       31.016       31.016    29837.116 
  888000    291.11966   -3088.8944   -23028.875   -24857.271    1828.3965    1.1578834    31.015963       31.016       31.016    29837.116 
  889000    305.99435   -2868.3682   -22905.733   -24827.551    1921.8179    1.1578834    31.015963       31.016       31.016    29837.116 
  890000    294.89733   -2253.4839   -22995.495   -24847.618    1852.1224    1.1578834    31.015963       31.016       31.016    29837.116 
  891000    299.51708   -2987.1401   -22830.751   -24711.888     1881.137    1.1578834    31.015963       31.016       31.016    29837.116 
  892000    300.53098   -2926.1867   -22824.878   -24712.383    1887.5049    1.1578834    31.015963       31.016       31.016    29837.116 
  893000    301.66096   -3326.7283   -22956.727   -24851.329    1894.6018    1.1578834    31.015963       31.016       31.016    29837.116 
  894000    298.98223   -2595.5783   -22867.822     -24745.6    1877.7779    1.1578834    31.015963       31.016       31.016    29837.116 
  895000    303.31289   -3231.9654   -22954.582   -24859.559    1904.9769    1.1578834    31.015963       31.016       31.016    29837.116 
  896000    292.77499   -3399.6422   -23026.673   -24865.465    1838.7929    1.1578834    31.015963       31.016       31.016    29837.116 
  897000    304.54737   -2657.5667   -22914.648   -24827.378    1912.7301    1.1578834    31.015963       31.016       31.016    29837.116 
  898000    305.81712   -1885.5939   -22924.647   -24845.352    1920.7049    1.1578834    31.015963       31.016       31.016    29837.116 
  899000    297.17788   -2810.8801   -22994.518   -24860.963    1866.4455    1.1578834    31.015963       31.016       31.016    29837.116 
  900000    305.00193   -2649.1188    -22867.48   -24783.065     1915.585    1.1578834    31.015963       31.016       31.016    29837.116 
  901000    294.79282    -3188.798   -22954.137   -24805.603     1851.466    1.1578834    31.015963       31.016       31.016    29837.116 
  902000     297.4774   -3045.0868   -22955.012   -24823.339    1868.3267    1.1578834    31.015963       31.016       31.016    29837.116 
  903000    301.35125   -3129.5704   -22895.595   -24788.252    1892.6567    1.1578834    31.015963       31.016       31.016    29837.116 
  904000    292.57729   -2640.0441   -22921.891   -24759.442    1837.5512    1.1578834    31.015963       31.016       31.016    29837.116 
  905000    287.22087   -2301.3609   -22972.442   -24776.352    1803.9098    1.1578834    31.015963       31.016       31.016    29837.116 
  906000     293.1475   -2873.5427   -22908.798   -24749.931    1841.1325    1.1578834    31.015963       31.016       31.016    29837.116 
  907000    298.37678   -2800.0944   -22854.473   -24728.448    1873.9753    1.1578834    31.015963       31.016       31.016    29837.116 
  908000    290.01196   -3315.8091    -22991.33    -24812.77    1821.4395    1.1578834    31.015963       31.016       31.016    29837.116 
  909000    298.94306   -2947.2561   -22902.264   -24779.796    1877.5318    1.1578834    31.015963       31.016       31.016    29837.116 
  910000    306.37216   -1909.3487   -22888.397   -24812.588    1924.1908    1.1578834    31.015963       31.016       31.016    29837.116 
  911000    300.91821   -2157.8487   -22816.927   -24706.864    1889.9369    1.1578834    31.015963       31.016       31.016    29837.116 
  912000     304.8572   -2418.3832    -22801.34   -24716.016     1914.676    1.1578834    31.015963       31.016       31.016    29837.116 
  913000    288.84144   -2749.0569   -22909.948   -24724.036     1814.088    1.1578834    31.015963       31.016       31.016    29837.116 
  914000    299.06579   -2806.6736   -22909.065   -24787.368    1878.3027    1.1578834    31.015963       31.016       31.016    29837.116 
  915000     288.7776   -2070.0281   -22949.801   -24763.488     1813.687    1.1578834    31.015963       31.016       31.016    29837.116 
  916000    300.32451   -3086.3915   -22944.311   -24830.519    1886.2081    1.1578834    31.015963       31.016       31.016    29837.116 
  917000    299.48168   -2616.2579   -22845.586   -24726.501    1880.9147    1.1578834    31.015963       31.016       31.016    29837.116 
  918000    296.44202   -2680.5811   -22889.645   -24751.469    1861.8239    1.1578834    31.015963       31.016       31.016    29837.116 
  919000    298.80368   -2791.8482   -22869.693   -24746.349    1876.6565    1.1578834    31.015963       31.016       31.016    29837.116 
  920000    293.22474   -3054.8419   -22897.817   -24739.435    1841.6175    1.1578834    31.015963       31.016       31.016    29837.116 
  921000    298.55047    -2120.854   -23017.926   -24892.992    1875.0662    1.1578834    31.015963       31.016       31.016    29837.116 
  922000    298.00482   -1737.4959   -22819.456   -24691.095    1871.6391    1.1578834    31.015963       31.016       31.016    29837.116 
  923000    294.21234   -1297.1541   -22944.539   -24792.359    1847.8203    1.1578834    31.015963       31.016       31.016    29837.116 
  924000    297.30713   -2192.3438   -22948.368   -24815.625    1867.2573    1.1578834    31.015963       31.016       31.016    29837.116 
  925000    294.15169   -3130.3557   -22862.216   -24709.655    1847.4394    1.1578834    31.015963       31.016       31.016    29837.116 
  926000    301.95774   -2219.1273     -22832.2   -24728.666    1896.4657    1.1578834    31.015963       31.016       31.016    29837.116 
  927000     303.8719   -2840.2693   -22930.233   -24838.721    1908.4878    1.1578834    31.015963       31.016       31.016    29837.116 
  928000    297.69088   -2857.8528   -22985.367   -24855.034    1869.6674    1.1578834    31.015963       31.016       31.016    29837.116 
  929000    291.18417   -3411.9647   -23057.683   -24886.484    1828.8016    1.1578834    31.015963       31.016       31.016    29837.116 
  930000     293.2565   -3406.2689   -23020.431   -24862.249     1841.817    1.1578834    31.015963       31.016       31.016    29837.116 
  931000    305.37091   -1980.6822   -22951.234   -24869.136    1917.9024    1.1578834    31.015963       31.016       31.016    29837.116 
  932000    303.07125   -2276.6445   -22965.475   -24868.934    1903.4592    1.1578834    31.015963       31.016       31.016    29837.116 
  933000    300.57209   -1870.8373   -22922.349   -24810.112    1887.7631    1.1578834    31.015963       31.016       31.016    29837.116 
  934000    295.48445   -2445.9635    -22843.14    -24698.95    1855.8098    1.1578834    31.015963       31.016       31.016    29837.116 
  935000    293.77152   -1672.4722   -22915.492   -24760.543    1845.0517    1.1578834    31.015963       31.016       31.016    29837.116 
  936000    302.31207   -2750.6603   -22877.632   -24776.323    1898.6911    1.1578834    31.015963       31.016       31.016    29837.116 
  937000      302.346   -1407.9364   -22718.022   -24616.926    1898.9042    1.1578834    31.015963       31.016       31.016    29837.116 
  938000    306.58447   -2470.9725   -22898.559   -24824.084    1925.5242    1.1578834    31.015963       31.016       31.016    29837.116 
  939000    294.72028   -2264.0299   -22884.433   -24735.443    1851.0104    1.1578834    31.015963       31.016       31.016    29837.116 
  940000    300.86562   -1820.5305   -22891.337   -24780.943    1889.6066    1.1578834    31.015963       31.016       31.016    29837.116 
  941000    290.96023   -2216.6341   -22928.974   -24756.369    1827.3951    1.1578834    31.015963       31.016       31.016    29837.116 
  942000    302.43629   -2202.0034   -22815.143   -24714.614    1899.4713    1.1578834    31.015963       31.016       31.016    29837.116 
  943000    297.46648   -1469.8603   -22829.181   -24697.439    1868.2581    1.1578834    31.015963       31.016       31.016    29837.116 
  944000    310.01793   -2421.1064   -22787.066   -24734.154    1947.0883    1.1578834    31.015963       31.016       31.016    29837.116 
  945000    300.48716   -2506.1925   -22890.192   -24777.422    1887.2297    1.1578834    31.015963       31.016       31.016    29837.116 
  946000    301.90275   -2162.4756   -22866.172   -24762.293    1896.1204    1.1578834    31.015963       31.016       31.016    29837.116 
  947000    299.77174   -2485.7119   -22904.699   -24787.436    1882.7364    1.1578834    31.015963       31.016       31.016    29837.116 
  948000    295.29835   -2280.1184   -22842.577   -24697.218     1854.641    1.1578834    31.015963       31.016       31.016    29837.116 
  949000    291.48365   -2089.7153   -22846.514   -24677.196    1830.6825    1.1578834    31.015963       31.016       31.016    29837.116 
  950000    290.49392    -2172.255   -22948.684   -24773.151    1824.4665    1.1578834    31.015963       31.016       31.016    29837.116 
  951000    299.28973   -3115.9835   -22917.331    -24797.04    1879.7091    1.1578834    31.015963       31.016       31.016    29837.116 
  952000    296.01722   -3471.3407   -22859.233   -24718.389    1859.1559    1.1578834    31.015963       31.016       31.016    29837.116 
  953000    297.91778   -2460.8421   -22872.407     -24743.5    1871.0925    1.1578834    31.015963       31.016       31.016    29837.116 
  954000    303.05213   -2662.3656   -22797.957   -24701.296    1903.3392    1.1578834    31.015963       31.016       31.016    29837.116 
  955000     301.6655   -2056.8284   -22903.023   -24797.653    1894.6303    1.1578834    31.015963       31.016       31.016    29837.116 
  956000    299.42842   -2621.9637   -22884.309    -24764.89    1880.5802    1.1578834    31.015963       31.016       31.016    29837.116 
  957000    299.08256   -2258.2867   -22859.733   -24738.141     1878.408    1.1578834    31.015963       31.016       31.016    29837.116 
  958000    299.97007   -2254.4445   -22928.262   -24812.244     1883.982    1.1578834    31.015963       31.016       31.016    29837.116 
  959000    301.41585   -2899.8016   -22867.737     -24760.8    1893.0624    1.1578834    31.015963       31.016       31.016    29837.116 
  960000    299.40464   -2074.2181   -22977.241   -24857.671    1880.4309    1.1578834    31.015963       31.016       31.016    29837.116 
  961000    298.15174    -1728.339   -22882.117   -24754.679    1872.5619    1.1578834    31.015963       31.016       31.016    29837.116 
  962000    303.13141   -2139.3867   -22909.484   -24813.321    1903.8371    1.1578834    31.015963       31.016       31.016    29837.116 
  963000    298.39626   -1545.9328   -22867.665   -24741.763    1874.0977    1.1578834    31.015963       31.016       31.016    29837.116 
  964000    305.39272   -3514.0892   -22954.021   -24872.061    1918.0394    1.1578834    31.015963       31.016       31.016    29837.116 
  965000    297.12491   -2043.1695   -23041.155   -24907.268    1866.1128    1.1578834    31.015963       31.016       31.016    29837.116 
  966000    299.96045   -2154.8541   -22884.594   -24768.516    1883.9216    1.1578834    31.015963       31.016       31.016    29837.116 
  967000    304.01176   -1377.1093   -22947.408   -24856.774    1909.3661    1.1578834    31.015963       31.016       31.016    29837.116 
  968000    300.57289     -3263.64   -22888.309   -24776.077    1887.7681    1.1578834    31.015963       31.016       31.016    29837.116 
  969000    288.60276   -2679.9335   -22947.239   -24759.828    1812.5889    1.1578834    31.015963       31.016       31.016    29837.116 
  970000    298.15192   -3091.3588    -22946.14   -24818.703    1872.5631    1.1578834    31.015963       31.016       31.016    29837.116 
  971000    301.55648   -2728.1166   -22859.624    -24753.57    1893.9456    1.1578834    31.015963       31.016       31.016    29837.116 
  972000    305.94457   -2662.3995    -22843.02   -24764.525    1921.5053    1.1578834    31.015963       31.016       31.016    29837.116 
  973000    296.60193    -2275.595   -22863.471     -24726.3    1862.8282    1.1578834    31.015963       31.016       31.016    29837.116 
  974000    297.15063   -2142.0852   -22917.733   -24784.007    1866.2744    1.1578834    31.015963       31.016       31.016    29837.116 
  975000    295.56322   -2488.5642   -22946.986   -24803.291    1856.3045    1.1578834    31.015963       31.016       31.016    29837.116 
  976000    303.55579   -1321.1003   -22858.526   -24765.028    1906.5024    1.1578834    31.015963       31.016       31.016    29837.116 
  977000    310.80597   -2794.3806    -22765.56   -24717.598    1952.0377    1.1578834    31.015963       31.016       31.016    29837.116 
  978000    302.74458   -2029.8012   -22908.189   -24809.597    1901.4075    1.1578834    31.015963       31.016       31.016    29837.116 
  979000      293.518   -2620.8615   -22912.851   -24756.311    1843.4594    1.1578834    31.015963       31.016       31.016    29837.116 
  980000    302.53673   -2995.9517   -22907.656   -24807.759    1900.1021    1.1578834    31.015963       31.016       31.016    29837.116 
  981000    297.61019   -3065.1619   -22901.345   -24770.506    1869.1607    1.1578834    31.015963       31.016       31.016    29837.116 
  982000    297.78768   -2166.8267   -22990.148   -24860.423    1870.2754    1.1578834    31.015963       31.016       31.016    29837.116 
  983000     299.9075   -2426.3523   -22959.077   -24842.666    1883.5891    1.1578834    31.015963       31.016       31.016    29837.116 
  984000    297.51404   -2868.3401   -22942.617   -24811.173    1868.5568    1.1578834    31.015963       31.016       31.016    29837.116 
  985000    298.82535   -2562.0885   -22939.181   -24815.974    1876.7926    1.1578834    31.015963       31.016       31.016    29837.116 
  986000    297.61423   -3104.9249   -22957.084    -24826.27     1869.186    1.1578834    31.015963       31.016       31.016    29837.116 
  987000    310.26315   -2344.1494    -22824.09   -24772.718    1948.6284    1.1578834    31.015963       31.016       31.016    29837.116 
  988000    300.51252   -3054.5397   -22869.331    -24756.72    1887.3889    1.1578834    31.015963       31.016       31.016    29837.116 
  989000    303.81677   -3002.3892   -22995.152   -24903.294    1908.1415    1.1578834    31.015963       31.016       31.016    29837.116 
  990000    300.24399    -2583.341   -22962.764   -24848.466    1885.7024    1.1578834    31.015963       31.016       31.016    29837.116 
  991000     297.7246   -2686.7279   -22932.713   -24802.593    1869.8792    1.1578834    31.015963       31.016       31.016    29837.116 
  992000    295.22947    -2929.889    -22939.75   -24793.958    1854.2084    1.1578834    31.015963       31.016       31.016    29837.116 
  993000    301.40918   -2744.6779   -22847.538   -24740.559    1893.0205    1.1578834    31.015963       31.016       31.016    29837.116 
  994000    307.22078    -2630.589    -22886.74   -24816.261    1929.5206    1.1578834    31.015963       31.016       31.016    29837.116 
  995000    295.86213    -2353.823   -22884.564   -24742.746    1858.1819    1.1578834    31.015963       31.016       31.016    29837.116 
  996000      299.928    -2486.589   -22913.846   -24797.564    1883.7179    1.1578834    31.015963       31.016       31.016    29837.116 
  997000    300.82516   -3226.8994    -22948.51   -24837.863    1889.3525    1.1578834    31.015963       31.016       31.016    29837.116 
  998000    287.73236   -3137.2834   -22986.791   -24793.913    1807.1223    1.1578834    31.015963       31.016       31.016    29837.116 
  999000    298.31126   -2427.9926   -22929.724   -24803.288    1873.5638    1.1578834    31.015963       31.016       31.016    29837.116 
 1000000    296.49899   -1735.8569   -22945.138    -24807.32    1862.1817    1.1578834    31.015963       31.016       31.016    29837.116 
 1001000     297.0551   -2397.2987   -22943.095    -24808.77    1865.6744    1.1578834    31.015963       31.016       31.016    29837.116 
 1002000     298.0791   -2285.7333   -22864.752   -24736.857    1872.1057    1.1578834    31.015963       31.016       31.016    29837.116 
 1003000    295.30125   -2303.9352   -23022.629   -24877.288    1854.6592    1.1578834    31.015963       31.016       31.016    29837.116 
 1004000    304.95483   -1911.0185   -22791.358   -24706.647    1915.2892    1.1578834    31.015963       31.016       31.016    29837.116 
 1005000    299.72125   -3819.1981    -22949.36   -24831.779    1882.4193    1.1578834    31.015963       31.016       31.016    29837.116 
 1006000    306.64495    -2400.188   -22924.132   -24850.036    1925.9041    1.1578834    31.015963       31.016       31.016    29837.116 
 1007000    299.39991   -2852.1453   -22948.764   -24829.165    1880.4011    1.1578834    31.015963       31.016       31.016    29837.116 
 1008000    305.54322    -2522.283   -22930.943   -24849.927    1918.9846    1.1578834    31.015963       31.016       31.016    29837.116 
 1009000    292.53563    -2283.129   -22972.784   -24810.073    1837.2895    1.1578834    31.015963       31.016       31.016    29837.116 
 1010000    289.84446   -2578.1816   -22940.821   -24761.209    1820.3875    1.1578834    31.015963       31.016       31.016    29837.116 
 1011000    298.16045   -2371.2685   -22886.841   -24759.458    1872.6166    1.1578834    31.015963       31.016       31.016    29837.116 
 1012000    311.45356   -2325.0195   -22801.085    -24757.19    1956.1049    1.1578834    31.015963       31.016       31.016    29837.116 
 1013000    307.44721    -2973.704   -22861.217    -24792.16    1930.9427    1.1578834    31.015963       31.016       31.016    29837.116 
 1014000    304.01859   -2521.1429   -22853.032   -24762.441    1909.4091    1.1578834    31.015963       31.016       31.016    29837.116 
 1015000    302.97849     -2192.32   -22894.274    -24797.15    1902.8767    1.1578834    31.015963       31.016       31.016    29837.116 
 1016000    293.16053   -3232.8017   -22993.656    -24834.87    1841.2143    1.1578834    31.015963       31.016       31.016    29837.116 
 1017000    300.64914   -2417.6646   -22840.381   -24728.628     1888.247    1.1578834    31.015963       31.016       31.016    29837.116 
 1018000    297.45967   -2695.7359   -22957.529   -24825.744    1868.2153    1.1578834    31.015963       31.016       31.016    29837.116 
 1019000    291.54468   -2915.0715   -22950.332   -24781.398    1831.0659    1.1578834    31.015963       31.016       31.016    29837.116 
 1020000    301.71749   -2463.3106   -22904.449   -24799.406    1894.9569    1.1578834    31.015963       31.016       31.016    29837.116 
 1021000    296.81939   -1816.4121   -22921.491   -24785.685     1864.194    1.1578834    31.015963       31.016       31.016    29837.116 
 1022000    307.44029   -2577.2261   -22984.991    -24915.89    1930.8993    1.1578834    31.015963       31.016       31.016    29837.116 
 1023000    306.82674    -1823.917   -22878.209   -24805.255    1927.0458    1.1578834    31.015963       31.016       31.016    29837.116 
 1024000    302.03701   -2073.5832   -22941.775   -24838.739    1896.9636    1.1578834    31.015963       31.016       31.016    29837.116 
 1025000    293.91164   -3191.5272   -22932.164   -24778.095    1845.9317    1.1578834    31.015963       31.016       31.016    29837.116 
 1026000    300.34075   -2287.3198   -22935.729    -24822.04    1886.3101    1.1578834    31.015963       31.016       31.016    29837.116 
 1027000    303.54464   -2636.5971   -22900.247   -24806.679    1906.4324    1.1578834    31.015963       31.016       31.016    29837.116 
 1028000    292.21226   -2983.3024   -22976.026   -24811.285    1835.2586    1.1578834    31.015963       31.016       31.016    29837.116 
 1029000    296.22695   -3266.7478   -23023.615   -24884.089    1860.4732    1.1578834    31.015963       31.016       31.016    29837.116 
 1030000    297.19693   -3063.7697    -22846.71   -24713.275    1866.5652    1.1578834    31.015963       31.016       31.016    29837.116 
 1031000    301.53239   -3448.3594   -22957.275   -24851.069    1893.7943    1.1578834    31.015963       31.016       31.016    29837.116 
 1032000    306.60113   -2421.1806   -22963.582   -24889.211    1925.6289    1.1578834    31.015963       31.016       31.016    29837.116 
 1033000    296.65267   -2483.0763   -22988.523    -24851.67    1863.1469    1.1578834    31.015963       31.016       31.016    29837.116 
 1034000    307.49728   -2632.5132   -22841.556   -24772.813    1931.2572    1.1578834    31.015963       31.016       31.016    29837.116 
 1035000    302.40098   -3098.4567   -22955.653   -24854.903    1899.2495    1.1578834    31.015963       31.016       31.016    29837.116 
 1036000    301.75009   -2901.2397    -22932.04   -24827.201    1895.1616    1.1578834    31.015963       31.016       31.016    29837.116 
 1037000    289.53761   -2337.3487   -23056.324   -24874.784    1818.4603    1.1578834    31.015963       31.016       31.016    29837.116 
 1038000    292.42158   -2880.6884    -23030.91   -24867.483    1836.5733    1.1578834    31.015963       31.016       31.016    29837.116 
 1039000    304.83196   -3284.6932    -22890.43   -24804.948    1914.5175    1.1578834    31.015963       31.016       31.016    29837.116 
 1040000    297.96386   -3008.6952   -22996.261   -24867.643    1871.3819    1.1578834    31.015963       31.016       31.016    29837.116 
 1041000    307.77455    -3674.362   -22849.308   -24782.307    1932.9986    1.1578834    31.015963       31.016       31.016    29837.116 
 1042000    294.97938   -2980.8664   -22907.028   -24759.665    1852.6377    1.1578834    31.015963       31.016       31.016    29837.116 
 1043000    290.63159   -2717.8503    -22946.78   -24772.111    1825.3311    1.1578834    31.015963       31.016       31.016    29837.116 
 1044000    290.89954    -2279.194   -22994.723   -24821.737     1827.014    1.1578834    31.015963       31.016       31.016    29837.116 
 1045000    292.77118   -3225.5311   -22967.273   -24806.042    1838.7689    1.1578834    31.015963       31.016       31.016    29837.116 
 1046000    299.25756   -2810.5932   -22940.155   -24819.662    1879.5071    1.1578834    31.015963       31.016       31.016    29837.116 
 1047000    300.55688   -2562.7471   -22898.261   -24785.929    1887.6675    1.1578834    31.015963       31.016       31.016    29837.116 
 1048000    297.85746   -2461.0879   -23037.951   -24908.665    1870.7137    1.1578834    31.015963       31.016       31.016    29837.116 
 1049000    291.73011   -2021.7912   -22982.001   -24814.232    1832.2304    1.1578834    31.015963       31.016       31.016    29837.116 
 1050000    295.01689   -2423.7379   -22951.714   -24804.588    1852.8733    1.1578834    31.015963       31.016       31.016    29837.116 
 1051000    292.79794   -3017.9659   -23042.371   -24881.308     1838.937    1.1578834    31.015963       31.016       31.016    29837.116 
 1052000    289.39388    -3154.388   -23043.943   -24861.501    1817.5576    1.1578834    31.015963       31.016       31.016    29837.116 
 1053000    307.51135   -2007.1588   -22878.218   -24809.563    1931.3456    1.1578834    31.015963       31.016       31.016    29837.116 
 1054000    291.02772   -2888.7826   -22995.098   -24822.917     1827.819    1.1578834    31.015963       31.016       31.016    29837.116 
 1055000    294.41745   -2374.9805   -22897.051    -24746.16    1849.1084    1.1578834    31.015963       31.016       31.016    29837.116 
 1056000    293.16901   -3238.9951   -22940.258   -24781.526    1841.2675    1.1578834    31.015963       31.016       31.016    29837.116 
 1057000    301.81061    -2816.007   -22805.637   -24701.179    1895.5417    1.1578834    31.015963       31.016       31.016    29837.116 
 1058000    299.95671   -3705.2187   -22870.379   -24754.277    1883.8981    1.1578834    31.015963       31.016       31.016    29837.116 
 1059000    298.83671   -2494.3129   -22931.401   -24808.265    1876.8639    1.1578834    31.015963       31.016       31.016    29837.116 
 1060000    298.19307    -3755.286   -22998.857   -24871.678    1872.8215    1.1578834    31.015963       31.016       31.016    29837.116 
 1061000    302.26857   -2298.2967   -22897.869   -24796.287    1898.4179    1.1578834    31.015963       31.016       31.016    29837.116 
 1062000    298.70206   -2352.3659   -22986.716   -24862.734    1876.0182    1.1578834    31.015963       31.016       31.016    29837.116 
 1063000    296.83006   -2582.7929   -23013.015   -24877.276     1864.261    1.1578834    31.015963       31.016       31.016    29837.116 
 1064000    303.07127   -2641.8856   -22895.213   -24798.672    1903.4593    1.1578834    31.015963       31.016       31.016    29837.116 
 1065000    293.21924   -3140.1147    -22926.87   -24768.453     1841.583    1.1578834    31.015963       31.016       31.016    29837.116 
 1066000    296.78059   -2130.2813   -23020.268   -24884.218    1863.9503    1.1578834    31.015963       31.016       31.016    29837.116 
 1067000     304.1752   -2307.8702   -22892.848   -24803.241    1910.3927    1.1578834    31.015963       31.016       31.016    29837.116 
 1068000    303.83245   -2398.1831   -22849.491   -24757.731      1908.24    1.1578834    31.015963       31.016       31.016    29837.116 
 1069000    298.99819   -2951.1103    -22959.12   -24836.998    1877.8781    1.1578834    31.015963       31.016       31.016    29837.116 
 1070000    303.80335   -3102.7469     -22813.3   -24721.357    1908.0572    1.1578834    31.015963       31.016       31.016    29837.116 
 1071000    294.75352   -2807.1844   -22946.671    -24797.89    1851.2192    1.1578834    31.015963       31.016       31.016    29837.116 
 1072000    298.47941   -2333.1314   -22884.207   -24758.827    1874.6198    1.1578834    31.015963       31.016       31.016    29837.116 
 1073000    299.83138   -2864.8041   -22931.005   -24814.116     1883.111    1.1578834    31.015963       31.016       31.016    29837.116 
 1074000    297.39804   -2788.0224   -22940.323   -24808.151    1867.8282    1.1578834    31.015963       31.016       31.016    29837.116 
 1075000    294.15942   -2171.5129    -22933.74   -24781.227    1847.4879    1.1578834    31.015963       31.016       31.016    29837.116 
 1076000    295.51538   -2237.3921     -23015.8   -24871.804    1856.0041    1.1578834    31.015963       31.016       31.016    29837.116 
 1077000    297.37961   -2474.4459   -23018.188   -24885.901    1867.7125    1.1578834    31.015963       31.016       31.016    29837.116 
 1078000    291.71275   -3052.5489   -23010.661   -24842.782    1832.1214    1.1578834    31.015963       31.016       31.016    29837.116 
 1079000    293.16811   -2616.4861   -22946.529   -24787.791    1841.2619    1.1578834    31.015963       31.016       31.016    29837.116 
 1080000    290.55833   -2906.6426    -22943.21   -24768.081     1824.871    1.1578834    31.015963       31.016       31.016    29837.116 
 1081000    300.75645    -1913.549   -22826.272   -24715.193     1888.921    1.1578834    31.015963       31.016       31.016    29837.116 
 1082000     306.2883   -2678.0136   -22905.307   -24828.971    1923.6641    1.1578834    31.015963       31.016       31.016    29837.116 
 1083000     294.0916   -2453.1433   -22945.634   -24792.696    1847.0619    1.1578834    31.015963       31.016       31.016    29837.116 
 1084000    298.11542    -2544.921   -22981.985   -24854.319    1872.3338    1.1578834    31.015963       31.016       31.016    29837.116 
 1085000     290.3856   -2487.2645   -23022.357   -24846.144    1823.7862    1.1578834    31.015963       31.016       31.016    29837.116 
 1086000    302.00395   -2080.0094   -22907.284    -24804.04     1896.756    1.1578834    31.015963       31.016       31.016    29837.116 
 1087000    289.43544   -3164.9236   -23076.204   -24894.023    1817.8186    1.1578834    31.015963       31.016       31.016    29837.116 
 1088000    296.57732   -2797.3998   -22958.472   -24821.146    1862.6737    1.1578834    31.015963       31.016       31.016    29837.116 
 1089000    300.10126   -3302.6888   -22921.532   -24806.338     1884.806    1.1578834    31.015963       31.016       31.016    29837.116 
 1090000    287.61737   -2925.0833   -23032.641   -24839.041    1806.4001    1.1578834    31.015963       31.016       31.016    29837.116 
 1091000    283.33481    -2978.241   -22984.777    -24764.28    1779.5032    1.1578834    31.015963       31.016       31.016    29837.116 
 1092000    297.42147   -2611.0012   -22866.371   -24734.346    1867.9754    1.1578834    31.015963       31.016       31.016    29837.116 
 1093000     296.0511   -2703.1564   -23006.388   -24865.757    1859.3687    1.1578834    31.015963       31.016       31.016    29837.116 
 1094000    301.64591   -3068.5819   -22879.713   -24774.221    1894.5073    1.1578834    31.015963       31.016       31.016    29837.116 
 1095000    299.87334   -2476.3549   -23002.708   -24886.082    1883.3745    1.1578834    31.015963       31.016       31.016    29837.116 
 1096000    307.00358    -2124.463   -22978.931   -24907.087    1928.1565    1.1578834    31.015963       31.016       31.016    29837.116 
 1097000     299.3707   -2856.3019   -22903.263    -24783.48    1880.2177    1.1578834    31.015963       31.016       31.016    29837.116 
 1098000    291.99014   -2840.3291   -22923.104   -24756.968    1833.8636    1.1578834    31.015963       31.016       31.016    29837.116 
 1099000     308.8877    -1681.887   -22857.171    -24797.16    1939.9898    1.1578834    31.015963       31.016       31.016    29837.116 
 1100000    299.45223   -2552.0361   -23021.482   -24902.211    1880.7297    1.1578834    31.015963       31.016       31.016    29837.116 
 1101000    296.25587   -3150.2974   -22956.205   -24816.859    1860.6548    1.1578834    31.015963       31.016       31.016    29837.116 
 1102000    303.40222   -2620.9424   -22983.524   -24889.062    1905.5379    1.1578834    31.015963       31.016       31.016    29837.116 
 1103000     294.7642   -3420.0582   -22983.192   -24834.478    1851.2862    1.1578834    31.015963       31.016       31.016    29837.116 
 1104000     307.1764    -2796.804   -22894.952   -24824.194    1929.2419    1.1578834    31.015963       31.016       31.016    29837.116 
 1105000    294.35776   -2555.3652   -22855.719   -24704.452    1848.7336    1.1578834    31.015963       31.016       31.016    29837.116 
 1106000    298.11359   -3673.8736   -22940.356   -24812.678    1872.3223    1.1578834    31.015963       31.016       31.016    29837.116 
 1107000    297.84736    -2979.902    -22979.71   -24850.361    1870.6502    1.1578834    31.015963       31.016       31.016    29837.116 
 1108000    301.30842   -2997.2187   -22816.182   -24708.569    1892.3877    1.1578834    31.015963       31.016       31.016    29837.116 
 1109000    298.46661   -1837.7806   -22941.849   -24816.389    1874.5395    1.1578834    31.015963       31.016       31.016    29837.116 
 1110000    299.58393   -1938.0621   -22967.299   -24848.856    1881.5569    1.1578834    31.015963       31.016       31.016    29837.116 
 1111000    302.20466   -2074.9835    -22919.84   -24817.857    1898.0165    1.1578834    31.015963       31.016       31.016    29837.116 
 1112000     300.6708   -2879.9386   -22810.806   -24699.189    1888.3831    1.1578834    31.015963       31.016       31.016    29837.116 
 1113000    297.47206   -2230.9424   -22880.335   -24748.629    1868.2931    1.1578834    31.015963       31.016       31.016    29837.116 
 1114000    296.62606   -2445.9808   -22967.999   -24830.979    1862.9798    1.1578834    31.015963       31.016       31.016    29837.116 
 1115000    289.42596   -3326.9515   -22962.706   -24780.465    1817.7591    1.1578834    31.015963       31.016       31.016    29837.116 
 1116000    303.81592   -3084.0063   -22874.605   -24782.741    1908.1362    1.1578834    31.015963       31.016       31.016    29837.116 
 1117000    301.24651   -2893.5123   -22940.585   -24832.584    1891.9988    1.1578834    31.015963       31.016       31.016    29837.116 
 1118000     295.4044   -2891.4016   -22895.083    -24750.39    1855.3071    1.1578834    31.015963       31.016       31.016    29837.116 
 1119000    301.60488   -2593.3221   -22863.421    -24757.67    1894.2496    1.1578834    31.015963       31.016       31.016    29837.116 
 1120000    294.43602   -3145.2282   -22976.284   -24825.509    1849.2251    1.1578834    31.015963       31.016       31.016    29837.116 
 1121000    287.16244   -2171.9448   -23035.676   -24839.219    1803.5429    1.1578834    31.015963       31.016       31.016    29837.116 
 1122000    292.07522   -3021.6771   -22965.374   -24799.772    1834.3979    1.1578834    31.015963       31.016       31.016    29837.116 
 1123000    290.72854   -2558.7637   -22997.186   -24823.126      1825.94    1.1578834    31.015963       31.016       31.016    29837.116 
 1124000    297.16508   -3291.8802   -22977.494   -24843.859    1866.3651    1.1578834    31.015963       31.016       31.016    29837.116 
 1125000    293.87277   -2133.6996   -23025.944   -24871.632    1845.6876    1.1578834    31.015963       31.016       31.016    29837.116 
 1126000    299.54443   -2125.9104   -22910.693   -24792.002    1881.3088    1.1578834    31.015963       31.016       31.016    29837.116 
 1127000    301.27554    -2997.425   -22983.189    -24875.37    1892.1811    1.1578834    31.015963       31.016       31.016    29837.116 
 1128000    291.62495   -3125.6662   -23063.522   -24895.092      1831.57    1.1578834    31.015963       31.016       31.016    29837.116 
 1129000    302.60155   -3753.3292   -23056.168   -24956.678    1900.5093    1.1578834    31.015963       31.016       31.016    29837.116 
 1130000    305.99225   -2488.5409   -22961.462   -24883.267    1921.8048    1.1578834    31.015963       31.016       31.016    29837.116 
 1131000    302.11121   -3793.4319   -22889.234   -24786.664    1897.4296    1.1578834    31.015963       31.016       31.016    29837.116 
 1132000    302.75558   -3401.2128   -22998.728   -24900.204    1901.4767    1.1578834    31.015963       31.016       31.016    29837.116 
 1133000    292.03092   -1999.3706   -23091.846   -24925.966    1834.1197    1.1578834    31.015963       31.016       31.016    29837.116 
 1134000    303.23621   -3456.8388    -22957.32   -24861.815    1904.4953    1.1578834    31.015963       31.016       31.016    29837.116 
 1135000    298.80579   -2224.9845   -23054.106   -24930.776    1876.6697    1.1578834    31.015963       31.016       31.016    29837.116 
 1136000    300.16834   -2481.1025   -22981.154   -24866.381    1885.2273    1.1578834    31.015963       31.016       31.016    29837.116 
 1137000    299.85223   -2888.6113   -22948.338    -24831.58     1883.242    1.1578834    31.015963       31.016       31.016    29837.116 
 1138000    290.90264   -1654.5513   -23025.237    -24852.27    1827.0335    1.1578834    31.015963       31.016       31.016    29837.116 
 1139000    296.39545   -2602.1973   -22963.826   -24825.358    1861.5314    1.1578834    31.015963       31.016       31.016    29837.116 
 1140000    290.83969   -2870.2749   -22994.459   -24821.097    1826.6381    1.1578834    31.015963       31.016       31.016    29837.116 
 1141000     298.6111   -2884.7746   -23028.059   -24903.506    1875.4469    1.1578834    31.015963       31.016       31.016    29837.116 
 1142000    303.56247   -2445.4707   -22956.839   -24863.383    1906.5443    1.1578834    31.015963       31.016       31.016    29837.116 
 1143000    293.43563   -2728.3411   -23068.451   -24911.393    1842.9421    1.1578834    31.015963       31.016       31.016    29837.116 
 1144000    307.64702   -2440.1402   -22894.514   -24826.712    1932.1977    1.1578834    31.015963       31.016       31.016    29837.116 
 1145000    297.56312   -2891.8917   -22997.528   -24866.393     1868.865    1.1578834    31.015963       31.016       31.016    29837.116 
 1146000    297.83638   -2624.4415   -22978.598   -24849.179    1870.5812    1.1578834    31.015963       31.016       31.016    29837.116 
 1147000    306.26891   -2898.4255   -22975.832   -24899.375    1923.5423    1.1578834    31.015963       31.016       31.016    29837.116 
 1148000    296.40041   -2596.4507   -23065.685   -24927.248    1861.5626    1.1578834    31.015963       31.016       31.016    29837.116 
 1149000    299.41157   -2932.1494   -22962.996    -24843.47    1880.4744    1.1578834    31.015963       31.016       31.016    29837.116 
 1150000     291.9507   -2953.6669   -23049.855    -24883.47    1833.6159    1.1578834    31.015963       31.016       31.016    29837.116 
 1151000    302.92479   -2993.4046   -22965.072   -24867.612    1902.5394    1.1578834    31.015963       31.016       31.016    29837.116 
 1152000    299.55968   -3478.7199   -23023.503   -24904.908    1881.4046    1.1578834    31.015963       31.016       31.016    29837.116 
 1153000    302.63679   -2454.1434   -23055.968   -24956.699    1900.7306    1.1578834    31.015963       31.016       31.016    29837.116 
 1154000    296.44638   -2864.6361    -22990.42   -24852.272    1861.8513    1.1578834    31.015963       31.016       31.016    29837.116 
 1155000    297.37234    -2361.791   -22997.634   -24865.301    1867.6669    1.1578834    31.015963       31.016       31.016    29837.116 
 1156000    291.15718   -2616.4978   -23099.746   -24928.379    1828.6321    1.1578834    31.015963       31.016       31.016    29837.116 
 1157000     281.7953   -2439.0789   -23156.693   -24926.527    1769.8342    1.1578834    31.015963       31.016       31.016    29837.116 
 1158000    296.99311   -2804.9456   -23034.232   -24899.517    1865.2851    1.1578834    31.015963       31.016       31.016    29837.116 
 1159000    298.19427   -2492.2732   -23049.383   -24922.212     1872.829    1.1578834    31.015963       31.016       31.016    29837.116 
 1160000    292.88008   -2909.2985   -23022.028   -24861.481    1839.4529    1.1578834    31.015963       31.016       31.016    29837.116 
 1161000     300.9201   -3045.7472   -22979.555   -24869.504    1889.9488    1.1578834    31.015963       31.016       31.016    29837.116 
 1162000    297.22464   -3144.2353   -23019.082   -24885.821    1866.7392    1.1578834    31.015963       31.016       31.016    29837.116 
 1163000    298.38931   -3118.5519   -23088.428   -24962.482     1874.054    1.1578834    31.015963       31.016       31.016    29837.116 
 1164000    305.56412   -2580.4154   -22980.522   -24899.638    1919.1159    1.1578834    31.015963       31.016       31.016    29837.116 
 1165000    308.02146   -3190.7446   -23004.515   -24939.065    1934.5493    1.1578834    31.015963       31.016       31.016    29837.116 
 1166000    302.42255   -2288.4604   -22975.346   -24874.731    1899.3851    1.1578834    31.015963       31.016       31.016    29837.116 
 1167000    298.81607   -2510.6229   -23006.406    -24883.14    1876.7343    1.1578834    31.015963       31.016       31.016    29837.116 
 1168000     304.2066   -2344.7444    -23040.83    -24951.42    1910.5899    1.1578834    31.015963       31.016       31.016    29837.116 
 1169000    303.79302   -1915.5556   -22949.464   -24857.456    1907.9923    1.1578834    31.015963       31.016       31.016    29837.116 
 1170000    297.68258   -2702.9113   -23058.975   -24928.591    1869.6153    1.1578834    31.015963       31.016       31.016    29837.116 
 1171000    302.34368   -2952.2867   -22942.095   -24840.985    1898.8897    1.1578834    31.015963       31.016       31.016    29837.116 
 1172000    293.80182   -2660.2506   -22945.563   -24790.805     1845.242    1.1578834    31.015963       31.016       31.016    29837.116 
 1173000    305.52792   -2316.3775   -22907.872   -24826.761    1918.8885    1.1578834    31.015963       31.016       31.016    29837.116 
 1174000    290.42802   -3905.1335   -22982.926   -24806.978    1824.0526    1.1578834    31.015963       31.016       31.016    29837.116 
 1175000    301.80184   -2245.6465    -22967.73   -24863.217    1895.4866    1.1578834    31.015963       31.016       31.016    29837.116 
 1176000    291.77594   -3071.7489   -22997.127   -24829.646    1832.5182    1.1578834    31.015963       31.016       31.016    29837.116 
 1177000     297.7022   -2882.5347   -23035.292   -24905.031    1869.7385    1.1578834    31.015963       31.016       31.016    29837.116 
 1178000    292.94353   -2200.2517   -23007.479    -24847.33    1839.8514    1.1578834    31.015963       31.016       31.016    29837.116 
 1179000    297.42329   -3452.4351   -23044.308   -24912.295    1867.9868    1.1578834    31.015963       31.016       31.016    29837.116 
 1180000    297.09904   -3127.5267   -22937.664   -24803.614    1865.9504    1.1578834    31.015963       31.016       31.016    29837.116 
 1181000    303.46406   -2900.7114   -22937.541   -24843.467    1905.9263    1.1578834    31.015963       31.016       31.016    29837.116 
 1182000    302.24244   -2910.6173   -22970.171   -24868.425    1898.2539    1.1578834    31.015963       31.016       31.016    29837.116 
 1183000    302.71211   -2500.2287    -22965.14   -24866.344    1901.2036    1.1578834    31.015963       31.016       31.016    29837.116 
 1184000    302.04853    -2823.306    -22998.92   -24895.955    1897.0359    1.1578834    31.015963       31.016       31.016    29837.116 
 1185000    304.82381   -3676.3707   -22963.931   -24878.397    1914.4663    1.1578834    31.015963       31.016       31.016    29837.116 
 1186000    288.71123   -2776.3149   -23037.505   -24850.775    1813.2702    1.1578834    31.015963       31.016       31.016    29837.116 
 1187000    310.20937   -2206.3808   -22781.508   -24729.798    1948.2907    1.1578834    31.015963       31.016       31.016    29837.116 
 1188000    294.60875   -2638.3279   -22998.401   -24848.711    1850.3099    1.1578834    31.015963       31.016       31.016    29837.116 
 1189000    304.27146   -2692.2212    -22863.08   -24774.077    1910.9972    1.1578834    31.015963       31.016       31.016    29837.116 
 1190000    306.47408   -1984.1197   -22900.501   -24825.332    1924.8309    1.1578834    31.015963       31.016       31.016    29837.116 
 1191000    297.72819   -3562.6695   -22950.423   -24820.325    1869.9018    1.1578834    31.015963       31.016       31.016    29837.116 
 1192000    293.66708   -2250.0085   -23056.866   -24901.262    1844.3957    1.1578834    31.015963       31.016       31.016    29837.116 
 1193000     296.9663    -2887.797   -22964.067   -24829.184    1865.1166    1.1578834    31.015963       31.016       31.016    29837.116 
 1194000    290.37684    -2515.199   -22909.419    -24733.15    1823.7311    1.1578834    31.015963       31.016       31.016    29837.116 
 1195000    299.03942   -2668.9948   -22957.087   -24835.224     1878.137    1.1578834    31.015963       31.016       31.016    29837.116 
 1196000     293.5672   -3127.7932   -22967.403   -24811.171    1843.7684    1.1578834    31.015963       31.016       31.016    29837.116 
 1197000    290.87121   -1898.5756   -23038.696   -24865.532    1826.8361    1.1578834    31.015963       31.016       31.016    29837.116 
 1198000     288.9564   -2937.7625   -23031.406   -24846.216      1814.81    1.1578834    31.015963       31.016       31.016    29837.116 
 1199000    297.16636   -2694.5435   -22953.239   -24819.613    1866.3732    1.1578834    31.015963       31.016       31.016    29837.116 
 1200000    290.15676   -2465.5671   -22968.476   -24790.825    1822.3489    1.1578834    31.015963       31.016       31.016    29837.116 
 1201000      292.304   -2165.5689   -23000.075    -24835.91    1835.8348    1.1578834    31.015963       31.016       31.016    29837.116 
 1202000    303.42865   -2601.1466   -22923.556    -24829.26    1905.7039    1.1578834    31.015963       31.016       31.016    29837.116 
 1203000    294.72512   -2635.6619   -23080.498   -24931.538    1851.0408    1.1578834    31.015963       31.016       31.016    29837.116 
 1204000    301.19075   -2538.2571   -22960.209   -24851.858    1891.6486    1.1578834    31.015963       31.016       31.016    29837.116 
 1205000    298.94676   -2521.0066   -23069.189   -24946.744    1877.5551    1.1578834    31.015963       31.016       31.016    29837.116 
 1206000    292.85032   -2466.3246   -23018.728   -24857.994     1839.266    1.1578834    31.015963       31.016       31.016    29837.116 
 1207000    303.77936   -2445.8611   -22955.296   -24863.203    1907.9065    1.1578834    31.015963       31.016       31.016    29837.116 
 1208000    301.69712   -2559.5551   -22978.867   -24873.696    1894.8289    1.1578834    31.015963       31.016       31.016    29837.116 
 1209000    299.81674   -2921.1762    -22959.01   -24842.029     1883.019    1.1578834    31.015963       31.016       31.016    29837.116 
 1210000    301.02089   -3452.2141   -23022.747   -24913.329    1890.5818    1.1578834    31.015963       31.016       31.016    29837.116 
 1211000    297.35761   -3692.7125   -22959.545    -24827.12    1867.5744    1.1578834    31.015963       31.016       31.016    29837.116 
 1212000     295.2289   -3040.2401   -23043.043   -24897.248    1854.2048    1.1578834    31.015963       31.016       31.016    29837.116 
 1213000    298.37216   -2855.4344   -22948.171   -24822.118    1873.9462    1.1578834    31.015963       31.016       31.016    29837.116 
 1214000    296.18238   -2193.0628   -22954.955   -24815.148    1860.1932    1.1578834    31.015963       31.016       31.016    29837.116 
 1215000    293.29474   -3066.9501   -23074.678   -24916.735    1842.0572    1.1578834    31.015963       31.016       31.016    29837.116 
 1216000    292.82893   -2890.8979   -22965.199    -24804.33    1839.1316    1.1578834    31.015963       31.016       31.016    29837.116 
 1217000    286.24051   -2479.0979   -23129.339   -24927.092    1797.7526    1.1578834    31.015963       31.016       31.016    29837.116 
 1218000    297.39666    -2764.609   -22992.013   -24859.833    1867.8196    1.1578834    31.015963       31.016       31.016    29837.116 
 1219000    295.45634   -2446.1768   -23043.844   -24899.477    1855.6332    1.1578834    31.015963       31.016       31.016    29837.116 
 1220000    300.29331   -2576.8307    -23000.09   -24886.102    1886.0122    1.1578834    31.015963       31.016       31.016    29837.116 
 1221000    300.49585   -2958.5591   -23026.967   -24914.251    1887.2843    1.1578834    31.015963       31.016       31.016    29837.116 
 1222000    295.90895    -3195.271   -23011.679   -24870.155    1858.4759    1.1578834    31.015963       31.016       31.016    29837.116 
 1223000    293.73099   -3182.5825   -23063.177   -24907.974    1844.7971    1.1578834    31.015963       31.016       31.016    29837.116 
 1224000    293.80431   -2744.7299   -22974.369   -24819.627    1845.2576    1.1578834    31.015963       31.016       31.016    29837.116 
 1225000    294.07176   -3163.9605    -23016.57   -24863.507    1846.9373    1.1578834    31.015963       31.016       31.016    29837.116 
 1226000    299.18887   -3158.7637   -22979.195   -24858.271    1879.0757    1.1578834    31.015963       31.016       31.016    29837.116 
 1227000    298.13801   -2564.8568   -22967.362   -24839.838    1872.4757    1.1578834    31.015963       31.016       31.016    29837.116 
 1228000    294.30415   -2855.9528   -22871.502   -24719.899    1848.3969    1.1578834    31.015963       31.016       31.016    29837.116 
 1229000    298.41983   -2860.0658   -22921.415   -24795.661    1874.2457    1.1578834    31.015963       31.016       31.016    29837.116 
 1230000    295.68967   -2357.7535   -22956.722    -24813.82    1857.0987    1.1578834    31.015963       31.016       31.016    29837.116 
 1231000    293.92979   -1998.5789   -22987.046   -24833.091    1846.0457    1.1578834    31.015963       31.016       31.016    29837.116 
 1232000    295.16079   -2385.3358   -23001.585   -24855.362    1853.7771    1.1578834    31.015963       31.016       31.016    29837.116 
 1233000    292.77454   -1792.1851   -22945.286   -24784.076    1838.7901    1.1578834    31.015963       31.016       31.016    29837.116 
 1234000    290.88502   -2666.1701   -23022.771   -24849.694    1826.9228    1.1578834    31.015963       31.016       31.016    29837.116 
 1235000     295.1593   -3153.8453   -23033.861   -24887.628    1853.7677    1.1578834    31.015963       31.016       31.016    29837.116 
 1236000    298.71949   -2342.6536   -22879.429   -24755.557    1876.1277    1.1578834    31.015963       31.016       31.016    29837.116 
 1237000    304.84634   -2394.0946   -22907.118   -24821.726    1914.6078    1.1578834    31.015963       31.016       31.016    29837.116 
 1238000    284.46423   -2305.8732   -23073.456   -24860.052    1786.5966    1.1578834    31.015963       31.016       31.016    29837.116 
 1239000    300.72528   -3061.0844   -22914.884   -24803.609    1888.7252    1.1578834    31.015963       31.016       31.016    29837.116 
 1240000    302.57597   -3127.1091   -22948.144   -24848.492    1900.3486    1.1578834    31.015963       31.016       31.016    29837.116 
 1241000    291.14431   -2884.6543   -23074.796   -24903.348    1828.5513    1.1578834    31.015963       31.016       31.016    29837.116 
 1242000     296.0589   -2711.1411   -22992.978   -24852.395    1859.4177    1.1578834    31.015963       31.016       31.016    29837.116 
 1243000    294.45264   -2839.9082   -23004.736   -24854.065    1849.3294    1.1578834    31.015963       31.016       31.016    29837.116 
 1244000    308.26661   -2150.8535   -22929.779   -24865.868     1936.089    1.1578834    31.015963       31.016       31.016    29837.116 
 1245000    299.23714   -2252.7306   -22982.426   -24861.804    1879.3788    1.1578834    31.015963       31.016       31.016    29837.116 
 1246000    301.65826   -3279.8301   -23015.887   -24910.472    1894.5848    1.1578834    31.015963       31.016       31.016    29837.116 
 1247000    303.34409   -2261.8529   -23010.426   -24915.599    1905.1728    1.1578834    31.015963       31.016       31.016    29837.116 
 1248000    292.36363   -3442.4641   -23019.246   -24855.455    1836.2093    1.1578834    31.015963       31.016       31.016    29837.116 
 1249000    301.65733   -2556.8796    -23002.97   -24897.549     1894.579    1.1578834    31.015963       31.016       31.016    29837.116 
 1250000    300.01036    -2707.647   -23035.938   -24920.173    1884.2351    1.1578834    31.015963       31.016       31.016    29837.116 
 1251000    289.68609   -2057.0394   -22929.574   -24748.967    1819.3929    1.1578834    31.015963       31.016       31.016    29837.116 
 1252000    307.48794   -3367.5226   -22973.173   -24904.371    1931.1985    1.1578834    31.015963       31.016       31.016    29837.116 
 1253000    298.04482   -3851.8046   -22959.155   -24831.045    1871.8904    1.1578834    31.015963       31.016       31.016    29837.116 
 1254000    299.11825   -2632.3421   -23084.858    -24963.49    1878.6322    1.1578834    31.015963       31.016       31.016    29837.116 
 1255000    296.83757   -2623.2626   -22985.244   -24849.553    1864.3082    1.1578834    31.015963       31.016       31.016    29837.116 
 1256000    296.84605   -2273.9498   -23007.701   -24872.063    1864.3614    1.1578834    31.015963       31.016       31.016    29837.116 
 1257000    288.79929   -3741.4085   -23087.326   -24901.149    1813.8233    1.1578834    31.015963       31.016       31.016    29837.116 
 1258000    299.83735   -2772.4409   -22978.387   -24861.535    1883.1485    1.1578834    31.015963       31.016       31.016    29837.116 
 1259000    302.12759   -3083.2699   -22997.381   -24894.913    1897.5325    1.1578834    31.015963       31.016       31.016    29837.116 
 1260000    308.15882   -3090.3824   -22887.533   -24822.945     1935.412    1.1578834    31.015963       31.016       31.016    29837.116 
 1261000    305.10335   -3043.1174   -23017.787   -24934.009     1916.222    1.1578834    31.015963       31.016       31.016    29837.116 
 1262000    290.88224   -2961.7091   -23043.289   -24870.194    1826.9053    1.1578834    31.015963       31.016       31.016    29837.116 
 1263000    295.21337   -3746.7894   -23036.691   -24890.798    1854.1073    1.1578834    31.015963       31.016       31.016    29837.116 
 1264000    293.77917   -2353.4972   -22933.827   -24778.927    1845.0997    1.1578834    31.015963       31.016       31.016    29837.116 
 1265000    299.03196   -2652.1545   -23020.614   -24898.704    1878.0902    1.1578834    31.015963       31.016       31.016    29837.116 
 1266000    308.00886   -2459.8447    -22945.91    -24880.38    1934.4702    1.1578834    31.015963       31.016       31.016    29837.116 
 1267000     297.2677   -2758.4859   -23045.453   -24912.463    1867.0096    1.1578834    31.015963       31.016       31.016    29837.116 
 1268000    295.22207   -2236.8695   -23030.791   -24884.953    1854.1619    1.1578834    31.015963       31.016       31.016    29837.116 
 1269000    289.53617   -1952.6276   -23083.154   -24901.605    1818.4513    1.1578834    31.015963       31.016       31.016    29837.116 
 1270000    291.75078    -3145.727   -23058.154   -24890.515    1832.3603    1.1578834    31.015963       31.016       31.016    29837.116 
 1271000    291.17187   -2368.6073   -23081.599   -24910.324    1828.7244    1.1578834    31.015963       31.016       31.016    29837.116 
 1272000    295.34787   -2078.0402   -23113.378    -24968.33     1854.952    1.1578834    31.015963       31.016       31.016    29837.116 
 1273000    303.45575    -2361.729   -22985.292   -24891.166    1905.8741    1.1578834    31.015963       31.016       31.016    29837.116 
 1274000    303.42412   -2425.8835   -23025.874    -24931.55    1905.6755    1.1578834    31.015963       31.016       31.016    29837.116 
 1275000    293.00033   -2852.8868   -22998.063   -24838.271    1840.2081    1.1578834    31.015963       31.016       31.016    29837.116 
 1276000     297.3177   -2639.2432   -22946.323   -24813.646    1867.3237    1.1578834    31.015963       31.016       31.016    29837.116 
 1277000    289.42929    -3273.362   -23001.034   -24818.814      1817.78    1.1578834    31.015963       31.016       31.016    29837.116 
 1278000    301.53168   -2548.1098   -23019.095   -24912.885    1893.7898    1.1578834    31.015963       31.016       31.016    29837.116 
 1279000    300.50539   -2622.2846   -22934.333   -24821.677    1887.3441    1.1578834    31.015963       31.016       31.016    29837.116 
 1280000    288.88144   -3485.8868   -23001.047   -24815.386    1814.3392    1.1578834    31.015963       31.016       31.016    29837.116 
 1281000    289.33527   -2897.3169   -23048.962   -24866.151    1817.1895    1.1578834    31.015963       31.016       31.016    29837.116 
 1282000    294.80173   -2174.1406   -23020.688    -24872.21    1851.5219    1.1578834    31.015963       31.016       31.016    29837.116 
 1283000    300.78839   -2233.7576   -22980.809    -24869.93    1889.1216    1.1578834    31.015963       31.016       31.016    29837.116 
 1284000    292.41075   -2885.1203   -22979.572   -24816.078    1836.5052    1.1578834    31.015963       31.016       31.016    29837.116 
 1285000    298.59515   -3315.6628   -22932.081   -24807.427    1875.3468    1.1578834    31.015963       31.016       31.016    29837.116 
 1286000    298.11603   -3010.4769   -22985.019   -24857.357    1872.3376    1.1578834    31.015963       31.016       31.016    29837.116 
 1287000      303.722    -2914.071   -22898.499   -24806.045    1907.5463    1.1578834    31.015963       31.016       31.016    29837.116 
 1288000    286.66243   -2242.3548   -23041.485   -24841.887    1800.4026    1.1578834    31.015963       31.016       31.016    29837.116 
 1289000    298.10501   -2598.6226   -22981.069   -24853.338    1872.2684    1.1578834    31.015963       31.016       31.016    29837.116 
 1290000    290.53832   -2930.9198   -23060.062   -24884.807    1824.7453    1.1578834    31.015963       31.016       31.016    29837.116 
 1291000    305.31964   -1776.5176   -22996.088   -24913.668    1917.5804    1.1578834    31.015963       31.016       31.016    29837.116 
 1292000    298.24854   -2966.9737   -23029.773   -24902.943    1873.1698    1.1578834    31.015963       31.016       31.016    29837.116 
 1293000    293.08187   -2581.7432   -23124.626   -24965.346    1840.7202    1.1578834    31.015963       31.016       31.016    29837.116 
 1294000    300.49171   -3006.7371   -23050.691    -24937.95    1887.2582    1.1578834    31.015963       31.016       31.016    29837.116 
 1295000    309.21719   -2613.3205   -22925.805   -24867.864    1942.0592    1.1578834    31.015963       31.016       31.016    29837.116 
 1296000    302.92956   -2222.0826   -23021.593   -24924.163    1902.5693    1.1578834    31.015963       31.016       31.016    29837.116 
 1297000    295.04977    -2356.727   -23075.496   -24928.576    1853.0798    1.1578834    31.015963       31.016       31.016    29837.116 
 1298000    296.79142    -2319.297   -22990.948   -24854.967    1864.0183    1.1578834    31.015963       31.016       31.016    29837.116 
 1299000    297.54041   -1840.2128   -23048.908    -24917.63    1868.7224    1.1578834    31.015963       31.016       31.016    29837.116 
 1300000    294.77325   -2355.4293   -23093.203   -24944.546    1851.3431    1.1578834    31.015963       31.016       31.016    29837.116 
 1301000    297.47574   -2623.0677   -22973.416   -24841.732    1868.3163    1.1578834    31.015963       31.016       31.016    29837.116 
 1302000    282.49338   -2333.2596   -23106.224   -24880.443    1774.2185    1.1578834    31.015963       31.016       31.016    29837.116 
 1303000    300.80374   -2105.8443   -22969.875   -24859.093    1889.2179    1.1578834    31.015963       31.016       31.016    29837.116 
 1304000     289.7625   -2081.9784   -23078.946   -24898.819    1819.8727    1.1578834    31.015963       31.016       31.016    29837.116 
 1305000    292.48934   -2128.9769    -23064.18   -24901.178    1836.9988    1.1578834    31.015963       31.016       31.016    29837.116 
 1306000    300.46531   -3017.3032   -23054.427   -24941.519    1887.0925    1.1578834    31.015963       31.016       31.016    29837.116 
 1307000    292.17648   -3368.8723   -22986.832   -24821.866    1835.0339    1.1578834    31.015963       31.016       31.016    29837.116 
 1308000    302.77791    -2659.726    -22958.99   -24860.607    1901.6169    1.1578834    31.015963       31.016       31.016    29837.116 
 1309000    297.31915   -2764.5004   -23092.746   -24960.079    1867.3327    1.1578834    31.015963       31.016       31.016    29837.116 
 1310000    295.26649     -2564.58   -22984.641   -24839.082    1854.4409    1.1578834    31.015963       31.016       31.016    29837.116 
 1311000    301.12317   -2276.2809   -22949.349   -24840.574    1891.2242    1.1578834    31.015963       31.016       31.016    29837.116 
 1312000    305.07647   -2404.3461   -22901.415   -24817.468    1916.0531    1.1578834    31.015963       31.016       31.016    29837.116 
 1313000    299.69712   -3445.7898   -22959.665   -24841.933    1882.2678    1.1578834    31.015963       31.016       31.016    29837.116 
 1314000    303.22454   -2920.4327   -22910.504   -24814.926     1904.422    1.1578834    31.015963       31.016       31.016    29837.116 
 1315000    306.25482   -2888.8785   -22993.419   -24916.873    1923.4539    1.1578834    31.015963       31.016       31.016    29837.116 
 1316000    310.21043   -1659.9108   -22877.318   -24825.615    1948.2973    1.1578834    31.015963       31.016       31.016    29837.116 
 1317000    304.82738   -3087.6334   -22841.203   -24755.692    1914.4887    1.1578834    31.015963       31.016       31.016    29837.116 
 1318000     294.4603    -2913.435   -23031.644   -24881.022    1849.3776    1.1578834    31.015963       31.016       31.016    29837.116 
 1319000     306.2129   -3427.1195    -22845.83    -24769.02    1923.1906    1.1578834    31.015963       31.016       31.016    29837.116 
 1320000    303.92195   -2834.2581   -22976.161   -24884.963    1908.8021    1.1578834    31.015963       31.016       31.016    29837.116 
 1321000    292.54858   -2586.2386   -23009.404   -24846.775    1837.3709    1.1578834    31.015963       31.016       31.016    29837.116 
 1322000    302.22042   -2936.7032   -23065.724   -24963.839    1898.1155    1.1578834    31.015963       31.016       31.016    29837.116 
 1323000    301.98897   -3082.2226   -22911.113   -24807.775    1896.6619    1.1578834    31.015963       31.016       31.016    29837.116 
 1324000    297.27313   -2846.6206   -23041.827   -24908.871    1867.0438    1.1578834    31.015963       31.016       31.016    29837.116 
 1325000    298.62956    -3101.953    -22947.75   -24823.313    1875.5629    1.1578834    31.015963       31.016       31.016    29837.116 
 1326000    299.04187   -1759.3165   -22854.737    -24732.89    1878.1525    1.1578834    31.015963       31.016       31.016    29837.116 
 1327000    293.19374   -1726.5859   -23108.154   -24949.577    1841.4228    1.1578834    31.015963       31.016       31.016    29837.116 
 1328000    295.32495   -2238.8009   -23005.388   -24860.196    1854.8081    1.1578834    31.015963       31.016       31.016    29837.116 
 1329000    292.80622    -3623.213   -22954.491    -24793.48     1838.989    1.1578834    31.015963       31.016       31.016    29837.116 
 1330000    302.43379    -2698.426   -22982.392   -24881.848    1899.4556    1.1578834    31.015963       31.016       31.016    29837.116 
 1331000    295.05809   -2910.3326   -23073.117   -24926.249     1853.132    1.1578834    31.015963       31.016       31.016    29837.116 
 1332000       302.06   -2095.0236   -22949.742    -24846.85     1897.108    1.1578834    31.015963       31.016       31.016    29837.116 
 1333000    295.68899   -3035.5634   -23042.405     -24899.5    1857.0944    1.1578834    31.015963       31.016       31.016    29837.116 
 1334000    300.42968   -1224.6676   -22943.568   -24830.436    1886.8687    1.1578834    31.015963       31.016       31.016    29837.116 
 1335000    296.67769   -1872.0852   -23068.611   -24931.915     1863.304    1.1578834    31.015963       31.016       31.016    29837.116 
 1336000    299.41105   -2066.6276   -23076.847   -24957.318    1880.4711    1.1578834    31.015963       31.016       31.016    29837.116 
 1337000    303.25158   -2633.8376   -22978.522   -24883.114    1904.5918    1.1578834    31.015963       31.016       31.016    29837.116 
 1338000    311.70668    -1913.677   -22893.469   -24851.163    1957.6946    1.1578834    31.015963       31.016       31.016    29837.116 
 1339000    298.35491   -2430.6727   -22954.417   -24828.255    1873.8379    1.1578834    31.015963       31.016       31.016    29837.116 
 1340000    294.08823   -3890.4834   -23048.524   -24895.565    1847.0407    1.1578834    31.015963       31.016       31.016    29837.116 
 1341000    303.86893   -2372.4735   -22985.019   -24893.488    1908.4691    1.1578834    31.015963       31.016       31.016    29837.116 
 1342000     295.5476   -2908.1266   -23002.565   -24858.771    1856.2064    1.1578834    31.015963       31.016       31.016    29837.116 
 1343000    287.98578   -2327.0885   -23044.786   -24853.499    1808.7139    1.1578834    31.015963       31.016       31.016    29837.116 
 1344000    303.53763   -2766.3932    -23019.72   -24926.109    1906.3884    1.1578834    31.015963       31.016       31.016    29837.116 
 1345000    290.87854   -1780.9661   -22964.231   -24791.113    1826.8821    1.1578834    31.015963       31.016       31.016    29837.116 
 1346000     293.5383   -1876.7991   -22932.721   -24776.308    1843.5869    1.1578834    31.015963       31.016       31.016    29837.116 
 1347000    285.04165     -2634.84   -23109.534   -24899.757    1790.2231    1.1578834    31.015963       31.016       31.016    29837.116 
 1348000    308.40924   -2679.3679   -22924.688   -24861.673    1936.9848    1.1578834    31.015963       31.016       31.016    29837.116 
 1349000    302.17586    -1722.306   -22966.475    -24864.31    1897.8357    1.1578834    31.015963       31.016       31.016    29837.116 
 1350000    292.34119   -3134.9519   -23002.561    -24838.63    1836.0684    1.1578834    31.015963       31.016       31.016    29837.116 
 1351000    299.54185   -3335.9439   -22919.665   -24800.957    1881.2926    1.1578834    31.015963       31.016       31.016    29837.116 
 1352000    294.64154   -3370.3027    -22956.04   -24806.556    1850.5158    1.1578834    31.015963       31.016       31.016    29837.116 
 1353000    299.03776   -4227.4221   -22953.117   -24831.244    1878.1266    1.1578834    31.015963       31.016       31.016    29837.116 
 1354000    293.25844   -2833.7642   -22963.905   -24805.734    1841.8292    1.1578834    31.015963       31.016       31.016    29837.116 
 1355000    307.00663   -1700.4302   -22913.363   -24841.539    1928.1756    1.1578834    31.015963       31.016       31.016    29837.116 
 1356000    291.62985   -2760.2469   -23067.253   -24898.853    1831.6007    1.1578834    31.015963       31.016       31.016    29837.116 
 1357000     299.5487   -3154.7566   -22985.205   -24866.541    1881.3356    1.1578834    31.015963       31.016       31.016    29837.116 
 1358000    304.15672    -1888.432   -22917.692   -24827.968    1910.2766    1.1578834    31.015963       31.016       31.016    29837.116 
 1359000    295.66786   -2204.4285   -23000.685   -24857.647    1856.9617    1.1578834    31.015963       31.016       31.016    29837.116 
 1360000     291.5577   -2692.3638    -23080.14   -24911.287    1831.1476    1.1578834    31.015963       31.016       31.016    29837.116 
 1361000    303.54196   -2562.1142    -22929.74   -24836.156    1906.4156    1.1578834    31.015963       31.016       31.016    29837.116 
 1362000    293.16229   -3134.7548   -23034.079   -24875.304    1841.2253    1.1578834    31.015963       31.016       31.016    29837.116 
 1363000    301.09261   -2200.1186   -22939.897    -24830.93    1891.0323    1.1578834    31.015963       31.016       31.016    29837.116 
 1364000    296.89206     -2596.18   -23000.415   -24865.066    1864.6504    1.1578834    31.015963       31.016       31.016    29837.116 
 1365000    296.73978     -2001.37   -23015.402   -24879.096     1863.694    1.1578834    31.015963       31.016       31.016    29837.116 
 1366000    305.16659   -3035.0959    -22951.26   -24867.879    1916.6192    1.1578834    31.015963       31.016       31.016    29837.116 
 1367000    301.65702   -3139.9717    -22992.37   -24886.947     1894.577    1.1578834    31.015963       31.016       31.016    29837.116 
 1368000    298.98054   -2185.6639   -22899.109   -24776.876    1877.7672    1.1578834    31.015963       31.016       31.016    29837.116 
 1369000    293.26603   -3009.8399   -22993.689   -24835.566    1841.8769    1.1578834    31.015963       31.016       31.016    29837.116 
 1370000    297.62355   -3917.6446   -22986.425    -24855.67    1869.2446    1.1578834    31.015963       31.016       31.016    29837.116 
 1371000    302.62327   -3465.5388   -22910.568   -24811.213    1900.6457    1.1578834    31.015963       31.016       31.016    29837.116 
 1372000    293.83798   -2898.0666   -22969.332   -24814.801     1845.469    1.1578834    31.015963       31.016       31.016    29837.116 
 1373000    300.32764   -2444.0956   -22816.086   -24702.314    1886.2278    1.1578834    31.015963       31.016       31.016    29837.116 
 1374000    293.34808   -1888.1575   -22928.872   -24771.265    1842.3922    1.1578834    31.015963       31.016       31.016    29837.116 
 1375000    302.81598   -3276.5524   -22941.076   -24842.932     1901.856    1.1578834    31.015963       31.016       31.016    29837.116 
 1376000     296.7392   -2962.6694   -22983.342   -24847.032    1863.6904    1.1578834    31.015963       31.016       31.016    29837.116 
 1377000    295.07324   -2277.3008   -22988.134   -24841.362    1853.2272    1.1578834    31.015963       31.016       31.016    29837.116 
 1378000    300.77718   -2911.3454   -22986.779   -24875.831    1889.0512    1.1578834    31.015963       31.016       31.016    29837.116 
 1379000    300.73511    -2636.046   -22988.454   -24877.241    1888.7869    1.1578834    31.015963       31.016       31.016    29837.116 
 1380000    294.53946   -2065.6491   -22947.549   -24797.423    1849.8748    1.1578834    31.015963       31.016       31.016    29837.116 
 1381000    293.00664   -2477.4711   -22976.053   -24816.301    1840.2477    1.1578834    31.015963       31.016       31.016    29837.116 
 1382000    298.22224   -1573.4132   -23002.643   -24875.648    1873.0047    1.1578834    31.015963       31.016       31.016    29837.116 
 1383000    296.18144   -2865.4162   -23025.101   -24885.288    1860.1873    1.1578834    31.015963       31.016       31.016    29837.116 
 1384000    292.11009   -3188.5778   -22968.388   -24803.005    1834.6169    1.1578834    31.015963       31.016       31.016    29837.116 
 1385000    298.98432   -2101.9553   -22973.254   -24851.045     1877.791    1.1578834    31.015963       31.016       31.016    29837.116 
 1386000    304.09626   -3388.9138   -23000.725   -24910.621    1909.8969    1.1578834    31.015963       31.016       31.016    29837.116 
 1387000    306.73979   -2948.4802   -22873.664   -24800.164    1926.4997    1.1578834    31.015963       31.016       31.016    29837.116 
 1388000    299.18487   -3175.2561   -22978.331   -24857.381    1879.0505    1.1578834    31.015963       31.016       31.016    29837.116 
 1389000    298.61558   -2498.1271   -22944.269   -24819.744    1875.4751    1.1578834    31.015963       31.016       31.016    29837.116 
 1390000       301.48   -3222.5079   -22945.907   -24839.372    1893.4653    1.1578834    31.015963       31.016       31.016    29837.116 
 1391000     290.9703   -2194.7627   -22994.879   -24822.338    1827.4584    1.1578834    31.015963       31.016       31.016    29837.116 
 1392000    304.60341   -2862.6078   -22866.782   -24779.864     1913.082    1.1578834    31.015963       31.016       31.016    29837.116 
 1393000    303.53045   -1693.4421   -22951.412   -24857.755    1906.3432    1.1578834    31.015963       31.016       31.016    29837.116 
 1394000    295.75256   -3011.4468   -22912.682   -24770.176    1857.4937    1.1578834    31.015963       31.016       31.016    29837.116 
 1395000    292.57682   -3063.0694   -23032.746   -24870.295    1837.5482    1.1578834    31.015963       31.016       31.016    29837.116 
 1396000     297.3422   -3469.3285   -22945.373   -24812.851    1867.4775    1.1578834    31.015963       31.016       31.016    29837.116 
 1397000    306.62372   -3349.0366    -22934.51   -24860.281    1925.7708    1.1578834    31.015963       31.016       31.016    29837.116 
 1398000    299.41559   -2966.1263   -22930.881    -24811.38    1880.4996    1.1578834    31.015963       31.016       31.016    29837.116 
 1399000    292.40175   -2662.8172   -23015.793   -24852.242    1836.4487    1.1578834    31.015963       31.016       31.016    29837.116 
 1400000    298.91015   -3187.4288   -22895.086   -24772.411    1877.3251    1.1578834    31.015963       31.016       31.016    29837.116 
 1401000     295.1905   -2837.4414   -23004.322   -24858.286    1853.9636    1.1578834    31.015963       31.016       31.016    29837.116 
 1402000    302.90423   -3427.0454   -22857.222   -24759.633    1902.4102    1.1578834    31.015963       31.016       31.016    29837.116 
 1403000    298.69188   -2056.7075    -22918.92   -24794.874    1875.9543    1.1578834    31.015963       31.016       31.016    29837.116 
 1404000    290.88007   -3502.0487   -23092.181   -24919.073    1826.8917    1.1578834    31.015963       31.016       31.016    29837.116 
 1405000    295.43164   -3214.5122   -22964.935   -24820.413    1855.4782    1.1578834    31.015963       31.016       31.016    29837.116 
 1406000     292.5264    -3128.427   -22946.808   -24784.039    1837.2316    1.1578834    31.015963       31.016       31.016    29837.116 
 1407000    300.85057   -3346.2923   -22999.858    -24889.37    1889.5121    1.1578834    31.015963       31.016       31.016    29837.116 
 1408000    299.78528    -2720.127    -22994.63   -24877.452    1882.8215    1.1578834    31.015963       31.016       31.016    29837.116 
 1409000    291.96504   -2125.0177   -23030.189   -24863.895    1833.7059    1.1578834    31.015963       31.016       31.016    29837.116 
 1410000    292.24804   -3254.6208   -23044.998   -24880.482    1835.4833    1.1578834    31.015963       31.016       31.016    29837.116 
 1411000    289.80287   -2484.1708   -22935.507   -24755.633    1820.1263    1.1578834    31.015963       31.016       31.016    29837.116 
 1412000    305.32546   -3007.0654   -22914.786   -24832.403    1917.6169    1.1578834    31.015963       31.016       31.016    29837.116 
 1413000    299.37308   -2292.6491   -22900.487    -24780.72    1880.2326    1.1578834    31.015963       31.016       31.016    29837.116 
 1414000    289.58451   -2502.5709   -23102.887   -24921.642    1818.7549    1.1578834    31.015963       31.016       31.016    29837.116 
 1415000    296.23752   -1729.1535   -23031.808   -24892.347    1860.5395    1.1578834    31.015963       31.016       31.016    29837.116 
 1416000    310.05886   -2236.3403   -22910.202   -24857.547    1947.3454    1.1578834    31.015963       31.016       31.016    29837.116 
 1417000    300.50427   -2414.4106   -23006.119   -24893.457    1887.3371    1.1578834    31.015963       31.016       31.016    29837.116 
 1418000    296.93946   -2570.7644   -23028.255   -24893.203    1864.9481    1.1578834    31.015963       31.016       31.016    29837.116 
 1419000    290.35303   -2810.8518   -23075.315   -24898.897    1823.5816    1.1578834    31.015963       31.016       31.016    29837.116 
 1420000    294.68543   -2762.5265   -23065.375   -24916.167    1850.7915    1.1578834    31.015963       31.016       31.016    29837.116 
 1421000    295.17975   -2808.9469   -23076.637   -24930.534    1853.8961    1.1578834    31.015963       31.016       31.016    29837.116 
 1422000     297.6621   -1919.1574   -22957.488   -24826.975    1869.4867    1.1578834    31.015963       31.016       31.016    29837.116 
 1423000    302.70729   -2653.8253   -22959.662   -24860.836    1901.1734    1.1578834    31.015963       31.016       31.016    29837.116 
 1424000     294.5801   -2513.3651    -23043.58    -24893.71      1850.13    1.1578834    31.015963       31.016       31.016    29837.116 
 1425000    297.76522   -2803.0045    -23031.97   -24902.104    1870.1344    1.1578834    31.015963       31.016       31.016    29837.116 
 1426000    304.63899   -2392.1624   -23021.657   -24934.962    1913.3055    1.1578834    31.015963       31.016       31.016    29837.116 
 1427000    312.05581   -3310.7194   -22901.467   -24861.354    1959.8874    1.1578834    31.015963       31.016       31.016    29837.116 
 1428000     295.6835   -3054.5697   -22976.809   -24833.869    1857.0599    1.1578834    31.015963       31.016       31.016    29837.116 
 1429000    298.47045   -2774.0451   -23034.519   -24909.082    1874.5636    1.1578834    31.015963       31.016       31.016    29837.116 
 1430000    290.01392   -3127.3694   -23016.096   -24837.548    1821.4518    1.1578834    31.015963       31.016       31.016    29837.116 
 1431000    298.99551   -2598.2404   -23034.722   -24912.583    1877.8613    1.1578834    31.015963       31.016       31.016    29837.116 
 1432000    309.70468   -2868.6897   -22944.824   -24889.945     1945.121    1.1578834    31.015963       31.016       31.016    29837.116 
 1433000    295.24097   -2991.4007   -23042.207   -24896.487    1854.2806    1.1578834    31.015963       31.016       31.016    29837.116 
 1434000    303.21309   -2598.8329   -23018.919   -24923.269      1904.35    1.1578834    31.015963       31.016       31.016    29837.116 
 1435000    290.41458   -2725.6283   -23209.794   -25033.762    1823.9681    1.1578834    31.015963       31.016       31.016    29837.116 
 1436000    294.22158   -2329.2955   -23030.636   -24878.514    1847.8783    1.1578834    31.015963       31.016       31.016    29837.116 
 1437000    302.94032    -2380.118   -22939.092   -24841.729    1902.6369    1.1578834    31.015963       31.016       31.016    29837.116 
 1438000    296.22396   -2538.5483   -23037.836   -24898.291    1860.4543    1.1578834    31.015963       31.016       31.016    29837.116 
 1439000    294.87207    -2530.282   -22879.839   -24731.803    1851.9637    1.1578834    31.015963       31.016       31.016    29837.116 
 1440000    293.71424   -2148.3259   -23007.089   -24851.781    1844.6919    1.1578834    31.015963       31.016       31.016    29837.116 
 1441000    298.94018   -2381.9789   -22986.145   -24863.658    1877.5138    1.1578834    31.015963       31.016       31.016    29837.116 
 1442000    291.30863    -3106.393   -23053.237    -24882.82    1829.5833    1.1578834    31.015963       31.016       31.016    29837.116 
 1443000    300.61203   -2871.9552   -22860.238   -24748.252     1888.014    1.1578834    31.015963       31.016       31.016    29837.116 
 1444000    290.71126   -2371.7649   -22939.323   -24765.154    1825.8315    1.1578834    31.015963       31.016       31.016    29837.116 
 1445000    311.05019   -1529.1327   -22868.027   -24821.599    1953.5715    1.1578834    31.015963       31.016       31.016    29837.116 
 1446000    301.61514   -2730.5664   -22946.358   -24840.672     1894.314    1.1578834    31.015963       31.016       31.016    29837.116 
 1447000     300.2629    -2469.473   -22938.134   -24823.955    1885.8212    1.1578834    31.015963       31.016       31.016    29837.116 
 1448000    304.00031   -3246.0214   -22918.339   -24827.633    1909.2943    1.1578834    31.015963       31.016       31.016    29837.116 
 1449000    298.56627   -3477.1224   -22932.513   -24807.678    1875.1654    1.1578834    31.015963       31.016       31.016    29837.116 
 1450000    304.95791   -2654.4668   -22810.549   -24725.857    1915.3085    1.1578834    31.015963       31.016       31.016    29837.116 
 1451000    303.54537   -2744.2905   -22911.852   -24818.289     1906.437    1.1578834    31.015963       31.016       31.016    29837.116 
 1452000    298.23357   -3311.6717   -23064.467   -24937.543    1873.0758    1.1578834    31.015963       31.016       31.016    29837.116 
 1453000    303.14952   -2919.3815   -22939.056   -24843.007    1903.9508    1.1578834    31.015963       31.016       31.016    29837.116 
 1454000    301.43671   -2569.4032   -22996.465   -24889.658    1893.1934    1.1578834    31.015963       31.016       31.016    29837.116 
 1455000    296.68901   -2733.7374   -23002.155    -24865.53    1863.3752    1.1578834    31.015963       31.016       31.016    29837.116 
 1456000     288.7368   -3009.0149    -23083.59    -24897.02    1813.4307    1.1578834    31.015963       31.016       31.016    29837.116 
 1457000     293.9385   -3311.1838   -23033.295   -24879.395    1846.1004    1.1578834    31.015963       31.016       31.016    29837.116 
 1458000    301.38812   -2549.3653   -23006.304   -24899.192    1892.8882    1.1578834    31.015963       31.016       31.016    29837.116 
 1459000    299.61087   -2492.0294   -22912.153   -24793.879    1881.7261    1.1578834    31.015963       31.016       31.016    29837.116 
 1460000    299.23417   -3369.4923   -22995.468   -24874.828    1879.3602    1.1578834    31.015963       31.016       31.016    29837.116 
 1461000    308.34335    -2188.524    -22884.64   -24821.211     1936.571    1.1578834    31.015963       31.016       31.016    29837.116 
 1462000    296.84884   -3538.2582   -23061.787   -24926.166     1864.379    1.1578834    31.015963       31.016       31.016    29837.116 
 1463000    303.46801   -3193.6513   -23035.038   -24940.989    1905.9511    1.1578834    31.015963       31.016       31.016    29837.116 
 1464000    301.17438   -2289.7428   -23060.077   -24951.623    1891.5458    1.1578834    31.015963       31.016       31.016    29837.116 
 1465000    298.33188   -2125.9428   -23006.914   -24880.607    1873.6933    1.1578834    31.015963       31.016       31.016    29837.116 
 1466000     299.1767   -3694.0425    -23074.84   -24953.839    1878.9992    1.1578834    31.015963       31.016       31.016    29837.116 
 1467000    294.73795   -2817.0256   -23059.058   -24910.179    1851.1214    1.1578834    31.015963       31.016       31.016    29837.116 
 1468000    302.55497   -3003.0044    -23046.34   -24946.556    1900.2167    1.1578834    31.015963       31.016       31.016    29837.116 
 1469000    292.26445    -3146.591   -22998.411   -24833.998    1835.5864    1.1578834    31.015963       31.016       31.016    29837.116 
 1470000    294.34278     -3313.21   -23007.876   -24856.516    1848.6395    1.1578834    31.015963       31.016       31.016    29837.116 
 1471000    299.86357   -2387.8571   -23008.607    -24891.92    1883.3131    1.1578834    31.015963       31.016       31.016    29837.116 
 1472000    303.51106   -2739.2484   -22958.674   -24864.896    1906.2215    1.1578834    31.015963       31.016       31.016    29837.116 
 1473000    296.69159   -2193.6025    -23006.79   -24870.181    1863.3913    1.1578834    31.015963       31.016       31.016    29837.116 
 1474000    299.71953   -2910.5285   -22970.936   -24853.345    1882.4085    1.1578834    31.015963       31.016       31.016    29837.116 
 1475000    302.38859   -2527.8805    -22941.66   -24840.832    1899.1717    1.1578834    31.015963       31.016       31.016    29837.116 
 1476000    300.55083   -2670.0504   -22959.623   -24847.252    1887.6296    1.1578834    31.015963       31.016       31.016    29837.116 
 1477000    292.09473   -3055.1857   -22992.597   -24827.117    1834.5205    1.1578834    31.015963       31.016       31.016    29837.116 
 1478000    301.44386   -1424.9769   -22922.869   -24816.107    1893.2383    1.1578834    31.015963       31.016       31.016    29837.116 
 1479000    302.00278    -2486.661   -22994.546   -24891.295    1896.7486    1.1578834    31.015963       31.016       31.016    29837.116 
 1480000    285.25085    -3132.248   -23088.868   -24880.405     1791.537    1.1578834    31.015963       31.016       31.016    29837.116 
 1481000    301.28934   -3279.5837   -23027.066   -24919.333    1892.2678    1.1578834    31.015963       31.016       31.016    29837.116 
 1482000    304.75449   -2680.6056   -22922.615   -24836.646    1914.0309    1.1578834    31.015963       31.016       31.016    29837.116 
 1483000    294.72879   -2964.6281   -23069.577   -24920.641    1851.0639    1.1578834    31.015963       31.016       31.016    29837.116 
 1484000    298.17491   -2773.5652   -23030.923    -24903.63    1872.7075    1.1578834    31.015963       31.016       31.016    29837.116 
 1485000    302.60496   -2268.2905   -22973.546   -24874.076    1900.5306    1.1578834    31.015963       31.016       31.016    29837.116 
 1486000    295.58287   -3053.3679   -23052.233    -24908.66     1856.428    1.1578834    31.015963       31.016       31.016    29837.116 
 1487000    298.65196   -2469.3894    -23052.21   -24927.913    1875.7036    1.1578834    31.015963       31.016       31.016    29837.116 
 1488000    293.88049   -1298.9486    -22956.34   -24802.076    1845.7361    1.1578834    31.015963       31.016       31.016    29837.116 
 1489000    288.23352   -2768.4843   -23111.102   -24921.372    1810.2698    1.1578834    31.015963       31.016       31.016    29837.116 
 1490000     315.7156   -1890.4455    -22930.12   -24912.993    1982.8729    1.1578834    31.015963       31.016       31.016    29837.116 
 1491000    298.83208   -2667.7732   -23051.236   -24928.071    1876.8348    1.1578834    31.015963       31.016       31.016    29837.116 
 1492000    305.16936   -1317.6492   -23020.936   -24937.573    1916.6366    1.1578834    31.015963       31.016       31.016    29837.116 
 1493000    296.98724   -3109.5981   -23076.325   -24941.573    1865.2482    1.1578834    31.015963       31.016       31.016    29837.116 
 1494000    296.62127   -2904.9595   -23088.838   -24951.788    1862.9497    1.1578834    31.015963       31.016       31.016    29837.116 
 1495000    297.79119   -2517.8224    -23060.27   -24930.567    1870.2974    1.1578834    31.015963       31.016       31.016    29837.116 
 1496000    301.09457   -3163.3974   -23024.723   -24915.768    1891.0446    1.1578834    31.015963       31.016       31.016    29837.116 
 1497000    296.82051   -2803.5809   -23051.606   -24915.807     1864.201    1.1578834    31.015963       31.016       31.016    29837.116 
 1498000    293.92101   -2591.3671    -22974.66    -24820.65    1845.9905    1.1578834    31.015963       31.016       31.016    29837.116 
 1499000     292.8398    -2703.816   -23141.243   -24980.443    1839.1999    1.1578834    31.015963       31.016       31.016    29837.116 
 1500000    298.32702   -3070.7321   -22937.542   -24811.205    1873.6628    1.1578834    31.015963       31.016       31.016    29837.116 
 1501000    298.84789   -2277.5706   -22938.245   -24815.179    1876.9342    1.1578834    31.015963       31.016       31.016    29837.116 
 1502000    305.43298   -2567.8639   -23009.793   -24928.086    1918.2922    1.1578834    31.015963       31.016       31.016    29837.116 
 1503000    300.25213   -2545.4387   -22929.223   -24814.976    1885.7536    1.1578834    31.015963       31.016       31.016    29837.116 
 1504000    303.79446   -2683.3543   -23002.174   -24910.176    1908.0014    1.1578834    31.015963       31.016       31.016    29837.116 
 1505000    293.70896   -1866.3243    -23048.91   -24893.568    1844.6587    1.1578834    31.015963       31.016       31.016    29837.116 
 1506000    295.01125   -3005.8564   -23132.315   -24985.152    1852.8379    1.1578834    31.015963       31.016       31.016    29837.116 
 1507000    301.66466   -2603.8532   -22995.833   -24890.458     1894.625    1.1578834    31.015963       31.016       31.016    29837.116 
 1508000    306.97915   -2889.6967   -22952.206   -24880.209    1928.0031    1.1578834    31.015963       31.016       31.016    29837.116 
 1509000    297.67819   -2474.7148   -23007.003   -24876.591    1869.5878    1.1578834    31.015963       31.016       31.016    29837.116 
 1510000    296.91319   -2750.4311   -23017.966   -24882.749    1864.7831    1.1578834    31.015963       31.016       31.016    29837.116 
 1511000    301.82973    -3033.011   -22923.683   -24819.345    1895.6618    1.1578834    31.015963       31.016       31.016    29837.116 
 1512000    298.82737   -1938.5401   -23022.155    -24898.96    1876.8052    1.1578834    31.015963       31.016       31.016    29837.116 
 1513000    303.22228   -2685.8445   -22974.132    -24878.54    1904.4078    1.1578834    31.015963       31.016       31.016    29837.116 
 1514000     301.4969   -2602.6419   -22935.691   -24829.262    1893.5714    1.1578834    31.015963       31.016       31.016    29837.116 
 1515000    289.71226   -2229.1931   -23057.993    -24877.55    1819.5572    1.1578834    31.015963       31.016       31.016    29837.116 
 1516000    298.98343   -2263.3156   -22932.973   -24810.758    1877.7854    1.1578834    31.015963       31.016       31.016    29837.116 
 1517000    293.32614   -2911.3825    -23077.07   -24919.325    1842.2544    1.1578834    31.015963       31.016       31.016    29837.116 
 1518000    296.24032   -3268.1176    -23045.84   -24906.397    1860.5571    1.1578834    31.015963       31.016       31.016    29837.116 
 1519000     307.4303   -3486.4529   -22943.947   -24874.784    1930.8365    1.1578834    31.015963       31.016       31.016    29837.116 
 1520000    301.53769   -2478.5036   -23056.741   -24950.569    1893.8276    1.1578834    31.015963       31.016       31.016    29837.116 
 1521000    295.69926    -2626.652   -23023.696   -24880.855     1857.159    1.1578834    31.015963       31.016       31.016    29837.116 
 1522000    293.08803   -2509.8057   -23036.648   -24877.407    1840.7589    1.1578834    31.015963       31.016       31.016    29837.116 
 1523000    307.67363   -2605.2263   -22908.202   -24840.567    1932.3648    1.1578834    31.015963       31.016       31.016    29837.116 
 1524000    299.74008   -2582.7221   -22912.927   -24795.464    1882.5376    1.1578834    31.015963       31.016       31.016    29837.116 
 1525000    310.99331   -2856.7951    -22934.22   -24887.434    1953.2143    1.1578834    31.015963       31.016       31.016    29837.116 
 1526000     292.8137   -3441.8632   -23013.616   -24852.652     1839.036    1.1578834    31.015963       31.016       31.016    29837.116 
 1527000    295.75624   -2419.9608   -23050.323    -24907.84    1857.5168    1.1578834    31.015963       31.016       31.016    29837.116 
 1528000    307.46451   -2998.3753   -22881.561   -24812.612    1931.0514    1.1578834    31.015963       31.016       31.016    29837.116 
 1529000     299.2438   -3469.6315   -23008.674   -24888.094    1879.4207    1.1578834    31.015963       31.016       31.016    29837.116 
 1530000     297.3731   -3184.0549   -23043.198   -24910.869    1867.6716    1.1578834    31.015963       31.016       31.016    29837.116 
 1531000    300.58642   -1356.9258   -23081.987    -24969.84    1887.8531    1.1578834    31.015963       31.016       31.016    29837.116 
 1532000    299.79749   -2622.7594   -23062.076   -24944.974    1882.8982    1.1578834    31.015963       31.016       31.016    29837.116 
 1533000    304.14139   -2667.0072    -22939.97    -24850.15    1910.1803    1.1578834    31.015963       31.016       31.016    29837.116 
 1534000    305.17462   -3416.5676   -22859.413   -24776.082    1916.6696    1.1578834    31.015963       31.016       31.016    29837.116 
 1535000    302.51742   -2392.1498   -22858.662   -24758.643    1899.9808    1.1578834    31.015963       31.016       31.016    29837.116 
 1536000    294.75865   -2734.8803   -22962.892   -24814.143    1851.2514    1.1578834    31.015963       31.016       31.016    29837.116 
 1537000    307.41276    -2542.634    -22900.41   -24831.136    1930.7263    1.1578834    31.015963       31.016       31.016    29837.116 
 1538000    295.27331   -2966.4911    -22978.05   -24832.534    1854.4838    1.1578834    31.015963       31.016       31.016    29837.116 
 1539000    286.55668   -1821.8503   -23142.634   -24942.373    1799.7384    1.1578834    31.015963       31.016       31.016    29837.116 
 1540000    298.33843   -1791.0599   -23020.728   -24894.463    1873.7344    1.1578834    31.015963       31.016       31.016    29837.116 
 1541000    295.28719   -3071.6677   -22919.601   -24774.172    1854.5709    1.1578834    31.015963       31.016       31.016    29837.116 
 1542000    296.16233   -2823.6988   -22842.576   -24702.644    1860.0673    1.1578834    31.015963       31.016       31.016    29837.116 
 1543000    301.18059   -2931.0032   -22970.649   -24862.234    1891.5848    1.1578834    31.015963       31.016       31.016    29837.116 
 1544000    295.23311    -1837.894   -23026.484   -24880.715    1854.2313    1.1578834    31.015963       31.016       31.016    29837.116 
 1545000    292.40116   -2651.0287   -22963.075    -24799.52     1836.445    1.1578834    31.015963       31.016       31.016    29837.116 
 1546000    293.20477   -3668.9154    -22994.32   -24835.812    1841.4921    1.1578834    31.015963       31.016       31.016    29837.116 
 1547000    300.11446   -2175.9889    -22914.98   -24799.869    1884.8889    1.1578834    31.015963       31.016       31.016    29837.116 
 1548000    291.89556   -3142.5033   -23031.183   -24864.452    1833.2695    1.1578834    31.015963       31.016       31.016    29837.116 
 1549000    299.09261   -3683.6186   -22986.925   -24865.397    1878.4711    1.1578834    31.015963       31.016       31.016    29837.116 
 1550000    298.13619   -1946.3542   -22954.793   -24827.257    1872.4642    1.1578834    31.015963       31.016       31.016    29837.116 
 1551000      295.673   -3105.3317   -23013.945   -24870.939     1856.994    1.1578834    31.015963       31.016       31.016    29837.116 
 1552000    289.24085   -4026.0308   -23079.109   -24895.705    1816.5965    1.1578834    31.015963       31.016       31.016    29837.116 
 1553000     299.3438   -3049.3211   -22935.532   -24815.581    1880.0487    1.1578834    31.015963       31.016       31.016    29837.116 
 1554000    298.36974     -3168.36   -22989.012   -24862.943    1873.9311    1.1578834    31.015963       31.016       31.016    29837.116 
 1555000    303.33943   -3400.0552   -22964.109   -24869.252    1905.1435    1.1578834    31.015963       31.016       31.016    29837.116 
 1556000    305.96498   -2165.5559   -22886.286   -24807.919    1921.6335    1.1578834    31.015963       31.016       31.016    29837.116 
 1557000    291.97466   -2203.5637   -22954.704    -24788.47    1833.7664    1.1578834    31.015963       31.016       31.016    29837.116 
 1558000    299.79863   -2652.9087   -22949.967   -24832.872    1882.9053    1.1578834    31.015963       31.016       31.016    29837.116 
 1559000    296.50508   -2845.1396   -22985.938   -24848.158    1862.2199    1.1578834    31.015963       31.016       31.016    29837.116 
 1560000      297.618   -2935.0324   -22867.788   -24736.998    1869.2097    1.1578834    31.015963       31.016       31.016    29837.116 
 1561000    294.23361   -3667.0701   -22991.663   -24839.617    1847.9538    1.1578834    31.015963       31.016       31.016    29837.116 
 1562000    303.19465   -2791.2922   -22961.755   -24865.989    1904.2342    1.1578834    31.015963       31.016       31.016    29837.116 
 1563000    291.29839   -2777.4075   -23024.457   -24853.975     1829.519    1.1578834    31.015963       31.016       31.016    29837.116 
 1564000    297.74835     -2304.33    -22988.98   -24859.009    1870.0284    1.1578834    31.015963       31.016       31.016    29837.116 
 1565000    300.01956   -3686.8697   -23032.489   -24916.782    1884.2929    1.1578834    31.015963       31.016       31.016    29837.116 
 1566000    300.10945   -3125.6379   -22990.316   -24875.173    1884.8574    1.1578834    31.015963       31.016       31.016    29837.116 
 1567000    297.62154   -3185.2493   -23105.259   -24974.491    1869.2319    1.1578834    31.015963       31.016       31.016    29837.116 
 1568000    296.84587   -2177.2397   -23013.211   -24877.571    1864.3603    1.1578834    31.015963       31.016       31.016    29837.116 
 1569000    306.40354   -3551.5067   -22933.729   -24858.117    1924.3879    1.1578834    31.015963       31.016       31.016    29837.116 
 1570000    296.68301    -2495.685   -23040.747   -24904.085    1863.3375    1.1578834    31.015963       31.016       31.016    29837.116 
 1571000    300.87767   -2854.1628   -22984.552   -24874.235    1889.6823    1.1578834    31.015963       31.016       31.016    29837.116 
 1572000    297.36021   -2062.9358   -23041.304   -24908.895    1867.5907    1.1578834    31.015963       31.016       31.016    29837.116 
 1573000    304.03131   -2525.0638   -23006.428   -24915.917    1909.4889    1.1578834    31.015963       31.016       31.016    29837.116 
 1574000    290.42353   -3056.2131   -23148.684   -24972.708    1824.0243    1.1578834    31.015963       31.016       31.016    29837.116 
 1575000     295.6444   -3498.0584   -23053.546    -24910.36    1856.8144    1.1578834    31.015963       31.016       31.016    29837.116 
 1576000    301.19922   -3338.3141   -23037.015   -24928.717    1891.7018    1.1578834    31.015963       31.016       31.016    29837.116 
 1577000    305.92379   -2134.7621   -22933.091   -24854.465    1921.3748    1.1578834    31.015963       31.016       31.016    29837.116 
 1578000    300.20823   -3300.0232   -22991.274   -24876.752    1885.4778    1.1578834    31.015963       31.016       31.016    29837.116 
 1579000    298.43399   -2564.8215   -23073.345    -24947.68    1874.3346    1.1578834    31.015963       31.016       31.016    29837.116 
 1580000    309.05094   -2608.9826   -22891.621   -24832.636    1941.0151    1.1578834    31.015963       31.016       31.016    29837.116 
 1581000    290.89391   -1810.1765   -23117.595   -24944.573    1826.9786    1.1578834    31.015963       31.016       31.016    29837.116 
 1582000    290.82418   -2575.7497   -23072.594   -24899.135    1826.5407    1.1578834    31.015963       31.016       31.016    29837.116 
 1583000    293.32548   -2305.6065   -23029.257   -24871.507    1842.2503    1.1578834    31.015963       31.016       31.016    29837.116 
 1584000    295.47196    -2319.934   -23033.607   -24889.338    1855.7314    1.1578834    31.015963       31.016       31.016    29837.116 
 1585000    297.17069   -2334.5413   -22990.312   -24856.712    1866.4004    1.1578834    31.015963       31.016       31.016    29837.116 
 1586000    302.72474   -2829.8985   -22945.937    -24847.22     1901.283    1.1578834    31.015963       31.016       31.016    29837.116 
 1587000    294.19674    -2735.716   -23029.244   -24876.966    1847.7223    1.1578834    31.015963       31.016       31.016    29837.116 
 1588000    295.82654   -3280.7079   -23053.502    -24911.46    1857.9584    1.1578834    31.015963       31.016       31.016    29837.116 
 1589000    300.04184   -2517.6209   -23013.566   -24897.999    1884.4328    1.1578834    31.015963       31.016       31.016    29837.116 
 1590000    296.84288   -2461.7689   -23075.399    -24939.74    1864.3415    1.1578834    31.015963       31.016       31.016    29837.116 
 1591000    300.11891   -1616.6285   -22916.793    -24801.71    1884.9169    1.1578834    31.015963       31.016       31.016    29837.116 
 1592000    307.14636   -3427.2711   -22935.565   -24864.618    1929.0532    1.1578834    31.015963       31.016       31.016    29837.116 
 1593000    297.69727   -3348.3406   -22952.269   -24821.976    1869.7076    1.1578834    31.015963       31.016       31.016    29837.116 
 1594000    299.25073   -2473.5305    -23003.35   -24882.814    1879.4642    1.1578834    31.015963       31.016       31.016    29837.116 
 1595000     301.3361   -1879.8199   -22928.198   -24820.759    1892.5615    1.1578834    31.015963       31.016       31.016    29837.116 
 1596000    293.27393   -2564.0447   -22981.609   -24823.535    1841.9265    1.1578834    31.015963       31.016       31.016    29837.116 
 1597000    299.45318   -2321.3496   -22987.666   -24868.402    1880.7357    1.1578834    31.015963       31.016       31.016    29837.116 
 1598000    297.12227   -2602.9263   -22974.012   -24840.108    1866.0962    1.1578834    31.015963       31.016       31.016    29837.116 
 1599000    288.75726   -1637.1167   -23057.233   -24870.792    1813.5593    1.1578834    31.015963       31.016       31.016    29837.116 
 1600000    296.14877   -3260.2586   -22959.792   -24819.774    1859.9821    1.1578834    31.015963       31.016       31.016    29837.116 
 1601000    290.78617   -3067.1472   -23036.318    -24862.62     1826.302    1.1578834    31.015963       31.016       31.016    29837.116 
 1602000    299.29852   -2659.0179   -22956.809   -24836.573    1879.7644    1.1578834    31.015963       31.016       31.016    29837.116 
 1603000    292.43284   -3352.9559   -23056.337   -24892.981     1836.644    1.1578834    31.015963       31.016       31.016    29837.116 
 1604000    301.67916   -2196.3056    -22978.92   -24873.636    1894.7161    1.1578834    31.015963       31.016       31.016    29837.116 
 1605000    288.89991   -3064.1066   -23037.432   -24851.888    1814.4552    1.1578834    31.015963       31.016       31.016    29837.116 
 1606000    301.44244   -2721.3228   -22975.891    -24869.12    1893.2294    1.1578834    31.015963       31.016       31.016    29837.116 
 1607000    293.90957   -1662.4799   -23024.763   -24870.682    1845.9187    1.1578834    31.015963       31.016       31.016    29837.116 
 1608000    289.91094   -2412.5737   -22998.376   -24819.181     1820.805    1.1578834    31.015963       31.016       31.016    29837.116 
 1609000    293.52705   -2680.7375   -23045.407   -24888.923    1843.5163    1.1578834    31.015963       31.016       31.016    29837.116 
 1610000    297.84396   -2295.2042   -22942.389   -24813.018    1870.6289    1.1578834    31.015963       31.016       31.016    29837.116 
 1611000    302.96267   -2607.6907   -22948.057   -24850.835    1902.7773    1.1578834    31.015963       31.016       31.016    29837.116 
 1612000    296.69219   -2154.9557   -23036.426   -24899.821    1863.3951    1.1578834    31.015963       31.016       31.016    29837.116 
 1613000    295.76347   -2672.0283   -23080.351   -24937.913    1857.5622    1.1578834    31.015963       31.016       31.016    29837.116 
 1614000    306.40817   -2481.1263   -22920.454   -24844.871     1924.417    1.1578834    31.015963       31.016       31.016    29837.116 
 1615000    296.97114   -2740.7918   -23022.038   -24887.185    1865.1471    1.1578834    31.015963       31.016       31.016    29837.116 
 1616000    296.24525   -3112.0917   -23047.968   -24908.556    1860.5881    1.1578834    31.015963       31.016       31.016    29837.116 
 1617000    304.90668   -1904.9414   -22895.976   -24810.963    1914.9868    1.1578834    31.015963       31.016       31.016    29837.116 
 1618000    299.37227   -2999.1483   -23024.197   -24904.425    1880.2276    1.1578834    31.015963       31.016       31.016    29837.116 
 1619000    295.40859   -2263.8253   -23057.467     -24912.8    1855.3334    1.1578834    31.015963       31.016       31.016    29837.116 
 1620000    302.19727   -2624.5487   -22960.384   -24858.354    1897.9702    1.1578834    31.015963       31.016       31.016    29837.116 
 1621000    296.04541   -3197.9043   -22971.952   -24831.285     1859.333    1.1578834    31.015963       31.016       31.016    29837.116 
 1622000    304.39923   -2597.0907   -23004.174   -24915.974    1911.7997    1.1578834    31.015963       31.016       31.016    29837.116 
 1623000    300.79349   -2038.3286   -22991.065   -24880.219    1889.1536    1.1578834    31.015963       31.016       31.016    29837.116 
 1624000    292.75501   -2747.8376   -23117.247   -24955.914    1838.6674    1.1578834    31.015963       31.016       31.016    29837.116 
 1625000    300.22885   -2213.3648    -23005.95   -24891.558    1885.6073    1.1578834    31.015963       31.016       31.016    29837.116 
 1626000    292.09381   -3647.3614   -22966.042   -24800.557    1834.5147    1.1578834    31.015963       31.016       31.016    29837.116 
 1627000    291.28307   -3106.8153   -23036.944   -24866.367    1829.4227    1.1578834    31.015963       31.016       31.016    29837.116 
 1628000    299.16082    -1917.761   -22985.624   -24864.524    1878.8995    1.1578834    31.015963       31.016       31.016    29837.116 
 1629000    295.31695    -2849.166   -22972.192    -24826.95    1854.7578    1.1578834    31.015963       31.016       31.016    29837.116 
 1630000    299.70163   -2922.4231   -22938.446   -24820.742    1882.2961    1.1578834    31.015963       31.016       31.016    29837.116 
 1631000    302.66043   -2420.3766   -22901.699   -24802.578    1900.8791    1.1578834    31.015963       31.016       31.016    29837.116 
 1632000    303.94264   -3310.0966   -22878.029   -24786.961     1908.932    1.1578834    31.015963       31.016       31.016    29837.116 
 1633000    293.00456   -3101.7601   -23002.444   -24842.679    1840.2347    1.1578834    31.015963       31.016       31.016    29837.116 
 1634000    288.79975   -3329.5239   -23040.574     -24854.4    1813.8261    1.1578834    31.015963       31.016       31.016    29837.116 
 1635000     287.6745    -2948.595   -23050.616   -24857.374    1806.7589    1.1578834    31.015963       31.016       31.016    29837.116 
 1636000    297.23189   -2493.0921   -23045.574   -24912.359    1866.7847    1.1578834    31.015963       31.016       31.016    29837.116 
 1637000    304.52945   -3869.4631   -23032.133    -24944.75    1912.6175    1.1578834    31.015963       31.016       31.016    29837.116 
 1638000    299.41322   -3288.3618   -22985.689   -24866.174    1880.4847    1.1578834    31.015963       31.016       31.016    29837.116 
 1639000    292.29218   -2755.7923   -23084.319   -24920.079    1835.7606    1.1578834    31.015963       31.016       31.016    29837.116 
 1640000    299.18054   -2410.6933   -23078.651   -24957.674    1879.0234    1.1578834    31.015963       31.016       31.016    29837.116 
 1641000    297.98274   -3328.5286   -23111.702   -24983.203    1871.5005    1.1578834    31.015963       31.016       31.016    29837.116 
 1642000    284.09168   -3376.3247   -23096.173    -24880.43    1784.2568    1.1578834    31.015963       31.016       31.016    29837.116 
 1643000    287.90355   -2053.7221   -22996.761   -24804.958    1808.1975    1.1578834    31.015963       31.016       31.016    29837.116 
 1644000    300.44978   -3058.2233   -22924.466   -24811.461    1886.9949    1.1578834    31.015963       31.016       31.016    29837.116 
 1645000    293.90165   -2522.1788   -23076.551    -24922.42    1845.8689    1.1578834    31.015963       31.016       31.016    29837.116 
 1646000    306.15221   -1958.2186   -22963.009   -24885.818    1922.8094    1.1578834    31.015963       31.016       31.016    29837.116 
 1647000    293.13436   -2871.6734   -22981.019   -24822.069    1841.0499    1.1578834    31.015963       31.016       31.016    29837.116 
 1648000    293.65417   -2606.6261   -23016.212   -24860.526    1844.3146    1.1578834    31.015963       31.016       31.016    29837.116 
 1649000    300.49739   -2137.0206   -22945.612   -24832.906    1887.2939    1.1578834    31.015963       31.016       31.016    29837.116 
 1650000    302.54868   -2871.7962   -23040.482   -24940.659    1900.1772    1.1578834    31.015963       31.016       31.016    29837.116 
 1651000    294.50989    -3292.845   -23000.273   -24849.962     1849.689    1.1578834    31.015963       31.016       31.016    29837.116 
 1652000     294.2217   -2262.6666    -23022.57   -24870.449     1847.879    1.1578834    31.015963       31.016       31.016    29837.116 
 1653000    293.79404   -2154.4421   -23020.925   -24866.118    1845.1931    1.1578834    31.015963       31.016       31.016    29837.116 
 1654000    305.48256   -2444.3369   -22924.514   -24843.118    1918.6036    1.1578834    31.015963       31.016       31.016    29837.116 
 1655000    289.42244   -2606.7391   -23032.014   -24849.751    1817.7369    1.1578834    31.015963       31.016       31.016    29837.116 
 1656000    300.55694    -2319.647   -22944.157   -24831.825    1887.6679    1.1578834    31.015963       31.016       31.016    29837.116 
 1657000    298.76089   -2839.9236   -22955.493   -24831.881    1876.3877    1.1578834    31.015963       31.016       31.016    29837.116 
 1658000    308.12934   -2928.1862   -23003.269   -24938.496    1935.2269    1.1578834    31.015963       31.016       31.016    29837.116 
 1659000      290.392   -1893.7374   -23054.596   -24878.422    1823.8263    1.1578834    31.015963       31.016       31.016    29837.116 
 1660000    297.38311   -1949.0449   -22933.237   -24800.971    1867.7345    1.1578834    31.015963       31.016       31.016    29837.116 
 1661000    287.02996   -3068.6138   -23056.657   -24859.368    1802.7109    1.1578834    31.015963       31.016       31.016    29837.116 
 1662000    301.65583   -1707.1911   -22959.148   -24853.718    1894.5696    1.1578834    31.015963       31.016       31.016    29837.116 
 1663000    287.59669   -2765.1441   -23001.736   -24808.007    1806.2702    1.1578834    31.015963       31.016       31.016    29837.116 
 1664000    292.77576   -2814.8393   -22965.069   -24803.867    1838.7977    1.1578834    31.015963       31.016       31.016    29837.116 
 1665000    300.29227   -1914.4235   -22932.966   -24818.972    1886.0056    1.1578834    31.015963       31.016       31.016    29837.116 
 1666000    297.30026   -2723.8515   -22987.344   -24854.558    1867.2141    1.1578834    31.015963       31.016       31.016    29837.116 
 1667000    303.23441   -3100.2487   -22980.324   -24884.808     1904.484    1.1578834    31.015963       31.016       31.016    29837.116 
 1668000     291.1907   -2258.9116   -23049.044   -24877.886    1828.8427    1.1578834    31.015963       31.016       31.016    29837.116 
 1669000    297.42557   -2398.8033   -23074.317   -24942.319    1868.0011    1.1578834    31.015963       31.016       31.016    29837.116 
 1670000    300.90697   -3221.0455   -23100.286   -24990.152    1889.8663    1.1578834    31.015963       31.016       31.016    29837.116 
 1671000    304.50432   -2944.0807   -23047.931    -24960.39    1912.4597    1.1578834    31.015963       31.016       31.016    29837.116 
 1672000    294.95918   -1593.2686   -23105.975   -24958.485    1852.5108    1.1578834    31.015963       31.016       31.016    29837.116 
 1673000      298.529   -2388.0372   -23136.677   -25011.608    1874.9313    1.1578834    31.015963       31.016       31.016    29837.116 
 1674000    297.64012   -2359.3681   -23058.439   -24927.788    1869.3486    1.1578834    31.015963       31.016       31.016    29837.116 
 1675000    304.83384     -2076.27   -23029.736   -24944.265    1914.5293    1.1578834    31.015963       31.016       31.016    29837.116 
 1676000    299.58666   -3123.9651   -22966.274   -24847.848     1881.574    1.1578834    31.015963       31.016       31.016    29837.116 
 1677000    293.39161   -2582.9232   -23026.055   -24868.721    1842.6656    1.1578834    31.015963       31.016       31.016    29837.116 
 1678000    300.22722    -2711.059   -22955.023    -24840.62    1885.5971    1.1578834    31.015963       31.016       31.016    29837.116 
 1679000      300.169   -3211.9749   -23050.524   -24935.755    1885.2315    1.1578834    31.015963       31.016       31.016    29837.116 
 1680000    302.45286   -2717.3082   -23033.162   -24932.737    1899.5754    1.1578834    31.015963       31.016       31.016    29837.116 
 1681000     311.2787   -2928.2133   -22940.072   -24895.079    1955.0067    1.1578834    31.015963       31.016       31.016    29837.116 
 1682000    290.54581   -3167.2567    -23042.53   -24867.323    1824.7923    1.1578834    31.015963       31.016       31.016    29837.116 
 1683000     293.4073    -2637.789   -23088.982   -24931.747    1842.7641    1.1578834    31.015963       31.016       31.016    29837.116 
 1684000    300.29169   -3246.9967   -22976.507   -24862.509     1886.002    1.1578834    31.015963       31.016       31.016    29837.116 
 1685000    301.17339   -3433.5385   -23008.559   -24900.099    1891.5396    1.1578834    31.015963       31.016       31.016    29837.116 
 1686000    298.04246    -3420.568   -23015.778   -24887.654    1871.8756    1.1578834    31.015963       31.016       31.016    29837.116 
 1687000    302.52594   -2656.8698   -23019.431   -24919.465    1900.0344    1.1578834    31.015963       31.016       31.016    29837.116 
 1688000    297.32312   -2539.8094   -22988.658   -24856.016    1867.3577    1.1578834    31.015963       31.016       31.016    29837.116 
 1689000    294.71777    -2043.613   -23075.081   -24926.076    1850.9946    1.1578834    31.015963       31.016       31.016    29837.116 
 1690000    295.53531   -2114.5015   -23119.597   -24975.726    1856.1292    1.1578834    31.015963       31.016       31.016    29837.116 
 1691000    294.08259   -2142.6557   -22967.173   -24814.178    1847.0054    1.1578834    31.015963       31.016       31.016    29837.116 
 1692000    306.72894   -2736.6432   -22907.571   -24834.003    1926.4316    1.1578834    31.015963       31.016       31.016    29837.116 
 1693000     293.5396   -2517.6317   -22956.715    -24800.31     1843.595    1.1578834    31.015963       31.016       31.016    29837.116 
 1694000    300.52134   -2881.8741   -22923.854   -24811.299    1887.4443    1.1578834    31.015963       31.016       31.016    29837.116 
 1695000    290.94986   -2612.1148   -23023.274   -24850.604      1827.33    1.1578834    31.015963       31.016       31.016    29837.116 
 1696000    296.09708   -2284.3041   -22940.098   -24799.756    1859.6575    1.1578834    31.015963       31.016       31.016    29837.116 
 1697000    296.30001   -3045.9342   -22973.067   -24833.999     1860.932    1.1578834    31.015963       31.016       31.016    29837.116 
 1698000    308.09543   -2407.9045   -22966.095   -24901.109    1935.0139    1.1578834    31.015963       31.016       31.016    29837.116 
 1699000     307.0782   -3166.4455   -22869.289   -24797.914    1928.6251    1.1578834    31.015963       31.016       31.016    29837.116 
 1700000     294.1545   -3305.6742   -22986.448   -24833.905     1847.457    1.1578834    31.015963       31.016       31.016    29837.116 
 1701000    285.95366   -3401.4041   -23008.902   -24804.853    1795.9511    1.1578834    31.015963       31.016       31.016    29837.116 
 1702000    296.33811   -2557.6179   -23050.076   -24911.247    1861.1713    1.1578834    31.015963       31.016       31.016    29837.116 
 1703000    295.35163   -1794.5284   -23085.592   -24940.568    1854.9756    1.1578834    31.015963       31.016       31.016    29837.116 
 1704000    304.83023   -2863.2975   -22906.498   -24821.005    1914.5066    1.1578834    31.015963       31.016       31.016    29837.116 
 1705000    294.19407   -2666.6044   -22991.839   -24839.545    1847.7055    1.1578834    31.015963       31.016       31.016    29837.116 
 1706000     305.7372   -1780.8999   -22819.776   -24739.979    1920.2029    1.1578834    31.015963       31.016       31.016    29837.116 
 1707000     290.8756   -2721.8209   -22981.944   -24808.807    1826.8636    1.1578834    31.015963       31.016       31.016    29837.116 
 1708000    293.08762   -2835.3466   -22977.072   -24817.828    1840.7564    1.1578834    31.015963       31.016       31.016    29837.116 
 1709000    297.88686   -3220.2538   -23049.319   -24920.217    1870.8983    1.1578834    31.015963       31.016       31.016    29837.116 
 1710000    305.77616   -3565.0912   -22939.258   -24859.705    1920.4476    1.1578834    31.015963       31.016       31.016    29837.116 
 1711000    302.59849   -1787.1992   -22883.963   -24784.453      1900.49    1.1578834    31.015963       31.016       31.016    29837.116 
 1712000    305.80255   -2889.2954   -23026.522   -24947.135    1920.6133    1.1578834    31.015963       31.016       31.016    29837.116 
 1713000    303.33338     -2283.91   -22983.277   -24888.382    1905.1055    1.1578834    31.015963       31.016       31.016    29837.116 
 1714000    294.40873   -3031.6442    -23080.49   -24929.544    1849.0537    1.1578834    31.015963       31.016       31.016    29837.116 
 1715000    304.94878   -2222.8706   -22964.999   -24880.251    1915.2512    1.1578834    31.015963       31.016       31.016    29837.116 
 1716000    302.16578   -3206.6635   -22959.946   -24857.718    1897.7723    1.1578834    31.015963       31.016       31.016    29837.116 
 1717000    296.36404   -3163.8441    -23074.24   -24935.575    1861.3342    1.1578834    31.015963       31.016       31.016    29837.116 
 1718000    302.10096   -3200.7833   -23013.328   -24910.694    1897.3652    1.1578834    31.015963       31.016       31.016    29837.116 
 1719000    307.78405    -3441.468    -22993.63   -24926.688    1933.0583    1.1578834    31.015963       31.016       31.016    29837.116 
 1720000    291.02243   -2337.0446   -23021.208   -24848.994    1827.7858    1.1578834    31.015963       31.016       31.016    29837.116 
 1721000    290.20082   -3611.9322   -23010.728   -24833.354    1822.6256    1.1578834    31.015963       31.016       31.016    29837.116 
 1722000    295.16421   -2498.6232   -22971.299   -24825.098    1853.7985    1.1578834    31.015963       31.016       31.016    29837.116 
 1723000    304.03979   -2822.0767   -22946.569   -24856.111    1909.5422    1.1578834    31.015963       31.016       31.016    29837.116 
 1724000    297.05182   -2066.9192   -22981.624   -24847.278    1865.6538    1.1578834    31.015963       31.016       31.016    29837.116 
 1725000    300.81625   -2770.3779   -22978.816   -24868.113    1889.2965    1.1578834    31.015963       31.016       31.016    29837.116 
 1726000     294.9141   -2556.4054   -23009.211   -24861.439    1852.2277    1.1578834    31.015963       31.016       31.016    29837.116 
 1727000    306.95831   -2868.3332   -22879.955   -24807.827    1927.8722    1.1578834    31.015963       31.016       31.016    29837.116 
 1728000    292.83189   -2990.1468   -22955.573   -24794.723    1839.1502    1.1578834    31.015963       31.016       31.016    29837.116 
 1729000    295.89005   -2732.8634   -22972.409   -24830.766    1858.3572    1.1578834    31.015963       31.016       31.016    29837.116 
 1730000    297.56143   -3166.1338   -23000.763   -24869.618    1868.8544    1.1578834    31.015963       31.016       31.016    29837.116 
 1731000    294.36353   -3030.6472   -23079.587   -24928.356    1848.7698    1.1578834    31.015963       31.016       31.016    29837.116 
 1732000    295.09466   -3492.4155   -22981.306   -24834.668    1853.3617    1.1578834    31.015963       31.016       31.016    29837.116 
 1733000    297.85192   -3130.9207   -23017.502   -24888.181    1870.6789    1.1578834    31.015963       31.016       31.016    29837.116 
 1734000    288.54654   -3082.4672   -22948.727   -24760.962    1812.2358    1.1578834    31.015963       31.016       31.016    29837.116 
 1735000    303.16319   -2314.5161   -22992.247   -24896.284    1904.0367    1.1578834    31.015963       31.016       31.016    29837.116 
 1736000     295.2773   -2181.5747   -23064.051    -24918.56    1854.5088    1.1578834    31.015963       31.016       31.016    29837.116 
 1737000    291.11903   -2745.5887   -23080.509   -24908.902    1828.3925    1.1578834    31.015963       31.016       31.016    29837.116 
 1738000    297.49656   -1901.7788   -23001.071   -24869.518     1868.447    1.1578834    31.015963       31.016       31.016    29837.116 
 1739000    297.39302    -2019.051   -22985.506   -24853.303    1867.7967    1.1578834    31.015963       31.016       31.016    29837.116 
 1740000    293.77272   -3050.5771   -22867.499   -24712.559    1845.0592    1.1578834    31.015963       31.016       31.016    29837.116 
 1741000    295.82852   -2133.2585    -22988.91   -24846.881    1857.9708    1.1578834    31.015963       31.016       31.016    29837.116 
 1742000    303.83996   -2920.6991   -22921.619   -24829.907    1908.2872    1.1578834    31.015963       31.016       31.016    29837.116 
 1743000    304.09843   -3485.7176   -22941.611   -24851.522    1909.9105    1.1578834    31.015963       31.016       31.016    29837.116 
 1744000    292.40949   -2610.7775   -23004.452   -24840.949    1836.4973    1.1578834    31.015963       31.016       31.016    29837.116 
 1745000    294.16434   -2011.5514   -23068.989   -24916.507    1847.5188    1.1578834    31.015963       31.016       31.016    29837.116 
 1746000    299.35516   -2722.6457   -23030.978   -24911.098    1880.1201    1.1578834    31.015963       31.016       31.016    29837.116 
 1747000    297.69513   -3656.4483   -23009.609   -24879.303    1869.6941    1.1578834    31.015963       31.016       31.016    29837.116 
 1748000     297.2064   -2134.5568   -23034.215    -24900.84    1866.6246    1.1578834    31.015963       31.016       31.016    29837.116 
 1749000    301.74743   -1923.6798   -23010.001   -24905.146    1895.1449    1.1578834    31.015963       31.016       31.016    29837.116 
 1750000    285.61235   -3391.1944   -23042.887   -24836.694    1793.8074    1.1578834    31.015963       31.016       31.016    29837.116 
 1751000    298.00703   -2852.5529   -22919.328   -24790.981    1871.6531    1.1578834    31.015963       31.016       31.016    29837.116 
 1752000    298.56736   -1536.8023   -22991.776   -24866.948    1875.1722    1.1578834    31.015963       31.016       31.016    29837.116 
 1753000    300.06278    -2855.887    -23057.28   -24941.845    1884.5644    1.1578834    31.015963       31.016       31.016    29837.116 
 1754000    298.94588   -2927.2643   -23022.531    -24900.08    1877.5496    1.1578834    31.015963       31.016       31.016    29837.116 
 1755000    298.09044   -2689.4783   -23027.601   -24899.778    1872.1769    1.1578834    31.015963       31.016       31.016    29837.116 
 1756000    293.33153   -2371.9319     -23096.9   -24939.188    1842.2882    1.1578834    31.015963       31.016       31.016    29837.116 
 1757000    294.96769   -2668.3195   -23025.074   -24877.638    1852.5643    1.1578834    31.015963       31.016       31.016    29837.116 
 1758000    290.83303   -2650.4931   -23082.774    -24909.37    1826.5963    1.1578834    31.015963       31.016       31.016    29837.116 
 1759000    297.57376   -2814.1079   -23026.903   -24895.834    1868.9319    1.1578834    31.015963       31.016       31.016    29837.116 
 1760000    303.15865   -3429.2285   -22947.939   -24851.947    1904.0082    1.1578834    31.015963       31.016       31.016    29837.116 
 1761000    302.75191   -2394.5912    -23018.25   -24919.704    1901.4536    1.1578834    31.015963       31.016       31.016    29837.116 
 1762000    294.91029   -2658.6845   -23070.113   -24922.316    1852.2038    1.1578834    31.015963       31.016       31.016    29837.116 
 1763000     294.6911   -2730.0476   -22973.926   -24824.753    1850.8271    1.1578834    31.015963       31.016       31.016    29837.116 
 1764000    297.43831   -2810.4135    -22906.92   -24775.001    1868.0812    1.1578834    31.015963       31.016       31.016    29837.116 
 1765000     296.0886   -2643.6411   -22994.292   -24853.896    1859.6042    1.1578834    31.015963       31.016       31.016    29837.116 
 1766000    292.28351   -2752.7826   -23051.995   -24887.701    1835.7061    1.1578834    31.015963       31.016       31.016    29837.116 
 1767000    290.89388   -2383.4963   -23078.783   -24905.762    1826.9784    1.1578834    31.015963       31.016       31.016    29837.116 
 1768000    297.30413   -2576.9825   -23022.997   -24890.235    1867.2384    1.1578834    31.015963       31.016       31.016    29837.116 
 1769000     300.6845   -2551.4024   -23056.823   -24945.292    1888.4691    1.1578834    31.015963       31.016       31.016    29837.116 
 1770000    290.91132   -2271.1635   -23006.058   -24833.146    1827.0879    1.1578834    31.015963       31.016       31.016    29837.116 
 1771000    296.20192   -2694.4743   -23045.067   -24905.383     1860.316    1.1578834    31.015963       31.016       31.016    29837.116 
 1772000    302.00329   -1758.9634   -22921.808   -24818.559    1896.7519    1.1578834    31.015963       31.016       31.016    29837.116 
 1773000    297.94975   -2905.9153   -23000.584   -24871.877    1871.2933    1.1578834    31.015963       31.016       31.016    29837.116 
 1774000    295.31546   -2892.4733   -23004.484   -24859.232    1854.7485    1.1578834    31.015963       31.016       31.016    29837.116 
 1775000    299.07628   -3495.4775   -22986.502    -24864.87    1878.3685    1.1578834    31.015963       31.016       31.016    29837.116 
 1776000    294.07252   -3014.9393   -23093.112   -24940.054    1846.9421    1.1578834    31.015963       31.016       31.016    29837.116 
 1777000    293.93601   -2318.4969   -22971.029   -24817.114    1846.0847    1.1578834    31.015963       31.016       31.016    29837.116 
 1778000     295.4082   -2570.4854    -23095.65   -24950.981    1855.3309    1.1578834    31.015963       31.016       31.016    29837.116 
 1779000    302.13852   -2202.5588   -23131.726   -25029.327    1897.6011    1.1578834    31.015963       31.016       31.016    29837.116 
 1780000    298.74991   -1982.4373   -22950.976   -24827.294    1876.3187    1.1578834    31.015963       31.016       31.016    29837.116 
 1781000     301.0968   -2711.3004   -23047.578   -24938.637    1891.0586    1.1578834    31.015963       31.016       31.016    29837.116 
 1782000    299.30587   -3533.4506   -22981.425   -24861.236    1879.8105    1.1578834    31.015963       31.016       31.016    29837.116 
 1783000    295.48382   -2887.8062   -23021.193   -24876.999    1855.8059    1.1578834    31.015963       31.016       31.016    29837.116 
 1784000    300.35924   -2738.0768    -22974.43   -24860.856    1886.4263    1.1578834    31.015963       31.016       31.016    29837.116 
 1785000    291.14223   -2700.6301   -23034.681   -24863.219    1828.5382    1.1578834    31.015963       31.016       31.016    29837.116 
 1786000    300.12753   -2521.4007   -23055.569    -24940.54     1884.971    1.1578834    31.015963       31.016       31.016    29837.116 
 1787000    303.98751    -3225.429   -22944.113   -24853.327    1909.2138    1.1578834    31.015963       31.016       31.016    29837.116 
 1788000    297.76115   -1654.8079   -22984.237   -24854.346    1870.1088    1.1578834    31.015963       31.016       31.016    29837.116 
 1789000    294.15071   -2635.2973   -23003.544   -24850.977    1847.4332    1.1578834    31.015963       31.016       31.016    29837.116 
 1790000    293.13416   -2653.4155   -22951.814   -24792.863    1841.0486    1.1578834    31.015963       31.016       31.016    29837.116 
 1791000    290.91746   -3063.1901    -23022.32   -24849.446    1827.1265    1.1578834    31.015963       31.016       31.016    29837.116 
 1792000    308.15922   -2303.5796   -22893.627   -24829.041    1935.4146    1.1578834    31.015963       31.016       31.016    29837.116 
 1793000    302.91328    -2329.746   -22980.633     -24883.1    1902.4671    1.1578834    31.015963       31.016       31.016    29837.116 
 1794000    298.58618   -2731.8459   -23058.154   -24933.444    1875.2904    1.1578834    31.015963       31.016       31.016    29837.116 
 1795000    295.85494   -2347.8899   -22966.497   -24824.634    1858.1367    1.1578834    31.015963       31.016       31.016    29837.116 
 1796000    295.47737   -2735.2958   -22988.821   -24844.587    1855.7653    1.1578834    31.015963       31.016       31.016    29837.116 
 1797000     303.9246   -2034.3636   -22974.628   -24883.447    1908.8187    1.1578834    31.015963       31.016       31.016    29837.116 
 1798000    293.19888   -3334.7163   -23052.667   -24894.122    1841.4551    1.1578834    31.015963       31.016       31.016    29837.116 
 1799000    310.10179   -2900.2946   -22968.477   -24916.092     1947.615    1.1578834    31.015963       31.016       31.016    29837.116 
 1800000    297.16562   -2453.1707   -22970.187   -24836.555    1866.3685    1.1578834    31.015963       31.016       31.016    29837.116 
 1801000    286.67895   -1524.4603    -22975.78   -24776.286    1800.5063    1.1578834    31.015963       31.016       31.016    29837.116 
 1802000    289.08538   -2333.3409   -23020.386   -24836.006      1815.62    1.1578834    31.015963       31.016       31.016    29837.116 
 1803000    292.30744   -2625.3957   -23049.499   -24885.355    1835.8564    1.1578834    31.015963       31.016       31.016    29837.116 
 1804000    310.17283   -2166.1716   -22926.933   -24874.994    1948.0612    1.1578834    31.015963       31.016       31.016    29837.116 
 1805000    295.58516   -2648.1037   -23053.942   -24910.384    1856.4423    1.1578834    31.015963       31.016       31.016    29837.116 
 1806000    302.51329   -2004.9601    -22945.48   -24845.435    1899.9549    1.1578834    31.015963       31.016       31.016    29837.116 
 1807000    301.00886   -3254.8359   -22951.525   -24842.031    1890.5063    1.1578834    31.015963       31.016       31.016    29837.116 
 1808000    298.61017   -2768.1435   -23045.488   -24920.929    1875.4411    1.1578834    31.015963       31.016       31.016    29837.116 
 1809000    297.42749   -2942.6386   -23058.023   -24926.037    1868.0132    1.1578834    31.015963       31.016       31.016    29837.116 
 1810000    295.00366   -2089.7144   -22975.365   -24828.155    1852.7902    1.1578834    31.015963       31.016       31.016    29837.116 
 1811000    293.08663   -3157.0849   -23051.877   -24892.628    1840.7502    1.1578834    31.015963       31.016       31.016    29837.116 
 1812000    297.52551   -2869.6349   -22968.127   -24836.756    1868.6288    1.1578834    31.015963       31.016       31.016    29837.116 
 1813000     292.8414   -2859.5831   -22958.281   -24797.491      1839.21    1.1578834    31.015963       31.016       31.016    29837.116 
 1814000     298.6338    -2911.469   -22955.167   -24830.757    1875.5895    1.1578834    31.015963       31.016       31.016    29837.116 
 1815000    295.30408   -2742.2734   -22963.396   -24818.073     1854.677    1.1578834    31.015963       31.016       31.016    29837.116 
 1816000    301.59037   -2734.8162   -22995.577   -24889.735    1894.1585    1.1578834    31.015963       31.016       31.016    29837.116 
 1817000    300.75147   -2373.8333   -22939.919   -24828.808    1888.8897    1.1578834    31.015963       31.016       31.016    29837.116 
 1818000    294.82715   -2543.9968    -23004.78   -24856.461    1851.6816    1.1578834    31.015963       31.016       31.016    29837.116 
 1819000    300.01188   -3197.3631   -22982.144   -24866.389    1884.2446    1.1578834    31.015963       31.016       31.016    29837.116 
 1820000    297.43553   -2061.2204   -22952.587    -24820.65    1868.0637    1.1578834    31.015963       31.016       31.016    29837.116 
 1821000    302.65406   -3046.7544   -23006.218   -24907.057     1900.839    1.1578834    31.015963       31.016       31.016    29837.116 
 1822000    297.21328   -2234.4639   -23049.165   -24915.833    1866.6678    1.1578834    31.015963       31.016       31.016    29837.116 
 1823000    300.87602   -3153.0675    -23029.98   -24919.652    1889.6719    1.1578834    31.015963       31.016       31.016    29837.116 
 1824000    306.86389   -2460.9967   -22968.057   -24895.336    1927.2791    1.1578834    31.015963       31.016       31.016    29837.116 
 1825000    300.47281   -2579.3613   -22915.424   -24802.564    1887.1396    1.1578834    31.015963       31.016       31.016    29837.116 
 1826000    300.75539   -3075.2113   -22995.745   -24884.659    1888.9143    1.1578834    31.015963       31.016       31.016    29837.116 
 1827000    295.68124   -2645.0962   -23045.698   -24902.744    1857.0458    1.1578834    31.015963       31.016       31.016    29837.116 
 1828000     297.2498   -2867.2369   -23027.354   -24894.251    1866.8972    1.1578834    31.015963       31.016       31.016    29837.116 
 1829000    290.03997   -2806.6081   -22997.025   -24818.641    1821.6154    1.1578834    31.015963       31.016       31.016    29837.116 
 1830000    298.56403   -3827.1992   -22950.098    -24825.25    1875.1513    1.1578834    31.015963       31.016       31.016    29837.116 
 1831000    302.97097   -2892.7128   -22970.382   -24873.211    1902.8294    1.1578834    31.015963       31.016       31.016    29837.116 
 1832000    294.94849   -2883.8178    -23086.53   -24938.974    1852.4437    1.1578834    31.015963       31.016       31.016    29837.116 
 1833000    290.88872   -3976.4446   -23127.415   -24954.361     1826.946    1.1578834    31.015963       31.016       31.016    29837.116 
 1834000    291.86345    -2854.587   -22994.014   -24827.082    1833.0679    1.1578834    31.015963       31.016       31.016    29837.116 
 1835000    303.44129   -2681.2184   -22983.557    -24889.34    1905.7833    1.1578834    31.015963       31.016       31.016    29837.116 
 1836000    308.08893   -3323.4628   -22884.205   -24819.178    1934.9731    1.1578834    31.015963       31.016       31.016    29837.116 
 1837000    300.15863   -2680.7769   -23004.267   -24889.433    1885.1663    1.1578834    31.015963       31.016       31.016    29837.116 
 1838000    301.56626   -2715.3731   -22934.003    -24828.01     1894.007    1.1578834    31.015963       31.016       31.016    29837.116 
 1839000    297.91007   -2452.6758   -22987.321   -24858.365    1871.0441    1.1578834    31.015963       31.016       31.016    29837.116 
 1840000    293.51657   -2855.4967   -22967.589    -24811.04    1843.4504    1.1578834    31.015963       31.016       31.016    29837.116 
 1841000    313.20777   -1776.3284     -22871.8   -24838.922    1967.1223    1.1578834    31.015963       31.016       31.016    29837.116 
 1842000     285.7861   -2471.9299   -23076.986   -24871.885    1794.8987    1.1578834    31.015963       31.016       31.016    29837.116 
 1843000    310.41492   -2109.6416   -22863.059   -24812.641    1949.5816    1.1578834    31.015963       31.016       31.016    29837.116 
 1844000    288.53734   -2712.9116   -23026.514   -24838.692     1812.178    1.1578834    31.015963       31.016       31.016    29837.116 
 1845000    294.20175   -3144.4628    -22921.27   -24769.023    1847.7537    1.1578834    31.015963       31.016       31.016    29837.116 
 1846000    297.40575   -3117.4813   -22984.269   -24852.146    1867.8766    1.1578834    31.015963       31.016       31.016    29837.116 
 1847000    295.11861   -2468.3211   -23050.921   -24904.433    1853.5121    1.1578834    31.015963       31.016       31.016    29837.116 
 1848000    296.74674   -3195.1716   -22989.075   -24852.813    1863.7377    1.1578834    31.015963       31.016       31.016    29837.116 
 1849000    300.71399   -2625.8746     -22967.5   -24856.154    1888.6543    1.1578834    31.015963       31.016       31.016    29837.116 
 1850000    293.14624   -2064.9454   -22997.741   -24838.865    1841.1246    1.1578834    31.015963       31.016       31.016    29837.116 
 1851000    294.83727   -3608.6028   -23031.412   -24883.157    1851.7451    1.1578834    31.015963       31.016       31.016    29837.116 
 1852000    296.73808    -2674.989   -23056.737    -24920.42    1863.6833    1.1578834    31.015963       31.016       31.016    29837.116 
 1853000    303.78753    -2493.501   -22990.964   -24898.922    1907.9579    1.1578834    31.015963       31.016       31.016    29837.116 
 1854000    300.13909    -2578.096   -22992.023   -24877.067    1885.0436    1.1578834    31.015963       31.016       31.016    29837.116 
 1855000    296.24571   -3560.1856   -23007.006   -24867.597     1860.591    1.1578834    31.015963       31.016       31.016    29837.116 
 1856000    291.64423    -2743.184    -22986.64   -24818.331     1831.691    1.1578834    31.015963       31.016       31.016    29837.116 
 1857000    304.95387   -2906.5055   -22938.949   -24854.232    1915.2831    1.1578834    31.015963       31.016       31.016    29837.116 
 1858000    293.64831   -2797.2595   -23027.315   -24871.592    1844.2778    1.1578834    31.015963       31.016       31.016    29837.116 
 1859000    294.73123   -3031.9625   -23002.218   -24853.297    1851.0791    1.1578834    31.015963       31.016       31.016    29837.116 
 1860000     294.7266   -2451.4612   -22968.998   -24820.049    1851.0501    1.1578834    31.015963       31.016       31.016    29837.116 
 1861000    297.90825   -2953.3872   -22902.483   -24773.515    1871.0327    1.1578834    31.015963       31.016       31.016    29837.116 
 1862000    297.83501   -3450.6429   -22923.018   -24793.591    1870.5727    1.1578834    31.015963       31.016       31.016    29837.116 
 1863000    301.48816   -3725.1347   -22938.218   -24831.734    1893.5165    1.1578834    31.015963       31.016       31.016    29837.116 
 1864000    295.88317   -1928.1646   -23033.908   -24892.222     1858.314    1.1578834    31.015963       31.016       31.016    29837.116 
 1865000    293.02676   -3072.6069   -23030.484   -24870.858    1840.3741    1.1578834    31.015963       31.016       31.016    29837.116 
 1866000      293.918   -2467.9934   -23037.275   -24883.246    1845.9716    1.1578834    31.015963       31.016       31.016    29837.116 
 1867000    294.45435   -3060.2333   -23064.523   -24913.863    1849.3402    1.1578834    31.015963       31.016       31.016    29837.116 
 1868000    305.13618   -2738.2236   -23031.659   -24948.087    1916.4282    1.1578834    31.015963       31.016       31.016    29837.116 
 1869000      297.614   -2980.3892     -23043.4   -24912.585    1869.1846    1.1578834    31.015963       31.016       31.016    29837.116 
 1870000    300.73759   -3031.1136   -22900.293   -24789.096    1888.8025    1.1578834    31.015963       31.016       31.016    29837.116 
 1871000     298.1212   -2641.4957   -22948.655   -24821.025    1872.3701    1.1578834    31.015963       31.016       31.016    29837.116 
 1872000    299.76377   -3318.9962   -22959.352   -24842.039    1882.6864    1.1578834    31.015963       31.016       31.016    29837.116 
 1873000     294.9164   -3449.3448   -22997.009   -24849.251    1852.2422    1.1578834    31.015963       31.016       31.016    29837.116 
 1874000    309.87272   -3085.7066   -22885.596   -24831.772    1946.1763    1.1578834    31.015963       31.016       31.016    29837.116 
 1875000     296.6353   -3376.7026   -23050.031   -24913.069    1863.0378    1.1578834    31.015963       31.016       31.016    29837.116 
 1876000    292.34123   -2443.0613   -23075.174   -24911.243    1836.0686    1.1578834    31.015963       31.016       31.016    29837.116 
 1877000    297.89332   -3924.7493   -23021.289   -24892.228    1870.9389    1.1578834    31.015963       31.016       31.016    29837.116 
 1878000    292.26224   -3094.7697   -23013.553   -24849.126    1835.5725    1.1578834    31.015963       31.016       31.016    29837.116 
 1879000    304.68906    -3096.971   -22965.748   -24879.368      1913.62    1.1578834    31.015963       31.016       31.016    29837.116 
 1880000    298.06934   -2445.4158   -22967.834   -24839.878    1872.0444    1.1578834    31.015963       31.016       31.016    29837.116 
 1881000    300.36902   -2408.0153   -22947.545   -24834.033    1886.4877    1.1578834    31.015963       31.016       31.016    29837.116 
 1882000    294.85254   -3152.8196   -22972.444   -24824.285     1851.841    1.1578834    31.015963       31.016       31.016    29837.116 
 1883000    298.73256   -2481.7078   -23015.795   -24892.005    1876.2098    1.1578834    31.015963       31.016       31.016    29837.116 
 1884000    310.68622   -2232.2018   -22844.397   -24795.682    1951.2855    1.1578834    31.015963       31.016       31.016    29837.116 
 1885000    302.90249   -2963.9653   -22914.137   -24816.536    1902.3993    1.1578834    31.015963       31.016       31.016    29837.116 
 1886000    294.97433   -2455.3989   -22982.311   -24834.917     1852.606    1.1578834    31.015963       31.016       31.016    29837.116 
 1887000     297.5112   -2673.9055   -22948.557   -24817.095    1868.5389    1.1578834    31.015963       31.016       31.016    29837.116 
 1888000    308.57188   -2468.5412    -22755.02   -24693.026    1938.0063    1.1578834    31.015963       31.016       31.016    29837.116 
 1889000    297.89926   -2415.5308   -22953.689   -24824.665    1870.9762    1.1578834    31.015963       31.016       31.016    29837.116 
 1890000    291.26361   -2925.0553   -22957.727   -24787.027    1829.3006    1.1578834    31.015963       31.016       31.016    29837.116 
 1891000    297.23759    -3828.503   -22978.429   -24845.249    1866.8205    1.1578834    31.015963       31.016       31.016    29837.116 
 1892000    306.30749   -2387.4772   -22924.963   -24848.747    1923.7847    1.1578834    31.015963       31.016       31.016    29837.116 
 1893000    302.48669    -2122.703   -22909.125   -24808.912    1899.7878    1.1578834    31.015963       31.016       31.016    29837.116 
 1894000    301.00782    -1610.866   -22948.599   -24839.099    1890.4997    1.1578834    31.015963       31.016       31.016    29837.116 
 1895000    300.33267   -3556.5301   -22970.538   -24856.798    1886.2594    1.1578834    31.015963       31.016       31.016    29837.116 
 1896000    295.87589   -2818.5701   -22988.598   -24846.866    1858.2683    1.1578834    31.015963       31.016       31.016    29837.116 
 1897000    306.80539    -2666.735   -22889.694   -24816.605    1926.9117    1.1578834    31.015963       31.016       31.016    29837.116 
 1898000    292.39018   -2999.8698   -22984.474    -24820.85     1836.376    1.1578834    31.015963       31.016       31.016    29837.116 
 1899000    300.30205   -2686.6483   -22877.623    -24763.69    1886.0671    1.1578834    31.015963       31.016       31.016    29837.116 
 1900000    297.55875   -3416.6317   -22890.876   -24759.714    1868.8376    1.1578834    31.015963       31.016       31.016    29837.116 
 1901000    292.02967   -2689.7873   -22930.613   -24764.725    1834.1118    1.1578834    31.015963       31.016       31.016    29837.116 
 1902000    295.28215   -3254.9928   -23001.937   -24856.476    1854.5393    1.1578834    31.015963       31.016       31.016    29837.116 
 1903000    297.07854   -3245.8001   -22923.587   -24789.409    1865.8216    1.1578834    31.015963       31.016       31.016    29837.116 
 1904000    297.28587   -2514.8565   -22982.765   -24849.889    1867.1237    1.1578834    31.015963       31.016       31.016    29837.116 
 1905000    306.12613   -2550.0134   -22945.703   -24868.348    1922.6456    1.1578834    31.015963       31.016       31.016    29837.116 
 1906000    293.91904   -3784.0917   -23024.797   -24870.775    1845.9782    1.1578834    31.015963       31.016       31.016    29837.116 
 1907000    294.01733   -2949.5301    -23032.24   -24878.835    1846.5955    1.1578834    31.015963       31.016       31.016    29837.116 
 1908000    297.05927   -2363.2667   -22999.297   -24864.998    1865.7006    1.1578834    31.015963       31.016       31.016    29837.116 
 1909000    294.75158   -1859.2055   -22882.715   -24733.922     1851.207    1.1578834    31.015963       31.016       31.016    29837.116 
 1910000    296.25196   -2914.4991    -22901.66    -24762.29    1860.6302    1.1578834    31.015963       31.016       31.016    29837.116 
 1911000    298.97674   -2913.3257   -22945.101   -24822.844    1877.7434    1.1578834    31.015963       31.016       31.016    29837.116 
 1912000    295.07884   -4041.7069   -22989.797   -24843.059    1853.2624    1.1578834    31.015963       31.016       31.016    29837.116 
 1913000    304.12476   -2423.8229   -22856.654    -24766.73    1910.0759    1.1578834    31.015963       31.016       31.016    29837.116 
 1914000    296.19434   -2849.3172   -22940.398   -24800.667    1860.2683    1.1578834    31.015963       31.016       31.016    29837.116 
 1915000    303.09104   -1600.8641   -22894.144   -24797.728    1903.5835    1.1578834    31.015963       31.016       31.016    29837.116 
 1916000    298.01449   -2918.1005   -22959.048   -24830.748    1871.6999    1.1578834    31.015963       31.016       31.016    29837.116 
 1917000    294.17112   -2105.6327   -22911.741   -24759.303    1847.5613    1.1578834    31.015963       31.016       31.016    29837.116 
 1918000     297.0715   -2464.5788   -22933.521   -24799.298    1865.7774    1.1578834    31.015963       31.016       31.016    29837.116 
 1919000    292.95781    -2642.402   -23065.975   -24905.916    1839.9411    1.1578834    31.015963       31.016       31.016    29837.116 
 1920000    293.02252   -2490.9614   -23008.529   -24848.876    1840.3475    1.1578834    31.015963       31.016       31.016    29837.116 
 1921000    292.84463   -2550.6076     -23015.9   -24855.131    1839.2303    1.1578834    31.015963       31.016       31.016    29837.116 
 1922000    290.39853   -2972.0852   -23067.966   -24891.833    1823.8673    1.1578834    31.015963       31.016       31.016    29837.116 
 1923000     295.1696   -3078.5397   -22988.462   -24842.295    1853.8324    1.1578834    31.015963       31.016       31.016    29837.116 
 1924000    296.87267   -3497.3989   -22947.401    -24811.93    1864.5286    1.1578834    31.015963       31.016       31.016    29837.116 
 1925000    309.29237   -2053.8167   -22933.218   -24875.749    1942.5314    1.1578834    31.015963       31.016       31.016    29837.116 
 1926000    299.65492   -3081.4078   -23014.048   -24896.051    1882.0027    1.1578834    31.015963       31.016       31.016    29837.116 
 1927000    296.37697    -2650.546   -23079.396   -24940.812    1861.4153    1.1578834    31.015963       31.016       31.016    29837.116 
 1928000    294.65391   -3128.0021   -22926.304   -24776.898    1850.5936    1.1578834    31.015963       31.016       31.016    29837.116 
 1929000    303.21982   -1947.9312   -22889.004   -24793.396    1904.3923    1.1578834    31.015963       31.016       31.016    29837.116 
 1930000    296.04533   -3347.6462   -22941.537    -24800.87    1859.3325    1.1578834    31.015963       31.016       31.016    29837.116 
 1931000    293.25273   -3124.3862   -23071.146    -24912.94    1841.7933    1.1578834    31.015963       31.016       31.016    29837.116 
 1932000    301.39014    -2581.832    -23005.31    -24898.21    1892.9009    1.1578834    31.015963       31.016       31.016    29837.116 
 1933000     298.0672   -3014.1113   -23013.409    -24885.44     1872.031    1.1578834    31.015963       31.016       31.016    29837.116 
 1934000    298.46745   -3306.7126   -23042.107   -24916.652    1874.5447    1.1578834    31.015963       31.016       31.016    29837.116 
 1935000    306.42918   -2531.3032   -22929.937   -24854.486    1924.5489    1.1578834    31.015963       31.016       31.016    29837.116 
 1936000    307.38687   -2219.2163   -22963.294   -24893.857    1930.5638    1.1578834    31.015963       31.016       31.016    29837.116 
 1937000    296.65676   -3335.6494   -23001.789   -24864.962    1863.1726    1.1578834    31.015963       31.016       31.016    29837.116 
 1938000    293.33825   -3504.2219   -23069.533   -24911.863    1842.3305    1.1578834    31.015963       31.016       31.016    29837.116 
 1939000    296.28705   -3019.7396       -23097    -24957.85    1860.8506    1.1578834    31.015963       31.016       31.016    29837.116 
 1940000    297.70489   -1702.9544   -22986.664   -24856.419    1869.7554    1.1578834    31.015963       31.016       31.016    29837.116 
 1941000    299.81099   -2361.6872   -22902.303   -24785.286     1882.983    1.1578834    31.015963       31.016       31.016    29837.116 
 1942000     300.5284   -1691.3897   -22952.737   -24840.226    1887.4887    1.1578834    31.015963       31.016       31.016    29837.116 
 1943000    298.85619   -2284.2177    -23008.67   -24885.656    1876.9863    1.1578834    31.015963       31.016       31.016    29837.116 
 1944000    310.31343   -2580.0583   -22905.141   -24854.085    1948.9442    1.1578834    31.015963       31.016       31.016    29837.116 
 1945000    306.62313   -2656.9263    -22952.32   -24878.087     1925.767    1.1578834    31.015963       31.016       31.016    29837.116 
 1946000    294.28352   -2487.2749   -23019.733       -24868    1848.2673    1.1578834    31.015963       31.016       31.016    29837.116 
 1947000    295.72081   -1957.3576   -22950.705       -24808    1857.2943    1.1578834    31.015963       31.016       31.016    29837.116 
 1948000    292.48425   -2995.7992   -23108.601   -24945.568    1836.9668    1.1578834    31.015963       31.016       31.016    29837.116 
 1949000    300.69383   -3122.9804   -22998.044   -24886.572    1888.5277    1.1578834    31.015963       31.016       31.016    29837.116 
 1950000    293.75488    -3536.628   -23060.879   -24905.826    1844.9471    1.1578834    31.015963       31.016       31.016    29837.116 
 1951000    298.68504   -1891.8231   -23045.275   -24921.186    1875.9113    1.1578834    31.015963       31.016       31.016    29837.116 
 1952000    295.15559   -3362.6192   -23036.943   -24890.688    1853.7444    1.1578834    31.015963       31.016       31.016    29837.116 
 1953000    286.64198   -3079.7195   -23069.099   -24869.373    1800.2741    1.1578834    31.015963       31.016       31.016    29837.116 
 1954000    302.29482   -2502.5613    -23009.61   -24908.193    1898.5828    1.1578834    31.015963       31.016       31.016    29837.116 
 1955000    289.69281   -2360.9401   -23079.923   -24899.358     1819.435    1.1578834    31.015963       31.016       31.016    29837.116 
 1956000    301.88716    -2169.838   -23076.195   -24972.218    1896.0225    1.1578834    31.015963       31.016       31.016    29837.116 
 1957000    297.40055   -3220.5193   -23142.015    -25009.86     1867.844    1.1578834    31.015963       31.016       31.016    29837.116 
 1958000    294.76853   -2857.1267   -23165.618   -25016.932    1851.3134    1.1578834    31.015963       31.016       31.016    29837.116 
 1959000    303.40164   -2884.1045   -23052.227   -24957.761    1905.5342    1.1578834    31.015963       31.016       31.016    29837.116 
 1960000    303.18074   -3051.1829   -22991.405   -24895.552    1904.1469    1.1578834    31.015963       31.016       31.016    29837.116 
 1961000    299.85611   -3037.1968   -23092.739   -24976.005    1883.2663    1.1578834    31.015963       31.016       31.016    29837.116 
 1962000    308.91066   -2566.1801   -22931.857   -24871.991     1940.134    1.1578834    31.015963       31.016       31.016    29837.116 
 1963000    304.25001   -3496.1915   -23035.193   -24946.055    1910.8625    1.1578834    31.015963       31.016       31.016    29837.116 
 1964000    296.94762   -2941.3232   -23170.058   -25035.058    1864.9993    1.1578834    31.015963       31.016       31.016    29837.116 
 1965000    297.05648   -1450.3821   -23085.772   -24951.456     1865.683    1.1578834    31.015963       31.016       31.016    29837.116 
 1966000    297.45736    -3049.477   -23047.574   -24915.775    1868.2008    1.1578834    31.015963       31.016       31.016    29837.116 
 1967000    300.33948   -3527.3042   -23055.708    -24942.01    1886.3022    1.1578834    31.015963       31.016       31.016    29837.116 
 1968000    296.52153   -3770.1482   -23108.852   -24971.175    1862.3233    1.1578834    31.015963       31.016       31.016    29837.116 
 1969000    304.84199   -3222.5921   -22976.585   -24891.165    1914.5805    1.1578834    31.015963       31.016       31.016    29837.116 
 1970000    299.55714   -2874.0657   -22962.523   -24843.912    1881.3886    1.1578834    31.015963       31.016       31.016    29837.116 
 1971000    299.78591   -3816.5765    -23038.55   -24921.376    1882.8254    1.1578834    31.015963       31.016       31.016    29837.116 
 1972000    298.99243    -2256.251   -22915.475   -24793.317    1877.8419    1.1578834    31.015963       31.016       31.016    29837.116 
 1973000     303.7804   -3494.2629   -22974.972   -24882.885    1907.9131    1.1578834    31.015963       31.016       31.016    29837.116 
 1974000    293.22379   -3309.2965   -23053.579   -24895.191    1841.6116    1.1578834    31.015963       31.016       31.016    29837.116 
 1975000    297.02263   -3816.7986    -23093.94   -24959.411    1865.4705    1.1578834    31.015963       31.016       31.016    29837.116 
 1976000    299.90208   -2727.4575   -22945.213   -24828.768    1883.5551    1.1578834    31.015963       31.016       31.016    29837.116 
 1977000    302.28953   -3064.1013    -23029.13   -24927.679    1898.5496    1.1578834    31.015963       31.016       31.016    29837.116 
 1978000    296.54598   -2263.8024   -23028.959   -24891.436    1862.4769    1.1578834    31.015963       31.016       31.016    29837.116 
 1979000    303.12331   -2132.6124   -22997.579   -24901.365    1903.7862    1.1578834    31.015963       31.016       31.016    29837.116 
 1980000    295.84948   -2326.7116   -23034.777   -24892.879    1858.1024    1.1578834    31.015963       31.016       31.016    29837.116 
 1981000    304.23058    -3316.666   -22947.986   -24858.726    1910.7405    1.1578834    31.015963       31.016       31.016    29837.116 
 1982000    300.15742   -2616.3118   -22992.997   -24878.156    1885.1587    1.1578834    31.015963       31.016       31.016    29837.116 
 1983000    295.58306    -2987.253   -23108.081   -24964.511    1856.4291    1.1578834    31.015963       31.016       31.016    29837.116 
 1984000    299.81804   -2326.9562   -22949.741   -24832.769    1883.0272    1.1578834    31.015963       31.016       31.016    29837.116 
 1985000    301.25739   -3164.5283   -23000.792    -24892.86    1892.0671    1.1578834    31.015963       31.016       31.016    29837.116 
 1986000    297.80941   -2447.2959   -23040.847   -24911.259    1870.4119    1.1578834    31.015963       31.016       31.016    29837.116 
 1987000    300.65212   -2395.6225    -22959.31   -24847.575    1888.2657    1.1578834    31.015963       31.016       31.016    29837.116 
 1988000    295.69015   -3265.8974   -23064.261   -24921.363    1857.1017    1.1578834    31.015963       31.016       31.016    29837.116 
 1989000    301.71645   -2043.7181   -22956.241   -24851.192    1894.9503    1.1578834    31.015963       31.016       31.016    29837.116 
 1990000    288.29675   -3342.4449   -23057.603    -24868.27     1810.667    1.1578834    31.015963       31.016       31.016    29837.116 
 1991000    295.54261   -2500.4916   -23019.252   -24875.427    1856.1751    1.1578834    31.015963       31.016       31.016    29837.116 
 1992000    302.96684   -2352.5472   -23037.348   -24940.151    1902.8035    1.1578834    31.015963       31.016       31.016    29837.116 
 1993000    301.27614   -3214.1614   -23068.479   -24960.664    1892.1849    1.1578834    31.015963       31.016       31.016    29837.116 
 1994000    297.82358   -3333.9063   -23063.432   -24933.932    1870.5009    1.1578834    31.015963       31.016       31.016    29837.116 
 1995000    296.48135   -3136.9217   -22934.605   -24796.675    1862.0709    1.1578834    31.015963       31.016       31.016    29837.116 
 1996000    298.80643   -2457.6281   -23006.271   -24882.945    1876.6737    1.1578834    31.015963       31.016       31.016    29837.116 
 1997000    288.19313   -2849.4761   -23111.586   -24921.602    1810.0162    1.1578834    31.015963       31.016       31.016    29837.116 
 1998000    300.38058    -2531.218   -22921.861   -24808.422    1886.5603    1.1578834    31.015963       31.016       31.016    29837.116 
 1999000    296.77511   -2599.4095    -22936.88   -24800.795    1863.9159    1.1578834    31.015963       31.016       31.016    29837.116 
 2000000     296.9728   -2681.3917   -22993.052   -24858.209    1865.1575    1.1578834    31.015963       31.016       31.016    29837.116 
 2001000    304.63553   -3078.3863   -23007.474   -24920.757    1913.2838    1.1578834    31.015963       31.016       31.016    29837.116 
 2002000    291.69749   -2735.3502   -23085.742   -24917.767    1832.0256    1.1578834    31.015963       31.016       31.016    29837.116 
 2003000    304.91101   -3249.6325   -22959.833   -24874.847    1915.0139    1.1578834    31.015963       31.016       31.016    29837.116 
 2004000    305.42737   -2206.5842   -22885.875   -24804.132     1918.257    1.1578834    31.015963       31.016       31.016    29837.116 
 2005000    296.45173   -2795.8764   -22977.137   -24839.022    1861.8849    1.1578834    31.015963       31.016       31.016    29837.116 
 2006000    293.01691   -2877.8521   -22983.015   -24823.327    1840.3123    1.1578834    31.015963       31.016       31.016    29837.116 
 2007000    291.89868   -3011.3558   -23083.588   -24916.877    1833.2892    1.1578834    31.015963       31.016       31.016    29837.116 
 2008000    297.55261     -2697.61   -22999.019   -24867.818     1868.799    1.1578834    31.015963       31.016       31.016    29837.116 
 2009000    302.97098   -2091.4295   -23018.137   -24920.966    1902.8295    1.1578834    31.015963       31.016       31.016    29837.116 
 2010000    297.66926    -2945.765   -22962.011   -24831.542    1869.5317    1.1578834    31.015963       31.016       31.016    29837.116 
 2011000    299.19313    -3089.103   -23070.537    -24949.64    1879.1024    1.1578834    31.015963       31.016       31.016    29837.116 
 2012000     298.0906   -1756.3268   -22983.095   -24855.273    1872.1779    1.1578834    31.015963       31.016       31.016    29837.116 
 2013000    286.33672   -1975.8108   -23033.131   -24831.488    1798.3569    1.1578834    31.015963       31.016       31.016    29837.116 
 2014000    295.11891   -2663.9898    -22951.43   -24804.944     1853.514    1.1578834    31.015963       31.016       31.016    29837.116 
 2015000    301.12488   -3133.0869   -22997.522   -24888.757    1891.2349    1.1578834    31.015963       31.016       31.016    29837.116 
 2016000    309.66916   -2697.4982   -22876.076   -24820.973    1944.8978    1.1578834    31.015963       31.016       31.016    29837.116 
 2017000     287.4023   -3032.7633   -23019.264   -24824.313    1805.0493    1.1578834    31.015963       31.016       31.016    29837.116 
 2018000    306.34665   -2814.3848   -22986.691   -24910.722    1924.0306    1.1578834    31.015963       31.016       31.016    29837.116 
 2019000    299.77064   -2854.0743   -23056.856   -24939.586    1882.7295    1.1578834    31.015963       31.016       31.016    29837.116 
 2020000    297.21864   -2526.5939   -22988.696   -24855.397    1866.7015    1.1578834    31.015963       31.016       31.016    29837.116 
 2021000    300.75153   -2323.5867   -23048.176   -24937.066      1888.89    1.1578834    31.015963       31.016       31.016    29837.116 
 2022000    289.11543   -2692.2509   -23081.294   -24897.103    1815.8087    1.1578834    31.015963       31.016       31.016    29837.116 
 2023000     304.8905   -3072.7692   -22942.526   -24857.411    1914.8851    1.1578834    31.015963       31.016       31.016    29837.116 
 2024000    292.38049   -3089.2697   -23048.093   -24884.408    1836.3152    1.1578834    31.015963       31.016       31.016    29837.116 
 2025000    292.80732   -2274.6704   -22982.812   -24821.807    1838.9959    1.1578834    31.015963       31.016       31.016    29837.116 
 2026000    299.24676   -2956.3494   -23005.056   -24884.495    1879.4392    1.1578834    31.015963       31.016       31.016    29837.116 
 2027000    300.97957   -2103.4615   -23015.833   -24906.155    1890.3223    1.1578834    31.015963       31.016       31.016    29837.116 
 2028000     291.6804   -3229.4101   -23019.577   -24851.495    1831.9182    1.1578834    31.015963       31.016       31.016    29837.116 
 2029000    308.08865   -1909.7472   -22983.523   -24918.495    1934.9714    1.1578834    31.015963       31.016       31.016    29837.116 
 2030000    299.69455   -2833.8043   -22957.015   -24839.266    1882.2517    1.1578834    31.015963       31.016       31.016    29837.116 
 2031000    297.34619   -2539.4286   -22947.874   -24815.377    1867.5026    1.1578834    31.015963       31.016       31.016    29837.116 
 2032000    291.34896   -3675.2424   -23080.368   -24910.205    1829.8366    1.1578834    31.015963       31.016       31.016    29837.116 
 2033000    295.08087   -3074.6067   -23002.843   -24856.119    1853.2751    1.1578834    31.015963       31.016       31.016    29837.116 
 2034000    304.25776   -2940.0961   -23021.359   -24932.271    1910.9112    1.1578834    31.015963       31.016       31.016    29837.116 
 2035000    303.03911   -2135.4691   -22982.384   -24885.641    1903.2574    1.1578834    31.015963       31.016       31.016    29837.116 
 2036000    303.29717   -2459.0515   -23024.125   -24929.003    1904.8782    1.1578834    31.015963       31.016       31.016    29837.116 
 2037000    302.67553   -3173.2303   -23040.083   -24941.057    1900.9739    1.1578834    31.015963       31.016       31.016    29837.116 
 2038000    297.76591   -3071.4782   -22997.667   -24867.805    1870.1387    1.1578834    31.015963       31.016       31.016    29837.116 
 2039000    294.17517   -3348.1938   -23028.588   -24876.175    1847.5868    1.1578834    31.015963       31.016       31.016    29837.116 
 2040000    299.54226   -3053.8576   -23106.389   -24987.684    1881.2952    1.1578834    31.015963       31.016       31.016    29837.116 
 2041000     306.0273   -3242.0753    -22982.77   -24904.795    1922.0249    1.1578834    31.015963       31.016       31.016    29837.116 
 2042000    294.17991   -2838.8749   -23084.891   -24932.508    1847.6165    1.1578834    31.015963       31.016       31.016    29837.116 
 2043000    303.09385   -4091.9323   -23052.341   -24955.942    1903.6011    1.1578834    31.015963       31.016       31.016    29837.116 
 2044000    294.16014   -2423.0479   -23077.853   -24925.346    1847.4924    1.1578834    31.015963       31.016       31.016    29837.116 
 2045000    299.82258   -2624.5988   -23072.338   -24955.394    1883.0557    1.1578834    31.015963       31.016       31.016    29837.116 
 2046000    286.56828   -3259.2452   -23158.765   -24958.576    1799.8112    1.1578834    31.015963       31.016       31.016    29837.116 
 2047000    302.27136   -2569.3319   -23005.594    -24904.03    1898.4355    1.1578834    31.015963       31.016       31.016    29837.116 
 2048000    292.64287   -3743.9076   -23025.967    -24863.93    1837.9631    1.1578834    31.015963       31.016       31.016    29837.116 
 2049000    300.31277   -2722.3207   -23015.242   -24901.377    1886.1344    1.1578834    31.015963       31.016       31.016    29837.116 
 2050000    286.03808   -2923.8949   -23117.261   -24913.742    1796.4813    1.1578834    31.015963       31.016       31.016    29837.116 
 2051000     296.9267   -2666.5583   -23035.541   -24900.409     1864.868    1.1578834    31.015963       31.016       31.016    29837.116 
 2052000    288.39713   -2688.2177   -23170.557   -24981.854    1811.2974    1.1578834    31.015963       31.016       31.016    29837.116 
 2053000    301.98113   -3158.3723   -23027.257   -24923.869    1896.6127    1.1578834    31.015963       31.016       31.016    29837.116 
 2054000    287.79334     -2712.07   -23149.631   -24957.137    1807.5053    1.1578834    31.015963       31.016       31.016    29837.116 
 2055000     309.9076   -2124.7604   -23013.721   -24960.116    1946.3954    1.1578834    31.015963       31.016       31.016    29837.116 
 2056000    297.29541   -3137.0193   -23112.358   -24979.542    1867.1837    1.1578834    31.015963       31.016       31.016    29837.116 
 2057000    300.67896    -2847.125   -22916.255   -24804.689    1888.4343    1.1578834    31.015963       31.016       31.016    29837.116 
 2058000    297.26232   -2811.6459   -23080.431   -24947.407    1866.9758    1.1578834    31.015963       31.016       31.016    29837.116 
 2059000    294.48804   -3008.9796   -23046.659   -24896.211    1849.5518    1.1578834    31.015963       31.016       31.016    29837.116 
 2060000    289.36443   -3389.7891   -23102.569   -24919.942    1817.3726    1.1578834    31.015963       31.016       31.016    29837.116 
 2061000    288.81811   -2274.4936   -23055.346   -24869.287    1813.9414    1.1578834    31.015963       31.016       31.016    29837.116 
 2062000    295.87978   -3153.9478   -23049.708       -24908    1858.2927    1.1578834    31.015963       31.016       31.016    29837.116 
 2063000    291.73295   -2826.3698   -23083.796   -24916.045    1832.2483    1.1578834    31.015963       31.016       31.016    29837.116 
 2064000     306.2633   -2240.2133   -22964.242    -24887.75    1923.5071    1.1578834    31.015963       31.016       31.016    29837.116 
 2065000    298.89375   -2466.4742   -23018.662   -24895.884    1877.2222    1.1578834    31.015963       31.016       31.016    29837.116 
 2066000    304.95261   -2727.5068   -22982.716   -24897.991    1915.2752    1.1578834    31.015963       31.016       31.016    29837.116 
 2067000    295.59088   -2305.5285   -23064.732    -24921.21    1856.4783    1.1578834    31.015963       31.016       31.016    29837.116 
 2068000    296.97645   -2763.5638   -22964.366   -24829.547    1865.1804    1.1578834    31.015963       31.016       31.016    29837.116 
 2069000      299.461   -2289.2895    -23033.12   -24913.905    1880.7848    1.1578834    31.015963       31.016       31.016    29837.116 
 2070000    295.35674   -2477.9811     -23131.1   -24986.108    1855.0077    1.1578834    31.015963       31.016       31.016    29837.116 
 2071000    301.54611   -1656.6454   -23051.585   -24945.465    1893.8805    1.1578834    31.015963       31.016       31.016    29837.116 
 2072000    305.95144   -2814.8685   -23017.246   -24938.795    1921.5485    1.1578834    31.015963       31.016       31.016    29837.116 
 2073000    294.12498   -2700.0356   -23114.949   -24962.221    1847.2716    1.1578834    31.015963       31.016       31.016    29837.116 
 2074000    304.31428   -2051.6692   -23086.221   -24997.487    1911.2661    1.1578834    31.015963       31.016       31.016    29837.116 
 2075000    300.30749   -2484.1426   -22982.447   -24868.549    1886.1013    1.1578834    31.015963       31.016       31.016    29837.116 
 2076000    297.28484   -3002.8307   -23097.485   -24964.603    1867.1173    1.1578834    31.015963       31.016       31.016    29837.116 
 2077000    296.63148   -2813.6693   -23057.583   -24920.597    1863.0138    1.1578834    31.015963       31.016       31.016    29837.116 
 2078000    296.82051   -3507.5621   -23076.243   -24940.444     1864.201    1.1578834    31.015963       31.016       31.016    29837.116 
 2079000    292.53981   -3208.0037   -23075.161   -24912.477    1837.3158    1.1578834    31.015963       31.016       31.016    29837.116 
 2080000    293.86712     -2728.74     -23045.2   -24890.852     1845.652    1.1578834    31.015963       31.016       31.016    29837.116 
 2081000    302.48695   -4104.9307   -22940.437   -24840.227    1899.7895    1.1578834    31.015963       31.016       31.016    29837.116 
 2082000    296.01143    -2502.736   -22964.707   -24823.827    1859.1196    1.1578834    31.015963       31.016       31.016    29837.116 
 2083000    299.05949   -3142.3642   -22931.831   -24810.094    1878.2631    1.1578834    31.015963       31.016       31.016    29837.116 
 2084000    302.01305   -2436.7784    -22945.18   -24841.993    1896.8131    1.1578834    31.015963       31.016       31.016    29837.116 
 2085000    299.52756    -3103.106    -22936.85   -24818.053    1881.2029    1.1578834    31.015963       31.016       31.016    29837.116 
 2086000    299.01263    -3276.223   -23024.856   -24902.825    1877.9688    1.1578834    31.015963       31.016       31.016    29837.116 
 2087000    297.64635   -2296.9192   -23047.326   -24916.714    1869.3878    1.1578834    31.015963       31.016       31.016    29837.116 
 2088000    298.34874   -2560.0637   -22958.213   -24832.012    1873.7992    1.1578834    31.015963       31.016       31.016    29837.116 
 2089000     300.8043   -2569.3294   -22886.531   -24775.752    1889.2215    1.1578834    31.015963       31.016       31.016    29837.116 
 2090000     289.7432   -2157.6636   -23004.967   -24824.719    1819.7515    1.1578834    31.015963       31.016       31.016    29837.116 
 2091000    293.62428   -2065.0188   -23051.048   -24895.175    1844.1269    1.1578834    31.015963       31.016       31.016    29837.116 
 2092000    299.21657   -2153.6297   -23017.255   -24896.505    1879.2497    1.1578834    31.015963       31.016       31.016    29837.116 
 2093000    287.52835   -2016.4311   -23063.495   -24869.336     1805.841    1.1578834    31.015963       31.016       31.016    29837.116 
 2094000    301.99159    -2294.488   -22984.376   -24881.055    1896.6784    1.1578834    31.015963       31.016       31.016    29837.116 
 2095000    291.90484   -2556.7085   -22944.526   -24777.854    1833.3279    1.1578834    31.015963       31.016       31.016    29837.116 
 2096000    298.46698   -2534.6582    -22974.41   -24848.951    1874.5418    1.1578834    31.015963       31.016       31.016    29837.116 
 2097000    297.98488    -3719.078   -23015.123   -24886.637    1871.5139    1.1578834    31.015963       31.016       31.016    29837.116 
 2098000    304.29219   -3266.7699   -22873.503    -24784.63    1911.1274    1.1578834    31.015963       31.016       31.016    29837.116 
 2099000     290.7176   -3809.3393   -23057.163   -24883.035    1825.8713    1.1578834    31.015963       31.016       31.016    29837.116 
 2100000    294.25987   -3572.4349   -22983.893   -24832.012    1848.1187    1.1578834    31.015963       31.016       31.016    29837.116 
 2101000    294.77437   -2737.4155   -23045.986   -24897.336    1851.3501    1.1578834    31.015963       31.016       31.016    29837.116 
 2102000    303.22455   -2696.1663   -22914.228    -24818.65    1904.4221    1.1578834    31.015963       31.016       31.016    29837.116 
 2103000    294.34394   -1972.6993   -22995.243    -24843.89    1848.6468    1.1578834    31.015963       31.016       31.016    29837.116 
 2104000    300.09634   -3331.2099    -22986.98   -24871.755    1884.7751    1.1578834    31.015963       31.016       31.016    29837.116 
 2105000    303.05383    -2845.583   -22948.072   -24851.421    1903.3498    1.1578834    31.015963       31.016       31.016    29837.116 
 2106000     289.9467   -3345.6841    -22986.73    -24807.76    1821.0296    1.1578834    31.015963       31.016       31.016    29837.116 
 2107000    306.72334   -2114.5075     -22904.1   -24830.496    1926.3964    1.1578834    31.015963       31.016       31.016    29837.116 
 2108000    306.87779    -2719.812   -22920.113    -24847.48    1927.3664    1.1578834    31.015963       31.016       31.016    29837.116 
 2109000    285.23782   -2461.6124   -23102.584   -24894.039    1791.4552    1.1578834    31.015963       31.016       31.016    29837.116 
 2110000    292.85249   -2811.5079   -23037.321   -24876.601    1839.2796    1.1578834    31.015963       31.016       31.016    29837.116 
 2111000    298.07233   -2820.7172   -23017.275   -24889.338    1872.0632    1.1578834    31.015963       31.016       31.016    29837.116 
 2112000    297.35214   -2572.6198   -23024.109   -24891.649      1867.54    1.1578834    31.015963       31.016       31.016    29837.116 
 2113000    297.22646   -1926.7595     -23015.7    -24882.45    1866.7506    1.1578834    31.015963       31.016       31.016    29837.116 
 2114000    284.00787   -3178.9812   -23201.995   -24985.725    1783.7304    1.1578834    31.015963       31.016       31.016    29837.116 
 2115000    296.40609   -2445.9149   -23041.165   -24902.763    1861.5982    1.1578834    31.015963       31.016       31.016    29837.116 
 2116000    297.21086   -1953.2977   -23048.884   -24915.537    1866.6526    1.1578834    31.015963       31.016       31.016    29837.116 
 2117000     303.5168   -2318.7799   -22959.453   -24865.711    1906.2575    1.1578834    31.015963       31.016       31.016    29837.116 
 2118000    311.36661   -3055.9558   -23008.072   -24963.631    1955.5588    1.1578834    31.015963       31.016       31.016    29837.116 
 2119000    298.93259   -3331.3284    -22923.29   -24800.756    1877.4661    1.1578834    31.015963       31.016       31.016    29837.116 
 2120000     302.1721   -3118.3484    -23026.63   -24924.442     1897.812    1.1578834    31.015963       31.016       31.016    29837.116 
 2121000    303.41165   -3366.1912   -22975.502   -24881.099    1905.5971    1.1578834    31.015963       31.016       31.016    29837.116 
 2122000    303.77578   -2625.3658   -22888.674   -24796.558     1907.884    1.1578834    31.015963       31.016       31.016    29837.116 
 2123000    301.80479   -2971.4152   -22993.792   -24889.297    1895.5052    1.1578834    31.015963       31.016       31.016    29837.116 
 2124000    295.28642   -3431.5601   -22976.477   -24831.043    1854.5661    1.1578834    31.015963       31.016       31.016    29837.116 
 2125000    303.37305   -3288.7304   -22951.723   -24857.078    1905.3547    1.1578834    31.015963       31.016       31.016    29837.116 
 2126000    292.83681   -3366.5082   -22944.869    -24784.05    1839.1811    1.1578834    31.015963       31.016       31.016    29837.116 
 2127000    299.80542   -3726.3058   -22921.571   -24804.519     1882.948    1.1578834    31.015963       31.016       31.016    29837.116 
 2128000    302.26187   -2498.1699   -22933.236   -24831.612    1898.3759    1.1578834    31.015963       31.016       31.016    29837.116 
 2129000    295.04037   -2243.1696    -23056.75    -24909.77    1853.0207    1.1578834    31.015963       31.016       31.016    29837.116 
 2130000    312.69803   -3321.4264   -22932.434   -24896.355    1963.9209    1.1578834    31.015963       31.016       31.016    29837.116 
 2131000    298.80412   -2408.1239   -22960.672   -24837.331    1876.6592    1.1578834    31.015963       31.016       31.016    29837.116 
 2132000    292.53691    -3247.229   -23044.423    -24881.72    1837.2976    1.1578834    31.015963       31.016       31.016    29837.116 
 2133000    303.44133   -2110.4648   -22949.448   -24855.232    1905.7835    1.1578834    31.015963       31.016       31.016    29837.116 
 2134000    295.97189   -2873.3062   -22950.021   -24808.892    1858.8712    1.1578834    31.015963       31.016       31.016    29837.116 
 2135000    295.67599   -1786.9039   -23010.574   -24867.587    1857.0128    1.1578834    31.015963       31.016       31.016    29837.116 
 2136000    299.54648    -2465.314   -23041.443   -24922.764    1881.3217    1.1578834    31.015963       31.016       31.016    29837.116 
 2137000    297.16285   -2341.3892   -23079.442   -24945.793    1866.3511    1.1578834    31.015963       31.016       31.016    29837.116 
 2138000    307.28767   -2894.1684   -22968.428   -24898.369    1929.9408    1.1578834    31.015963       31.016       31.016    29837.116 
 2139000    290.10191   -2706.1087   -23084.617   -24906.621    1822.0044    1.1578834    31.015963       31.016       31.016    29837.116 
 2140000     299.1254   -2555.8232   -22921.531   -24800.208    1878.6771    1.1578834    31.015963       31.016       31.016    29837.116 
 2141000    302.58289    -2476.099   -22976.631   -24877.023     1900.392    1.1578834    31.015963       31.016       31.016    29837.116 
 2142000    296.56551   -2273.3374   -23022.296   -24884.896    1862.5995    1.1578834    31.015963       31.016       31.016    29837.116 
 2143000     291.4917    -3150.637   -23078.705   -24909.438    1830.7331    1.1578834    31.015963       31.016       31.016    29837.116 
 2144000    299.68731   -3002.0322   -22942.837   -24825.043    1882.2062    1.1578834    31.015963       31.016       31.016    29837.116 
 2145000     288.1945   -2361.0801   -23055.713   -24865.737    1810.0248    1.1578834    31.015963       31.016       31.016    29837.116 
 2146000    305.33675   -3173.6376   -23016.368   -24934.056    1917.6879    1.1578834    31.015963       31.016       31.016    29837.116 
 2147000    302.99211    -2872.762    -22963.65   -24866.612    1902.9622    1.1578834    31.015963       31.016       31.016    29837.116 
 2148000    296.13987   -3079.6756   -23003.435   -24863.362    1859.9262    1.1578834    31.015963       31.016       31.016    29837.116 
 2149000    296.05735   -2868.6467   -22931.226   -24790.634    1859.4079    1.1578834    31.015963       31.016       31.016    29837.116 
 2150000    297.36099   -2373.2783    -22982.01   -24849.605    1867.5956    1.1578834    31.015963       31.016       31.016    29837.116 
 2151000    294.55489   -2161.6315   -22966.438    -24816.41    1849.9717    1.1578834    31.015963       31.016       31.016    29837.116 
 2152000    298.39402   -2875.4183   -22920.172   -24794.255    1874.0836    1.1578834    31.015963       31.016       31.016    29837.116 
 2153000    292.16161   -3215.7982   -22989.321   -24824.262    1834.9405    1.1578834    31.015963       31.016       31.016    29837.116 
 2154000    292.38086   -2558.8507   -23013.472    -24849.79    1836.3175    1.1578834    31.015963       31.016       31.016    29837.116 
 2155000    310.16819   -2980.5339   -22923.289   -24871.321     1948.032    1.1578834    31.015963       31.016       31.016    29837.116 
 2156000     298.7941   -2806.4163   -22976.572   -24853.169    1876.5963    1.1578834    31.015963       31.016       31.016    29837.116 
 2157000    299.83011   -2907.4975   -22914.616   -24797.719     1883.103    1.1578834    31.015963       31.016       31.016    29837.116 
 2158000    304.68818   -2265.5423    -22978.37   -24891.984    1913.6145    1.1578834    31.015963       31.016       31.016    29837.116 
 2159000    296.37595   -2886.3531   -23084.002    -24945.41    1861.4089    1.1578834    31.015963       31.016       31.016    29837.116 
 2160000    286.14549   -3671.0761   -23145.969   -24943.125    1797.1559    1.1578834    31.015963       31.016       31.016    29837.116 
 2161000    306.22796   -3046.1364   -22920.212   -24843.497    1923.2852    1.1578834    31.015963       31.016       31.016    29837.116 
 2162000    305.32644   -2197.6894   -22954.151   -24871.774    1917.6231    1.1578834    31.015963       31.016       31.016    29837.116 
 2163000    297.59372    -2885.935   -22930.412   -24799.469    1869.0572    1.1578834    31.015963       31.016       31.016    29837.116 
 2164000    299.30667   -2724.4383   -23027.962   -24907.777    1879.8155    1.1578834    31.015963       31.016       31.016    29837.116 
 2165000    303.25808   -2349.6797    -22956.51   -24861.143    1904.6326    1.1578834    31.015963       31.016       31.016    29837.116 
 2166000    303.04892   -1799.5951   -22942.183   -24845.502     1903.319    1.1578834    31.015963       31.016       31.016    29837.116 
 2167000    304.62624   -2393.4089   -23025.753   -24938.979    1913.2255    1.1578834    31.015963       31.016       31.016    29837.116 
 2168000    301.82954   -2847.3086   -22985.185   -24880.845    1895.6606    1.1578834    31.015963       31.016       31.016    29837.116 
 2169000    298.34236   -2632.8532   -23046.064   -24919.823    1873.7591    1.1578834    31.015963       31.016       31.016    29837.116 
 2170000    299.85551   -2765.2746    -22977.74   -24861.003    1883.2626    1.1578834    31.015963       31.016       31.016    29837.116 
 2171000    295.89387    -2994.614   -23051.875   -24910.256    1858.3812    1.1578834    31.015963       31.016       31.016    29837.116 
 2172000    301.38272   -3070.7348   -23085.665   -24978.519    1892.8543    1.1578834    31.015963       31.016       31.016    29837.116 
 2173000    306.95336   -1955.4382   -22964.307   -24892.148    1927.8411    1.1578834    31.015963       31.016       31.016    29837.116 
 2174000    298.21927   -2339.5058   -22972.294    -24845.28    1872.9861    1.1578834    31.015963       31.016       31.016    29837.116 
 2175000    298.85973   -2458.2105    -23062.25   -24939.259    1877.0085    1.1578834    31.015963       31.016       31.016    29837.116 
 2176000     294.5527   -2965.4574   -23035.053   -24885.011    1849.9579    1.1578834    31.015963       31.016       31.016    29837.116 
 2177000    299.38828   -2493.8768   -23005.726   -24886.054    1880.3281    1.1578834    31.015963       31.016       31.016    29837.116 
 2178000    303.96322   -3663.1158   -22966.052   -24875.114    1909.0613    1.1578834    31.015963       31.016       31.016    29837.116 
 2179000    294.17979   -2543.0207   -22944.831   -24792.447    1847.6158    1.1578834    31.015963       31.016       31.016    29837.116 
 2180000     301.2398   -2393.3527   -23001.875   -24893.832    1891.9567    1.1578834    31.015963       31.016       31.016    29837.116 
 2181000    288.63115   -2830.5601   -23090.344   -24903.111    1812.7672    1.1578834    31.015963       31.016       31.016    29837.116 
 2182000    308.98218   -1665.9136   -22912.374   -24852.957    1940.5832    1.1578834    31.015963       31.016       31.016    29837.116 
 2183000    300.29851   -2784.8228   -23066.863   -24952.908    1886.0449    1.1578834    31.015963       31.016       31.016    29837.116 
 2184000    299.46032   -2443.7346   -22927.831   -24808.611    1880.7806    1.1578834    31.015963       31.016       31.016    29837.116 
 2185000    305.28853   -2915.6985   -22959.881   -24877.266     1917.385    1.1578834    31.015963       31.016       31.016    29837.116 
 2186000    301.33935   -2802.0318   -22979.994   -24872.576    1892.5819    1.1578834    31.015963       31.016       31.016    29837.116 
 2187000    304.72726    -2700.933   -23024.615   -24938.475    1913.8599    1.1578834    31.015963       31.016       31.016    29837.116 
 2188000    303.33562   -2470.2396   -23017.681   -24922.801    1905.1196    1.1578834    31.015963       31.016       31.016    29837.116 
 2189000    303.94283   -2589.4571   -22999.372   -24908.305    1908.9332    1.1578834    31.015963       31.016       31.016    29837.116 
 2190000    299.19631   -2898.9305   -22932.812   -24811.934    1879.1224    1.1578834    31.015963       31.016       31.016    29837.116 
 2191000    295.00565   -2988.3207   -23105.279   -24958.082    1852.8027    1.1578834    31.015963       31.016       31.016    29837.116 
 2192000    298.70051   -3183.8271   -23068.333   -24944.342    1876.0085    1.1578834    31.015963       31.016       31.016    29837.116 
 2193000    294.22851   -2764.9794   -23019.342   -24867.264    1847.9218    1.1578834    31.015963       31.016       31.016    29837.116 
 2194000    298.64413   -3157.0298   -23072.615   -24948.269    1875.6544    1.1578834    31.015963       31.016       31.016    29837.116 
 2195000    297.48377   -2915.7998     -22979.5   -24847.866    1868.3667    1.1578834    31.015963       31.016       31.016    29837.116 
 2196000    296.97654   -2741.1252   -23032.299    -24897.48     1865.181    1.1578834    31.015963       31.016       31.016    29837.116 
 2197000    289.99424    -2700.864   -23051.486   -24872.814    1821.3282    1.1578834    31.015963       31.016       31.016    29837.116 
 2198000    296.06188   -3072.2646    -22993.69   -24853.126    1859.4364    1.1578834    31.015963       31.016       31.016    29837.116 
 2199000    303.55965   -3030.3454   -22912.374   -24818.901    1906.5267    1.1578834    31.015963       31.016       31.016    29837.116 
 2200000    298.35668   -2115.8173   -22961.025   -24834.874    1873.8491    1.1578834    31.015963       31.016       31.016    29837.116 
 2201000    288.21764   -2769.1423   -23098.929   -24909.099    1810.1701    1.1578834    31.015963       31.016       31.016    29837.116 
 2202000    296.27794    -3221.216   -22986.509   -24847.302    1860.7934    1.1578834    31.015963       31.016       31.016    29837.116 
 2203000    301.86051   -1797.2802   -22972.104   -24867.959    1895.8551    1.1578834    31.015963       31.016       31.016    29837.116 
 2204000    290.45884   -3029.0478   -23149.301   -24973.547    1824.2462    1.1578834    31.015963       31.016       31.016    29837.116 
 2205000    298.60957   -2060.4369   -23002.919   -24878.356    1875.4373    1.1578834    31.015963       31.016       31.016    29837.116 
 2206000    299.09402   -2477.5188   -22923.784   -24802.264      1878.48    1.1578834    31.015963       31.016       31.016    29837.116 
 2207000    293.60201   -2055.3712   -23034.748   -24878.735     1843.987    1.1578834    31.015963       31.016       31.016    29837.116 
 2208000    300.13217   -3000.9676   -23028.758   -24913.758    1885.0001    1.1578834    31.015963       31.016       31.016    29837.116 
 2209000    293.97608    -2423.049   -23097.052   -24943.389    1846.3364    1.1578834    31.015963       31.016       31.016    29837.116 
 2210000    300.79762   -2070.5903   -22926.803   -24815.983    1889.1795    1.1578834    31.015963       31.016       31.016    29837.116 
 2211000    303.20153   -2120.1587   -23006.018   -24910.295    1904.2775    1.1578834    31.015963       31.016       31.016    29837.116 
 2212000    292.93156   -2789.3889   -23033.864    -24873.64    1839.7762    1.1578834    31.015963       31.016       31.016    29837.116 
 2213000    300.42847   -3589.6575   -23078.211   -24965.073    1886.8611    1.1578834    31.015963       31.016       31.016    29837.116 
 2214000    299.46938   -3173.6884   -23095.997   -24976.834    1880.8374    1.1578834    31.015963       31.016       31.016    29837.116 
 2215000    301.51875    -3021.313   -23057.115   -24950.824    1893.7087    1.1578834    31.015963       31.016       31.016    29837.116 
 2216000    307.76529   -2345.8496   -22965.341   -24898.281    1932.9404    1.1578834    31.015963       31.016       31.016    29837.116 
 2217000    299.86888   -2861.7004   -22981.918   -24865.264    1883.3465    1.1578834    31.015963       31.016       31.016    29837.116 
 2218000    293.29183   -3586.4038   -23008.272    -24850.31    1842.0389    1.1578834    31.015963       31.016       31.016    29837.116 
 2219000    292.68395   -2643.9722   -23044.494   -24882.715    1838.2211    1.1578834    31.015963       31.016       31.016    29837.116 
 2220000    304.25862   -1998.9601   -22934.197   -24845.114    1910.9166    1.1578834    31.015963       31.016       31.016    29837.116 
 2221000    301.49375   -2093.3592   -22881.348   -24774.899    1893.5516    1.1578834    31.015963       31.016       31.016    29837.116 
 2222000     296.3888    -2829.075   -23010.603   -24872.093    1861.4897    1.1578834    31.015963       31.016       31.016    29837.116 
 2223000    298.51363    -2732.202   -23018.627   -24893.462    1874.8348    1.1578834    31.015963       31.016       31.016    29837.116 
 2224000    293.21085   -2665.7069    -23002.27     -24843.8    1841.5303    1.1578834    31.015963       31.016       31.016    29837.116 
 2225000    295.83972   -2073.6405    -23079.68   -24937.722    1858.0411    1.1578834    31.015963       31.016       31.016    29837.116 
 2226000    300.58528    -1991.625    -23002.71   -24890.556    1887.8459    1.1578834    31.015963       31.016       31.016    29837.116 
 2227000    305.13084   -2500.1403   -22928.014   -24844.408    1916.3946    1.1578834    31.015963       31.016       31.016    29837.116 
 2228000    297.06403   -2608.1395   -23059.427   -24925.158    1865.7305    1.1578834    31.015963       31.016       31.016    29837.116 
 2229000    299.97938    -3006.784   -22989.457   -24873.497    1884.0405    1.1578834    31.015963       31.016       31.016    29837.116 
 2230000    307.67675   -2517.0597   -22917.653   -24850.038    1932.3844    1.1578834    31.015963       31.016       31.016    29837.116 
 2231000    302.06026   -2510.2564   -22989.007   -24886.116    1897.1096    1.1578834    31.015963       31.016       31.016    29837.116 
 2232000    293.64013   -3580.5766   -23071.598   -24915.824    1844.2265    1.1578834    31.015963       31.016       31.016    29837.116 
 2233000    296.92251   -2312.9953   -22976.864   -24841.706    1864.8416    1.1578834    31.015963       31.016       31.016    29837.116 
 2234000    299.98046   -2872.3065   -23012.436   -24896.484    1884.0473    1.1578834    31.015963       31.016       31.016    29837.116 
 2235000    299.45945   -2860.5238   -23042.396   -24923.171    1880.7751    1.1578834    31.015963       31.016       31.016    29837.116 
 2236000    295.55267   -2105.7034   -22923.017   -24779.255    1856.2383    1.1578834    31.015963       31.016       31.016    29837.116 
 2237000    297.87176   -2970.6071   -23002.499   -24873.302    1870.8035    1.1578834    31.015963       31.016       31.016    29837.116 
 2238000    297.44902   -3103.0192   -22990.389   -24858.537    1868.1484    1.1578834    31.015963       31.016       31.016    29837.116 
 2239000    303.16251   -2543.4544   -22912.207   -24816.239    1904.0324    1.1578834    31.015963       31.016       31.016    29837.116 
 2240000    296.38904   -2943.6526   -22968.008     -24829.5    1861.4911    1.1578834    31.015963       31.016       31.016    29837.116 
 2241000    292.41544   -2310.7564   -23078.273   -24914.808    1836.5347    1.1578834    31.015963       31.016       31.016    29837.116 
 2242000     304.4056   -3237.8728   -22981.227   -24893.066    1911.8397    1.1578834    31.015963       31.016       31.016    29837.116 
 2243000    290.98352     -4113.52   -22987.973   -24815.515    1827.5414    1.1578834    31.015963       31.016       31.016    29837.116 
 2244000    298.80079   -2376.2851   -22977.817   -24854.455    1876.6383    1.1578834    31.015963       31.016       31.016    29837.116 
 2245000    297.16268   -2732.6512   -22959.091   -24825.441      1866.35    1.1578834    31.015963       31.016       31.016    29837.116 
 2246000    304.93874   -2553.4407    -22948.58   -24863.768    1915.1881    1.1578834    31.015963       31.016       31.016    29837.116 
 2247000     293.3256   -3291.6698   -23006.167   -24848.418     1842.251    1.1578834    31.015963       31.016       31.016    29837.116 
 2248000     298.9427   -3365.1952   -22990.262   -24867.791    1877.5296    1.1578834    31.015963       31.016       31.016    29837.116 
 2249000    300.64489    -3323.348    -22972.87   -24861.091    1888.2203    1.1578834    31.015963       31.016       31.016    29837.116 
 2250000    300.80463   -3091.9966   -22980.729   -24869.953    1889.2236    1.1578834    31.015963       31.016       31.016    29837.116 
 2251000    294.00589   -2407.3035   -23042.883   -24889.407    1846.5236    1.1578834    31.015963       31.016       31.016    29837.116 
 2252000    300.35379   -2957.3503   -22962.353   -24848.745     1886.392    1.1578834    31.015963       31.016       31.016    29837.116 
 2253000    298.55548   -3399.3815   -22938.037   -24813.134    1875.0976    1.1578834    31.015963       31.016       31.016    29837.116 
 2254000     294.1568   -2057.4701   -22963.611   -24811.082    1847.4714    1.1578834    31.015963       31.016       31.016    29837.116 
 2255000    300.19089   -2182.0951   -23042.067   -24927.436    1885.3689    1.1578834    31.015963       31.016       31.016    29837.116 
 2256000    298.81063   -3229.2662   -23081.592   -24958.293    1876.7001    1.1578834    31.015963       31.016       31.016    29837.116 
 2257000    299.68844   -1777.7172   -22989.054   -24871.268    1882.2133    1.1578834    31.015963       31.016       31.016    29837.116 
 2258000    287.45387   -1713.5985   -23014.906   -24820.279    1805.3732    1.1578834    31.015963       31.016       31.016    29837.116 
 2259000    292.58103   -3013.7059   -23127.181   -24964.755    1837.5747    1.1578834    31.015963       31.016       31.016    29837.116 
 2260000    295.51354   -3260.4478   -23017.418   -24873.411    1855.9925    1.1578834    31.015963       31.016       31.016    29837.116 
 2261000    294.06578   -3175.6532   -23057.601   -24904.501    1846.8997    1.1578834    31.015963       31.016       31.016    29837.116 
 2262000    290.81014   -2108.5823    -23079.69   -24906.143    1826.4525    1.1578834    31.015963       31.016       31.016    29837.116 
 2263000    294.60408   -2554.1521   -23065.896   -24916.177    1850.2806    1.1578834    31.015963       31.016       31.016    29837.116 
 2264000    301.17633   -2332.4399    -22992.04   -24883.598     1891.558    1.1578834    31.015963       31.016       31.016    29837.116 
 2265000    300.75197    -2724.442   -23067.286   -24956.179    1888.8928    1.1578834    31.015963       31.016       31.016    29837.116 
 2266000    300.59487   -2354.5878   -23017.495   -24905.401    1887.9062    1.1578834    31.015963       31.016       31.016    29837.116 
 2267000     295.3308   -3003.4202   -23044.016    -24898.86    1854.8448    1.1578834    31.015963       31.016       31.016    29837.116 
 2268000     298.1097   -1983.4962   -23017.146   -24889.444    1872.2979    1.1578834    31.015963       31.016       31.016    29837.116 
 2269000    300.21998   -3437.0617   -22984.393   -24869.944    1885.5517    1.1578834    31.015963       31.016       31.016    29837.116 
 2270000    292.64595   -2573.1007   -23012.348   -24850.331    1837.9825    1.1578834    31.015963       31.016       31.016    29837.116 
 2271000    307.69577   -3093.3094   -22871.654   -24804.158    1932.5039    1.1578834    31.015963       31.016       31.016    29837.116 
 2272000    297.20981   -3177.2229   -22913.359   -24780.005    1866.6461    1.1578834    31.015963       31.016       31.016    29837.116 
 2273000    302.19598   -3053.2761   -22978.032   -24875.994     1897.962    1.1578834    31.015963       31.016       31.016    29837.116 
 2274000    303.85576   -3022.2882    -22982.03   -24890.416    1908.3864    1.1578834    31.015963       31.016       31.016    29837.116 
 2275000    308.70592   -3081.6985   -22904.036   -24842.884    1938.8482    1.1578834    31.015963       31.016       31.016    29837.116 
 2276000    298.84309   -2582.2383   -22987.439   -24864.343     1876.904    1.1578834    31.015963       31.016       31.016    29837.116 
 2277000    299.85068    -2763.753   -23046.765   -24929.998    1883.2322    1.1578834    31.015963       31.016       31.016    29837.116 
 2278000    295.41353    -2501.152   -23055.996    -24911.36    1855.3644    1.1578834    31.015963       31.016       31.016    29837.116 
 2279000    303.82817   -3315.5966   -22951.195   -24859.408    1908.2131    1.1578834    31.015963       31.016       31.016    29837.116 
 2280000    300.70818   -3051.9664   -22968.225   -24856.843    1888.6178    1.1578834    31.015963       31.016       31.016    29837.116 
 2281000    293.22598   -3174.9878   -23010.567   -24852.193    1841.6254    1.1578834    31.015963       31.016       31.016    29837.116 
 2282000    297.88394   -3856.5714   -23030.184   -24901.064      1870.88    1.1578834    31.015963       31.016       31.016    29837.116 
 2283000    303.47279   -3369.3917   -22974.772   -24880.753    1905.9811    1.1578834    31.015963       31.016       31.016    29837.116 
 2284000    303.44726   -2001.0245   -22969.126   -24874.946    1905.8208    1.1578834    31.015963       31.016       31.016    29837.116 
 2285000    293.11902   -2079.5916   -23014.342   -24855.296    1840.9536    1.1578834    31.015963       31.016       31.016    29837.116 
 2286000    287.55321   -3041.8489   -23006.281   -24812.278    1805.9971    1.1578834    31.015963       31.016       31.016    29837.116 
 2287000    299.43572   -2122.6983   -23040.796   -24921.422     1880.626    1.1578834    31.015963       31.016       31.016    29837.116 
 2288000    304.26011   -2821.4216   -22979.229   -24890.155    1910.9259    1.1578834    31.015963       31.016       31.016    29837.116 
 2289000    301.36655   -1942.1366   -23031.638   -24924.391    1892.7527    1.1578834    31.015963       31.016       31.016    29837.116 
 2290000    298.86133   -2488.4784   -23003.816   -24880.835    1877.0185    1.1578834    31.015963       31.016       31.016    29837.116 
 2291000    305.92874   -2699.1189   -22901.923   -24823.329    1921.4059    1.1578834    31.015963       31.016       31.016    29837.116 
 2292000    299.00264   -2938.5374   -22996.845   -24874.751    1877.9061    1.1578834    31.015963       31.016       31.016    29837.116 
 2293000    300.22716   -3275.6554   -23014.131   -24899.727    1885.5967    1.1578834    31.015963       31.016       31.016    29837.116 
 2294000    298.85149   -1874.8877   -23083.802   -24960.759    1876.9567    1.1578834    31.015963       31.016       31.016    29837.116 
 2295000    299.94211   -2312.2493   -23000.444    -24884.25    1883.8065    1.1578834    31.015963       31.016       31.016    29837.116 
 2296000    296.79637   -2650.7464     -23061.4    -24925.45    1864.0494    1.1578834    31.015963       31.016       31.016    29837.116 
 2297000     297.1775   -2353.5271    -22959.02   -24825.463    1866.4431    1.1578834    31.015963       31.016       31.016    29837.116 
 2298000     295.5844   -3028.7245   -22959.534   -24815.971    1856.4375    1.1578834    31.015963       31.016       31.016    29837.116 
 2299000    292.40183   -1942.6542   -22957.406   -24793.856    1836.4492    1.1578834    31.015963       31.016       31.016    29837.116 
 2300000     295.0322   -3122.2334    -22994.35    -24847.32    1852.9694    1.1578834    31.015963       31.016       31.016    29837.116 
 2301000    304.95502    -2336.194    -22908.79   -24824.081    1915.2904    1.1578834    31.015963       31.016       31.016    29837.116 
 2302000    299.18457   -2505.5361   -23040.757   -24919.806    1879.0487    1.1578834    31.015963       31.016       31.016    29837.116 
 2303000    302.39637    -2472.285   -22925.719    -24824.94    1899.2206    1.1578834    31.015963       31.016       31.016    29837.116 
 2304000    293.66916    -1777.446   -22988.107   -24832.516    1844.4088    1.1578834    31.015963       31.016       31.016    29837.116 
 2305000    294.73107   -2915.0047   -23022.043   -24873.121    1851.0782    1.1578834    31.015963       31.016       31.016    29837.116 
 2306000    290.94587   -3093.4852   -23022.228   -24849.533    1827.3049    1.1578834    31.015963       31.016       31.016    29837.116 
 2307000    298.91129   -3039.8584   -22965.616   -24842.949    1877.3323    1.1578834    31.015963       31.016       31.016    29837.116 
 2308000    293.94146   -3192.7356     -23001.8   -24847.919     1846.119    1.1578834    31.015963       31.016       31.016    29837.116 
 2309000    289.96811    -2349.262   -22991.727   -24812.891    1821.1641    1.1578834    31.015963       31.016       31.016    29837.116 
 2310000    295.34041   -2547.7958   -22920.276   -24775.182    1854.9052    1.1578834    31.015963       31.016       31.016    29837.116 
 2311000    298.94292   -2688.2664   -22975.211   -24852.742     1877.531    1.1578834    31.015963       31.016       31.016    29837.116 
 2312000    303.37926   -2395.4977   -22953.102   -24858.495    1905.3937    1.1578834    31.015963       31.016       31.016    29837.116 
 2313000    286.48579   -2105.2184   -23066.863   -24866.156    1799.2932    1.1578834    31.015963       31.016       31.016    29837.116 
 2314000    295.28571   -2792.2491   -23055.324   -24909.885    1854.5617    1.1578834    31.015963       31.016       31.016    29837.116 
 2315000    306.63678   -2883.8104   -22990.641   -24916.494    1925.8528    1.1578834    31.015963       31.016       31.016    29837.116 
 2316000    300.95008   -3036.8262   -23085.505   -24975.642    1890.1371    1.1578834    31.015963       31.016       31.016    29837.116 
 2317000    291.87686   -1796.1729   -23120.789   -24953.942    1833.1521    1.1578834    31.015963       31.016       31.016    29837.116 
 2318000     306.4667   -3665.7956    -23004.38   -24929.165    1924.7846    1.1578834    31.015963       31.016       31.016    29837.116 
 2319000    301.24401   -2827.5379   -22951.958   -24843.941    1891.9831    1.1578834    31.015963       31.016       31.016    29837.116 
 2320000    299.99961   -3129.4143   -22933.854   -24818.021    1884.1676    1.1578834    31.015963       31.016       31.016    29837.116 
 2321000    301.45456   -2520.7105   -22912.563   -24805.868    1893.3055    1.1578834    31.015963       31.016       31.016    29837.116 
 2322000    293.21269   -2834.8842   -22985.959   -24827.501    1841.5419    1.1578834    31.015963       31.016       31.016    29837.116 
 2323000    301.92957   -3242.9048   -22881.791    -24778.08    1896.2889    1.1578834    31.015963       31.016       31.016    29837.116 
 2324000    302.74362   -2956.9472   -22902.373   -24803.774    1901.4015    1.1578834    31.015963       31.016       31.016    29837.116 
 2325000    292.74642   -3683.2578   -22999.175   -24837.788    1838.6135    1.1578834    31.015963       31.016       31.016    29837.116 
 2326000    293.07319   -3548.1326   -23093.983   -24934.649    1840.6657    1.1578834    31.015963       31.016       31.016    29837.116 
 2327000    300.49671   -3317.8287   -22993.745   -24881.035    1887.2896    1.1578834    31.015963       31.016       31.016    29837.116 
 2328000    297.94773   -2741.5643   -23003.003   -24874.284    1871.2806    1.1578834    31.015963       31.016       31.016    29837.116 
 2329000    297.88707   -2069.5927   -23063.326   -24934.225    1870.8996    1.1578834    31.015963       31.016       31.016    29837.116 
 2330000    296.42209   -2688.5512   -23090.978   -24952.676    1861.6987    1.1578834    31.015963       31.016       31.016    29837.116 
 2331000    296.82973   -2843.4232   -23178.187   -25042.446    1864.2589    1.1578834    31.015963       31.016       31.016    29837.116 
 2332000    299.39054   -2668.1113   -23045.988    -24926.33    1880.3423    1.1578834    31.015963       31.016       31.016    29837.116 
 2333000    281.06994   -2636.7294   -23092.741   -24858.019    1765.2785    1.1578834    31.015963       31.016       31.016    29837.116 
 2334000    304.51658   -3697.4671   -22962.245   -24874.782    1912.5367    1.1578834    31.015963       31.016       31.016    29837.116 
 2335000    299.59541   -2930.9949   -23006.748   -24888.377     1881.629    1.1578834    31.015963       31.016       31.016    29837.116 
 2336000    294.51994   -2557.9194   -23008.113   -24857.865    1849.7521    1.1578834    31.015963       31.016       31.016    29837.116 
 2337000    299.65625    -3786.632   -22957.525   -24839.536    1882.0111    1.1578834    31.015963       31.016       31.016    29837.116 
 2338000    299.19613   -2759.1435   -22974.462   -24853.583    1879.1213    1.1578834    31.015963       31.016       31.016    29837.116 
 2339000    297.26139   -2916.8504   -22925.802   -24792.772      1866.97    1.1578834    31.015963       31.016       31.016    29837.116 
 2340000    303.03566   -2967.2824   -22971.981   -24875.216    1903.2357    1.1578834    31.015963       31.016       31.016    29837.116 
 2341000    297.59424   -2573.8627   -22957.622   -24826.683    1869.0605    1.1578834    31.015963       31.016       31.016    29837.116 
 2342000    300.73692   -3163.9954   -22940.089   -24828.888    1888.7983    1.1578834    31.015963       31.016       31.016    29837.116 
 2343000     298.8462   -3053.1151   -22954.055   -24830.978    1876.9235    1.1578834    31.015963       31.016       31.016    29837.116 
 2344000    301.70751   -2884.1759   -22905.948   -24800.842    1894.8942    1.1578834    31.015963       31.016       31.016    29837.116 
 2345000     293.8156   -2130.7804   -23008.711   -24854.039    1845.3285    1.1578834    31.015963       31.016       31.016    29837.116 
 2346000    296.39449   -3375.4218    -22944.98   -24806.506    1861.5254    1.1578834    31.015963       31.016       31.016    29837.116 
 2347000    312.81532   -3320.4756   -22879.891   -24844.549    1964.6575    1.1578834    31.015963       31.016       31.016    29837.116 
 2348000     297.7224   -2211.2722   -22988.733   -24858.598    1869.8654    1.1578834    31.015963       31.016       31.016    29837.116 
 2349000    302.09508   -3110.3733   -22985.641   -24882.969    1897.3283    1.1578834    31.015963       31.016       31.016    29837.116 
 2350000    311.75038    -2283.795   -22867.477   -24825.446     1957.969    1.1578834    31.015963       31.016       31.016    29837.116 
 2351000    292.43319   -3061.5453   -22927.555   -24764.201    1836.6461    1.1578834    31.015963       31.016       31.016    29837.116 
 2352000     304.0408   -3093.3501   -23009.937   -24919.485    1909.5485    1.1578834    31.015963       31.016       31.016    29837.116 
 2353000    299.56375   -2107.7602   -22993.889   -24875.319    1881.4301    1.1578834    31.015963       31.016       31.016    29837.116 
 2354000    298.79179   -2290.4346   -22999.815   -24876.397    1876.5818    1.1578834    31.015963       31.016       31.016    29837.116 
 2355000    302.48155   -3011.6782   -22957.149   -24856.905    1899.7556    1.1578834    31.015963       31.016       31.016    29837.116 
 2356000     305.9015   -2484.0342   -23047.377   -24968.612    1921.2348    1.1578834    31.015963       31.016       31.016    29837.116 
 2357000    303.22192   -2891.9584   -22957.058   -24861.463    1904.4055    1.1578834    31.015963       31.016       31.016    29837.116 
 2358000    305.25881   -3129.6587   -23040.854   -24958.053    1917.1983    1.1578834    31.015963       31.016       31.016    29837.116 
 2359000    296.82445   -3378.2748   -23038.375   -24902.601    1864.2258    1.1578834    31.015963       31.016       31.016    29837.116 
 2360000    298.21581   -2187.7403   -22994.435   -24867.399    1872.9643    1.1578834    31.015963       31.016       31.016    29837.116 
 2361000    303.45954   -2189.5741   -23044.079   -24949.977    1905.8979    1.1578834    31.015963       31.016       31.016    29837.116 
 2362000    306.23179    -2571.732   -22968.597   -24891.906    1923.3092    1.1578834    31.015963       31.016       31.016    29837.116 
 2363000     303.3747   -2936.2145   -22938.943   -24844.308    1905.3651    1.1578834    31.015963       31.016       31.016    29837.116 
 2364000    299.08138   -2347.6627   -23061.158   -24939.559    1878.4006    1.1578834    31.015963       31.016       31.016    29837.116 
 2365000    300.42111   -2440.0318   -22980.776   -24867.591    1886.8148    1.1578834    31.015963       31.016       31.016    29837.116 
 2366000    295.45744    -3386.574   -23020.621   -24876.261    1855.6402    1.1578834    31.015963       31.016       31.016    29837.116 
 2367000    299.82492   -2598.8242    -22953.68    -24836.75    1883.0704    1.1578834    31.015963       31.016       31.016    29837.116 
 2368000    294.03758   -2891.2329   -23050.187    -24896.91    1846.7227    1.1578834    31.015963       31.016       31.016    29837.116 
 2369000    300.95123   -3488.4677   -23065.078   -24955.222    1890.1443    1.1578834    31.015963       31.016       31.016    29837.116 
 2370000    301.88807   -3093.4784   -22974.917   -24870.945    1896.0282    1.1578834    31.015963       31.016       31.016    29837.116 
 2371000    294.04063   -2981.4739   -23119.955   -24966.696    1846.7418    1.1578834    31.015963       31.016       31.016    29837.116 
 2372000    291.91884   -2699.7119   -23062.796   -24896.212    1833.4158    1.1578834    31.015963       31.016       31.016    29837.116 
 2373000    304.15716   -2692.3871   -22919.711   -24829.991    1910.2794    1.1578834    31.015963       31.016       31.016    29837.116 
 2374000    297.76612    -2365.472   -22968.118   -24838.258      1870.14    1.1578834    31.015963       31.016       31.016    29837.116 
 2375000    287.68546   -2545.1639   -23027.529   -24834.357    1806.8277    1.1578834    31.015963       31.016       31.016    29837.116 
 2376000    297.78622   -3084.0845   -23013.019   -24883.285    1870.2662    1.1578834    31.015963       31.016       31.016    29837.116 
 2377000    300.62547   -2097.3417   -23077.463   -24965.561    1888.0983    1.1578834    31.015963       31.016       31.016    29837.116 
 2378000    298.57744   -3141.6142   -23018.987   -24894.223    1875.2356    1.1578834    31.015963       31.016       31.016    29837.116 
 2379000    288.23126   -3282.5342    -23160.92   -24971.176    1810.2557    1.1578834    31.015963       31.016       31.016    29837.116 
 2380000    298.28484   -2504.7467   -22967.017   -24840.415    1873.3978    1.1578834    31.015963       31.016       31.016    29837.116 
 2381000    296.53415    -3265.587   -22996.728   -24859.131    1862.4025    1.1578834    31.015963       31.016       31.016    29837.116 
 2382000    291.46632   -2965.1182   -22960.851   -24791.425    1830.5737    1.1578834    31.015963       31.016       31.016    29837.116 
 2383000    304.70252    -3646.239   -22913.359   -24827.064    1913.7045    1.1578834    31.015963       31.016       31.016    29837.116 
 2384000    302.09851   -2389.8242   -22933.255   -24830.605    1897.3499    1.1578834    31.015963       31.016       31.016    29837.116 
 2385000    304.19101   -3228.7175   -23022.307   -24932.799    1910.4919    1.1578834    31.015963       31.016       31.016    29837.116 
 2386000    300.12127   -2244.4011   -22955.418    -24840.35    1884.9317    1.1578834    31.015963       31.016       31.016    29837.116 
 2387000    299.32725   -2655.6415   -22983.405    -24863.35    1879.9448    1.1578834    31.015963       31.016       31.016    29837.116 
 2388000    294.17845   -2349.6126   -23000.458   -24848.066    1847.6074    1.1578834    31.015963       31.016       31.016    29837.116 
 2389000    302.66817   -2856.2518   -22985.256   -24886.184    1900.9277    1.1578834    31.015963       31.016       31.016    29837.116 
 2390000    298.85255   -2773.9502   -22999.011   -24875.974    1876.9634    1.1578834    31.015963       31.016       31.016    29837.116 
 2391000    292.21616   -2233.5801   -22987.805   -24823.088    1835.2831    1.1578834    31.015963       31.016       31.016    29837.116 
 2392000     304.1739    -3352.254   -22928.409   -24838.793    1910.3845    1.1578834    31.015963       31.016       31.016    29837.116 
 2393000    293.57306   -3704.3291   -22942.721   -24786.526    1843.8052    1.1578834    31.015963       31.016       31.016    29837.116 
 2394000    291.61496   -4181.4051   -23038.285   -24869.792    1831.5072    1.1578834    31.015963       31.016       31.016    29837.116 
 2395000    292.62674   -3723.0842   -22999.438   -24837.299    1837.8618    1.1578834    31.015963       31.016       31.016    29837.116 
 2396000    301.60056   -2484.2455   -22956.439   -24850.662    1894.2224    1.1578834    31.015963       31.016       31.016    29837.116 
 2397000    303.85824   -3159.1593    -22958.74   -24867.142     1908.402    1.1578834    31.015963       31.016       31.016    29837.116 
 2398000    292.42723    -2343.618   -23046.658   -24883.267    1836.6087    1.1578834    31.015963       31.016       31.016    29837.116 
 2399000    296.86401   -3562.9949   -23118.492   -24982.966    1864.4743    1.1578834    31.015963       31.016       31.016    29837.116 
 2400000    302.32831   -2966.2817   -22970.228   -24869.021    1898.7931    1.1578834    31.015963       31.016       31.016    29837.116 
 2401000    293.57164   -1802.9105   -22976.008   -24819.804    1843.7963    1.1578834    31.015963       31.016       31.016    29837.116 
 2402000    295.88426   -2200.6419   -23031.852   -24890.173    1858.3209    1.1578834    31.015963       31.016       31.016    29837.116 
 2403000     291.4351   -2241.9785   -23021.941   -24852.319    1830.3776    1.1578834    31.015963       31.016       31.016    29837.116 
 2404000     307.7411   -3468.0619   -22996.116   -24928.904    1932.7885    1.1578834    31.015963       31.016       31.016    29837.116 
 2405000    293.06868   -3534.4359   -23033.229   -24873.866    1840.6374    1.1578834    31.015963       31.016       31.016    29837.116 
 2406000     296.7352   -3015.0123   -23092.537   -24956.203    1863.6652    1.1578834    31.015963       31.016       31.016    29837.116 
 2407000    302.64631   -2501.7275   -22983.193   -24883.983    1900.7904    1.1578834    31.015963       31.016       31.016    29837.116 
 2408000    295.58403   -3769.8412   -23053.497   -24909.932    1856.4352    1.1578834    31.015963       31.016       31.016    29837.116 
 2409000    295.05735   -2033.6458   -23073.594   -24926.721    1853.1274    1.1578834    31.015963       31.016       31.016    29837.116 
 2410000     305.2168    -2203.059   -23016.932   -24933.867    1916.9345    1.1578834    31.015963       31.016       31.016    29837.116 
 2411000    294.17023   -3076.7519   -23076.558   -24924.114    1847.5558    1.1578834    31.015963       31.016       31.016    29837.116 
 2412000     295.4812   -2737.6115   -23012.847   -24868.636    1855.7894    1.1578834    31.015963       31.016       31.016    29837.116 
 2413000      298.112   -3181.7212   -22998.338   -24870.651    1872.3123    1.1578834    31.015963       31.016       31.016    29837.116 
 2414000    295.76308   -2875.9852   -23049.619   -24907.179    1857.5598    1.1578834    31.015963       31.016       31.016    29837.116 
 2415000    305.74679   -2669.5252   -22962.204   -24882.467    1920.2631    1.1578834    31.015963       31.016       31.016    29837.116 
 2416000    307.45669   -2239.6324   -22944.043   -24875.045    1931.0023    1.1578834    31.015963       31.016       31.016    29837.116 
 2417000     297.3083   -2896.7278   -22911.655   -24778.919    1867.2646    1.1578834    31.015963       31.016       31.016    29837.116 
 2418000    296.10348   -3189.2218   -23066.546   -24926.244    1859.6977    1.1578834    31.015963       31.016       31.016    29837.116 
 2419000    297.98236   -2847.3981   -22967.013   -24838.511    1871.4981    1.1578834    31.015963       31.016       31.016    29837.116 
 2420000    297.60086   -2911.3167   -23016.606   -24885.708    1869.1021    1.1578834    31.015963       31.016       31.016    29837.116 
 2421000    284.81396   -2781.8289    -23110.72   -24899.513    1788.7931    1.1578834    31.015963       31.016       31.016    29837.116 
 2422000    299.71806    -2988.854   -22935.146   -24817.545    1882.3993    1.1578834    31.015963       31.016       31.016    29837.116 
 2423000    300.35565   -2912.3676   -22960.144   -24846.548    1886.4037    1.1578834    31.015963       31.016       31.016    29837.116 
 2424000    296.82032   -3276.0682   -23104.774   -24968.974    1864.1998    1.1578834    31.015963       31.016       31.016    29837.116 
 2425000     300.3626   -2709.3058    -22994.08   -24880.527    1886.4474    1.1578834    31.015963       31.016       31.016    29837.116 
 2426000    290.47186   -2736.0369   -23015.142    -24839.47    1824.3279    1.1578834    31.015963       31.016       31.016    29837.116 
 2427000    300.37366   -2349.1017   -23044.777   -24931.293    1886.5168    1.1578834    31.015963       31.016       31.016    29837.116 
 2428000    303.06534   -2836.0246   -23017.599   -24921.022    1903.4221    1.1578834    31.015963       31.016       31.016    29837.116 
 2429000    300.26583   -1909.9129   -23088.747   -24974.587    1885.8396    1.1578834    31.015963       31.016       31.016    29837.116 
 2430000    292.18645   -1808.5424   -23010.614   -24845.711    1835.0965    1.1578834    31.015963       31.016       31.016    29837.116 
 2431000    289.55067   -2506.1321    -23053.93   -24872.472    1818.5423    1.1578834    31.015963       31.016       31.016    29837.116 
 2432000    301.46027   -3539.4443   -22961.246   -24854.587    1893.3413    1.1578834    31.015963       31.016       31.016    29837.116 
 2433000    298.30991   -3131.9897   -23026.071   -24899.626    1873.5553    1.1578834    31.015963       31.016       31.016    29837.116 
 2434000    301.91686   -2902.6883   -22969.094   -24865.303     1896.209    1.1578834    31.015963       31.016       31.016    29837.116 
 2435000    292.59383    -3376.556   -23038.508   -24876.163    1837.6551    1.1578834    31.015963       31.016       31.016    29837.116 
 2436000    293.73925    -3087.638   -23008.508   -24853.357     1844.849    1.1578834    31.015963       31.016       31.016    29837.116 
 2437000    301.24661   -2042.6181   -22937.574   -24829.573    1891.9995    1.1578834    31.015963       31.016       31.016    29837.116 
 2438000    298.02132   -3651.8495   -22983.552   -24855.295    1871.7428    1.1578834    31.015963       31.016       31.016    29837.116 
 2439000    298.94073   -3396.2337   -23042.311   -24919.828    1877.5172    1.1578834    31.015963       31.016       31.016    29837.116 
 2440000    298.20977   -1315.9206   -23026.191   -24899.118    1872.9264    1.1578834    31.015963       31.016       31.016    29837.116 
 2441000    303.76026   -2847.6498   -22980.521   -24888.308    1907.7866    1.1578834    31.015963       31.016       31.016    29837.116 
 2442000    295.37117   -2492.2851   -22989.721   -24844.819    1855.0983    1.1578834    31.015963       31.016       31.016    29837.116 
 2443000    295.96514   -3041.4116   -22961.946   -24820.775    1858.8288    1.1578834    31.015963       31.016       31.016    29837.116 
 2444000    291.17462   -2648.8006   -23069.693   -24898.435    1828.7417    1.1578834    31.015963       31.016       31.016    29837.116 
 2445000    296.90946   -2777.6269   -23037.118   -24901.877    1864.7597    1.1578834    31.015963       31.016       31.016    29837.116 
 2446000    294.39722    -2311.032   -23097.735   -24946.716    1848.9814    1.1578834    31.015963       31.016       31.016    29837.116 
 2447000    304.65139   -3103.2966   -22969.644   -24883.028    1913.3834    1.1578834    31.015963       31.016       31.016    29837.116 
 2448000    298.14345   -3214.6667   -22963.964   -24836.474    1872.5099    1.1578834    31.015963       31.016       31.016    29837.116 
 2449000    302.87208   -3173.1132    -23053.78   -24955.988    1902.2083    1.1578834    31.015963       31.016       31.016    29837.116 
 2450000    299.58109   -3055.9476   -23079.024   -24960.563     1881.539    1.1578834    31.015963       31.016       31.016    29837.116 
 2451000    303.42957   -2012.7011   -22971.961   -24877.671    1905.7097    1.1578834    31.015963       31.016       31.016    29837.116 
 2452000    298.96542   -3089.2196   -23039.056   -24916.729    1877.6723    1.1578834    31.015963       31.016       31.016    29837.116 
 2453000    299.00649   -3210.0472   -23083.803   -24961.733    1877.9302    1.1578834    31.015963       31.016       31.016    29837.116 
 2454000     308.5958   -2975.7041   -23033.276   -24971.432    1938.1565    1.1578834    31.015963       31.016       31.016    29837.116 
 2455000    298.94176   -2852.1765   -22916.828   -24794.352    1877.5237    1.1578834    31.015963       31.016       31.016    29837.116 
 2456000    285.13939   -3364.6971   -23141.581   -24932.418     1790.837    1.1578834    31.015963       31.016       31.016    29837.116 
 2457000    300.29105   -1977.2845   -22970.798   -24856.796     1885.998    1.1578834    31.015963       31.016       31.016    29837.116 
 2458000    303.40464   -2649.3209    -22991.15   -24896.703    1905.5531    1.1578834    31.015963       31.016       31.016    29837.116 
 2459000    293.65491   -3319.4611   -23162.358   -25006.677    1844.3192    1.1578834    31.015963       31.016       31.016    29837.116 
 2460000    299.12864   -2252.9765   -22964.112   -24842.809    1878.6974    1.1578834    31.015963       31.016       31.016    29837.116 
 2461000    290.49748   -3619.6925   -23088.965   -24913.454    1824.4888    1.1578834    31.015963       31.016       31.016    29837.116 
 2462000    294.39819   -3202.0223   -22996.746   -24845.733    1848.9875    1.1578834    31.015963       31.016       31.016    29837.116 
 2463000    284.92065   -2806.3741   -23138.275   -24927.738    1789.4631    1.1578834    31.015963       31.016       31.016    29837.116 
 2464000    302.97052   -2549.3756   -22989.183    -24892.01    1902.8266    1.1578834    31.015963       31.016       31.016    29837.116 
 2465000    296.32541   -2889.4802   -22958.707   -24819.798    1861.0915    1.1578834    31.015963       31.016       31.016    29837.116 
 2466000    290.47241   -3130.3071   -23056.737   -24881.068    1824.3314    1.1578834    31.015963       31.016       31.016    29837.116 
 2467000    289.75992   -2647.7071   -23074.161   -24894.017    1819.8565    1.1578834    31.015963       31.016       31.016    29837.116 
 2468000    310.82228   -2366.7197   -22964.041   -24916.181    1952.1401    1.1578834    31.015963       31.016       31.016    29837.116 
 2469000    297.41916   -2086.0794   -23008.231   -24876.192    1867.9609    1.1578834    31.015963       31.016       31.016    29837.116 
 2470000    288.43539   -2693.2655    -22996.82   -24808.358    1811.5377    1.1578834    31.015963       31.016       31.016    29837.116 
 2471000    299.36666   -2653.2167   -22925.543   -24805.736    1880.1923    1.1578834    31.015963       31.016       31.016    29837.116 
 2472000    296.81641   -2669.4079   -22997.392   -24861.567    1864.1753    1.1578834    31.015963       31.016       31.016    29837.116 
 2473000    290.20775   -2304.2754   -23050.579   -24873.248    1822.6691    1.1578834    31.015963       31.016       31.016    29837.116 
 2474000    299.66648    -2900.351   -22988.939   -24871.014    1882.0754    1.1578834    31.015963       31.016       31.016    29837.116 
 2475000    296.20625   -2377.6909   -23009.086   -24869.429    1860.3431    1.1578834    31.015963       31.016       31.016    29837.116 
 2476000    293.14493   -2493.3318   -23026.275   -24867.391    1841.1163    1.1578834    31.015963       31.016       31.016    29837.116 
 2477000    307.00814   -2115.4428   -22895.144   -24823.329    1928.1851    1.1578834    31.015963       31.016       31.016    29837.116 
 2478000    300.48126   -2432.1993    -22939.26   -24826.452    1887.1926    1.1578834    31.015963       31.016       31.016    29837.116 
 2479000    294.03323   -2989.5634   -22998.418   -24845.113    1846.6953    1.1578834    31.015963       31.016       31.016    29837.116 
 2480000    297.19266   -2610.4783   -22912.172    -24778.71    1866.5384    1.1578834    31.015963       31.016       31.016    29837.116 
 2481000    305.91433   -2649.1221   -22833.518   -24754.834    1921.3154    1.1578834    31.015963       31.016       31.016    29837.116 
 2482000    296.36443    -2195.692   -23016.481   -24877.817    1861.3366    1.1578834    31.015963       31.016       31.016    29837.116 
 2483000     285.6189   -2841.1188   -23117.799   -24911.647    1793.8486    1.1578834    31.015963       31.016       31.016    29837.116 
 2484000    299.43229    -2051.048   -22973.052   -24853.656    1880.6045    1.1578834    31.015963       31.016       31.016    29837.116 
 2485000    297.16839     -1589.37   -22995.418   -24861.804    1866.3859    1.1578834    31.015963       31.016       31.016    29837.116 
 2486000    293.12751   -2889.6368   -23044.444   -24885.451    1841.0069    1.1578834    31.015963       31.016       31.016    29837.116 
 2487000    289.69325   -2679.2267   -23131.046   -24950.483    1819.4378    1.1578834    31.015963       31.016       31.016    29837.116 
 2488000    290.94625   -3326.8305   -23049.441   -24876.748    1827.3074    1.1578834    31.015963       31.016       31.016    29837.116 
 2489000    302.26909   -2563.3417   -23021.874   -24920.295    1898.4212    1.1578834    31.015963       31.016       31.016    29837.116 
 2490000    285.57085   -2583.1014    -23154.57   -24948.117    1793.5468    1.1578834    31.015963       31.016       31.016    29837.116 
 2491000    293.96728   -3005.0825    -23117.27   -24963.551    1846.2811    1.1578834    31.015963       31.016       31.016    29837.116 
 2492000    307.33034   -2664.6796   -23008.316   -24938.525    1930.2087    1.1578834    31.015963       31.016       31.016    29837.116 
 2493000    290.47498   -3243.0985   -23077.291   -24901.639    1824.3475    1.1578834    31.015963       31.016       31.016    29837.116 
 2494000    291.89991   -2289.6362   -23081.408   -24914.705    1833.2969    1.1578834    31.015963       31.016       31.016    29837.116 
 2495000    295.97086    -3560.405   -23028.222   -24887.086    1858.8647    1.1578834    31.015963       31.016       31.016    29837.116 
 2496000    301.87487   -3005.0799   -22956.393   -24852.338    1895.9453    1.1578834    31.015963       31.016       31.016    29837.116 
 2497000     296.0584   -3056.5287   -22969.322   -24828.737    1859.4145    1.1578834    31.015963       31.016       31.016    29837.116 
 2498000    298.86105   -2902.0021   -23033.372   -24910.389    1877.0168    1.1578834    31.015963       31.016       31.016    29837.116 
 2499000    304.47537   -2189.6714   -22983.618   -24895.896    1912.2779    1.1578834    31.015963       31.016       31.016    29837.116 
 2500000    301.47517    -3437.323    -22933.18   -24826.615    1893.4349    1.1578834    31.015963       31.016       31.016    29837.116 
 2501000    291.73814   -3172.5947   -23005.724   -24838.005    1832.2809    1.1578834    31.015963       31.016       31.016    29837.116 
 2502000    300.65677   -3156.6889   -22946.784   -24835.079    1888.2949    1.1578834    31.015963       31.016       31.016    29837.116 
 2503000     293.4919   -2526.5673   -22998.375   -24841.671    1843.2955    1.1578834    31.015963       31.016       31.016    29837.116 
 2504000      297.317   -3236.2981    -23072.44   -24939.759    1867.3193    1.1578834    31.015963       31.016       31.016    29837.116 
 2505000    299.18827   -3151.4168   -22982.789   -24861.861    1879.0719    1.1578834    31.015963       31.016       31.016    29837.116 
 2506000    291.28677   -3964.6007    -23027.79   -24857.236     1829.446    1.1578834    31.015963       31.016       31.016    29837.116 
 2507000    291.77355   -2708.9845   -22982.965   -24815.468    1832.5033    1.1578834    31.015963       31.016       31.016    29837.116 
 2508000    289.37073   -2737.8229    -23075.74   -24893.152    1817.4122    1.1578834    31.015963       31.016       31.016    29837.116 
 2509000    311.78542    -3742.595   -22932.598   -24890.787    1958.1891    1.1578834    31.015963       31.016       31.016    29837.116 
 2510000    294.89478    -2736.607   -23075.699   -24927.805    1852.1063    1.1578834    31.015963       31.016       31.016    29837.116 
 2511000    303.89141   -2450.7907   -23092.764   -25001.374    1908.6103    1.1578834    31.015963       31.016       31.016    29837.116 
 2512000     297.5536   -2634.0277   -22957.235    -24826.04    1868.8053    1.1578834    31.015963       31.016       31.016    29837.116 
 2513000    297.45576   -2749.3021   -23028.669    -24896.86    1868.1908    1.1578834    31.015963       31.016       31.016    29837.116 
 2514000    298.72301   -2067.7788   -23008.232   -24884.381    1876.1498    1.1578834    31.015963       31.016       31.016    29837.116 
 2515000     292.3024   -2762.9822   -23045.641   -24881.465    1835.8248    1.1578834    31.015963       31.016       31.016    29837.116 
 2516000    296.28245   -3200.7876   -22921.519    -24782.34    1860.8217    1.1578834    31.015963       31.016       31.016    29837.116 
 2517000    302.89538   -2635.8504   -22879.569   -24781.923    1902.3547    1.1578834    31.015963       31.016       31.016    29837.116 
 2518000     306.7999   -3005.7301   -22935.051   -24861.928    1926.8773    1.1578834    31.015963       31.016       31.016    29837.116 
 2519000    296.57879   -2005.0926   -22991.151   -24853.834    1862.6829    1.1578834    31.015963       31.016       31.016    29837.116 
 2520000    301.19111   -2504.5929   -22969.034   -24860.685    1891.6509    1.1578834    31.015963       31.016       31.016    29837.116 
 2521000      298.897   -2746.8395   -23061.252   -24938.494    1877.2426    1.1578834    31.015963       31.016       31.016    29837.116 
 2522000    298.90835    -3623.135   -22927.213   -24804.527    1877.3138    1.1578834    31.015963       31.016       31.016    29837.116 
 2523000    299.68283   -3620.3958   -23017.789   -24899.967     1882.178    1.1578834    31.015963       31.016       31.016    29837.116 
 2524000    298.00231   -2751.5677   -23018.607   -24890.231    1871.6234    1.1578834    31.015963       31.016       31.016    29837.116 
 2525000    290.92673   -2783.3737   -22973.687   -24800.872    1827.1848    1.1578834    31.015963       31.016       31.016    29837.116 
 2526000    297.34752   -3644.9805   -23041.864   -24909.375    1867.5109    1.1578834    31.015963       31.016       31.016    29837.116 
 2527000    301.75684   -3106.1128   -22908.684   -24803.888     1895.204    1.1578834    31.015963       31.016       31.016    29837.116 
 2528000    305.64446    -2926.617   -23031.659   -24951.279    1919.6205    1.1578834    31.015963       31.016       31.016    29837.116 
 2529000    299.02015    -2395.224   -22955.585   -24833.601     1878.016    1.1578834    31.015963       31.016       31.016    29837.116 
 2530000    294.55291   -2598.8284   -23052.677   -24902.636    1849.9592    1.1578834    31.015963       31.016       31.016    29837.116 
 2531000    307.61474   -3415.8057   -22873.159   -24805.154    1931.9949    1.1578834    31.015963       31.016       31.016    29837.116 
 2532000    293.53067   -3380.8255   -22943.736   -24787.275     1843.539    1.1578834    31.015963       31.016       31.016    29837.116 
 2533000    303.86982   -3204.2452   -22957.342   -24865.817    1908.4747    1.1578834    31.015963       31.016       31.016    29837.116 
 2534000    291.98003   -2017.0021   -23015.555   -24849.355    1833.8001    1.1578834    31.015963       31.016       31.016    29837.116 
 2535000    297.06466   -1816.3492   -23000.846    -24866.58    1865.7344    1.1578834    31.015963       31.016       31.016    29837.116 
 2536000    304.92077   -2809.8528   -22875.929   -24791.005    1915.0753    1.1578834    31.015963       31.016       31.016    29837.116 
 2537000    298.59116   -2163.1804   -22936.414   -24811.736    1875.3217    1.1578834    31.015963       31.016       31.016    29837.116 
 2538000    293.18821   -2427.9612   -22991.136   -24832.524    1841.3881    1.1578834    31.015963       31.016       31.016    29837.116 
 2539000    288.80305   -3497.1741   -22914.659   -24728.506    1813.8468    1.1578834    31.015963       31.016       31.016    29837.116 
 2540000    305.69414   -2231.6717   -22901.165   -24821.098    1919.9324    1.1578834    31.015963       31.016       31.016    29837.116 
 2541000    313.95376   -2713.7047   -22881.036   -24852.843    1971.8075    1.1578834    31.015963       31.016       31.016    29837.116 
 2542000    296.29108   -3185.3948   -23059.748   -24920.624    1860.8759    1.1578834    31.015963       31.016       31.016    29837.116 
 2543000     301.5115   -2682.0318   -23027.886   -24921.549    1893.6631    1.1578834    31.015963       31.016       31.016    29837.116 
 2544000    302.48756   -3378.3201   -23082.143   -24981.936    1899.7933    1.1578834    31.015963       31.016       31.016    29837.116 
 2545000    293.75388   -2802.9717   -23018.368   -24863.309    1844.9408    1.1578834    31.015963       31.016       31.016    29837.116 
 2546000    301.49666   -2788.8378    -22985.74    -24879.31    1893.5699    1.1578834    31.015963       31.016       31.016    29837.116 
 2547000    295.13671   -2842.7755   -22955.283   -24808.909    1853.6258    1.1578834    31.015963       31.016       31.016    29837.116 
 2548000    303.34398    -3241.412   -22967.807   -24872.979    1905.1721    1.1578834    31.015963       31.016       31.016    29837.116 
 2549000     297.7007   -2834.0298   -23047.226   -24916.955    1869.7291    1.1578834    31.015963       31.016       31.016    29837.116 
 2550000    304.55915   -2512.6132   -22937.046    -24849.85    1912.8041    1.1578834    31.015963       31.016       31.016    29837.116 
 2551000    295.64428   -2763.3207   -23012.155   -24868.969    1856.8136    1.1578834    31.015963       31.016       31.016    29837.116 
 2552000    292.87497   -2277.7263   -23046.479     -24885.9    1839.4208    1.1578834    31.015963       31.016       31.016    29837.116 
 2553000     294.4769   -2508.6469   -23152.987   -25002.469    1849.4818    1.1578834    31.015963       31.016       31.016    29837.116 
 2554000    308.34828   -3258.4297   -23003.269   -24939.871     1936.602    1.1578834    31.015963       31.016       31.016    29837.116 
 2555000    304.76458   -2481.7623    -23035.69   -24949.785    1914.0943    1.1578834    31.015963       31.016       31.016    29837.116 
 2556000    297.65174   -2210.4901   -23114.965   -24984.387    1869.4216    1.1578834    31.015963       31.016       31.016    29837.116 
 2557000    302.13231    -2689.008   -23047.016   -24944.578    1897.5621    1.1578834    31.015963       31.016       31.016    29837.116 
 2558000    300.84667   -2160.7722    -23017.46   -24906.947    1889.4876    1.1578834    31.015963       31.016       31.016    29837.116 
 2559000    297.84465   -2633.6883   -22951.676   -24822.309    1870.6332    1.1578834    31.015963       31.016       31.016    29837.116 
 2560000    290.78933   -3085.6339   -22954.602   -24780.924    1826.3218    1.1578834    31.015963       31.016       31.016    29837.116 
 2561000    296.45789   -2738.2275   -22988.426   -24850.349    1861.9236    1.1578834    31.015963       31.016       31.016    29837.116 
 2562000    291.44249   -2515.8323   -23078.067   -24908.491     1830.424    1.1578834    31.015963       31.016       31.016    29837.116 
 2563000    290.85596   -2996.8469    -22938.99   -24765.731    1826.7403    1.1578834    31.015963       31.016       31.016    29837.116 
 2564000    295.64916    -2754.889   -23040.888   -24897.732    1856.8443    1.1578834    31.015963       31.016       31.016    29837.116 
 2565000     302.4957   -3156.2106   -22930.063   -24829.908    1899.8444    1.1578834    31.015963       31.016       31.016    29837.116 
 2566000    299.90464   -2980.4214   -23017.289    -24900.86    1883.5711    1.1578834    31.015963       31.016       31.016    29837.116 
 2567000    298.47109   -1861.0901   -23059.494   -24934.062    1874.5676    1.1578834    31.015963       31.016       31.016    29837.116 
 2568000    299.87137   -3293.9881   -23038.203   -24921.565    1883.3622    1.1578834    31.015963       31.016       31.016    29837.116 
 2569000    299.15989    -3698.858   -23059.839   -24938.733    1878.8937    1.1578834    31.015963       31.016       31.016    29837.116 
 2570000    289.50883   -3499.3271   -23011.298   -24829.577    1818.2795    1.1578834    31.015963       31.016       31.016    29837.116 
 2571000    294.40859   -2305.1361    -23125.82   -24974.873    1849.0528    1.1578834    31.015963       31.016       31.016    29837.116 
 2572000    292.77395   -3471.7581    -23080.93   -24919.716    1838.7863    1.1578834    31.015963       31.016       31.016    29837.116 
 2573000    298.75605   -2613.3062   -22952.379   -24828.736    1876.3573    1.1578834    31.015963       31.016       31.016    29837.116 
 2574000    288.94135   -3577.7485   -23042.881   -24857.596    1814.7155    1.1578834    31.015963       31.016       31.016    29837.116 
 2575000    304.78124   -2115.4333   -22925.918   -24840.117    1914.1989    1.1578834    31.015963       31.016       31.016    29837.116 
 2576000    302.18234   -2685.6181   -22980.643    -24878.52    1897.8763    1.1578834    31.015963       31.016       31.016    29837.116 
 2577000    294.59961   -3778.9035       -23063   -24913.253    1850.2525    1.1578834    31.015963       31.016       31.016    29837.116 
 2578000     295.9658   -2360.2179    -23035.39   -24894.223    1858.8329    1.1578834    31.015963       31.016       31.016    29837.116 
 2579000      294.635   -2115.5133     -22983.2   -24833.674    1850.4748    1.1578834    31.015963       31.016       31.016    29837.116 
 2580000     294.5562   -2343.7766   -23076.278   -24926.258    1849.9799    1.1578834    31.015963       31.016       31.016    29837.116 
 2581000    301.04648   -3255.4022   -23070.469   -24961.212    1890.7425    1.1578834    31.015963       31.016       31.016    29837.116 
 2582000     299.0111   -2646.3299   -23085.865   -24963.825    1877.9592    1.1578834    31.015963       31.016       31.016    29837.116 
 2583000    300.29173   -2387.6646   -23078.674   -24964.676    1886.0022    1.1578834    31.015963       31.016       31.016    29837.116 
 2584000    293.94806   -2819.8844   -23005.847   -24852.008    1846.1604    1.1578834    31.015963       31.016       31.016    29837.116 
 2585000    295.93942   -2166.0986   -22962.925   -24821.592    1858.6673    1.1578834    31.015963       31.016       31.016    29837.116 
 2586000     295.3913   -3416.3555   -22996.006   -24851.231    1855.2248    1.1578834    31.015963       31.016       31.016    29837.116 
 2587000    296.88485   -2294.9083   -23014.767   -24879.373    1864.6051    1.1578834    31.015963       31.016       31.016    29837.116 
 2588000    291.83756    -2814.363   -22987.362   -24820.267    1832.9053    1.1578834    31.015963       31.016       31.016    29837.116 
 2589000     305.0228    -3179.248     -22850.4   -24766.116     1915.716    1.1578834    31.015963       31.016       31.016    29837.116 
 2590000    293.71317   -2585.6998   -23027.566   -24872.252    1844.6852    1.1578834    31.015963       31.016       31.016    29837.116 
 2591000    307.15506   -2178.2266    -22856.39   -24785.498    1929.1079    1.1578834    31.015963       31.016       31.016    29837.116 
 2592000     299.0771   -2742.2563   -22942.407   -24820.781    1878.3737    1.1578834    31.015963       31.016       31.016    29837.116 
 2593000    294.06973   -2795.6631    -23020.81   -24867.735    1846.9246    1.1578834    31.015963       31.016       31.016    29837.116 
 2594000    300.77464   -3330.4321   -22904.569   -24793.604    1889.0352    1.1578834    31.015963       31.016       31.016    29837.116 
 2595000    299.22571   -2932.6878   -23038.898   -24918.205    1879.3071    1.1578834    31.015963       31.016       31.016    29837.116 
 2596000    298.98033   -2795.8227   -22966.265   -24844.031     1877.766    1.1578834    31.015963       31.016       31.016    29837.116 
 2597000    302.42937   -3034.9007   -22947.032    -24846.46    1899.4278    1.1578834    31.015963       31.016       31.016    29837.116 
 2598000    296.52507   -2526.4756   -22935.215   -24797.561    1862.3455    1.1578834    31.015963       31.016       31.016    29837.116 
 2599000    295.88869    -3329.055   -22956.596   -24814.944    1858.3487    1.1578834    31.015963       31.016       31.016    29837.116 
 2600000    303.84209   -2550.9648   -22916.554   -24824.855    1908.3005    1.1578834    31.015963       31.016       31.016    29837.116 
 2601000    304.02625    -2789.914   -22965.855   -24875.312    1909.4572    1.1578834    31.015963       31.016       31.016    29837.116 
 2602000    299.69464   -3618.0144   -23036.298    -24918.55    1882.2522    1.1578834    31.015963       31.016       31.016    29837.116 
 2603000    296.90276   -2702.7767   -23068.584   -24933.302    1864.7176    1.1578834    31.015963       31.016       31.016    29837.116 
 2604000    298.30972   -3016.1639   -23106.379   -24979.933    1873.5541    1.1578834    31.015963       31.016       31.016    29837.116 
 2605000    295.41113   -1666.6503   -23036.828   -24892.178    1855.3493    1.1578834    31.015963       31.016       31.016    29837.116 
 2606000    302.38407   -2876.0146   -22956.011   -24855.154    1899.1434    1.1578834    31.015963       31.016       31.016    29837.116 
 2607000    302.41955   -2784.9392   -22962.602   -24861.968    1899.3662    1.1578834    31.015963       31.016       31.016    29837.116 
 2608000    312.08136   -3112.8502   -22811.607   -24771.655    1960.0478    1.1578834    31.015963       31.016       31.016    29837.116 
 2609000    290.95947   -2137.4938    -22994.16    -24821.55    1827.3904    1.1578834    31.015963       31.016       31.016    29837.116 
 2610000    295.68125   -3445.0101    -23095.63   -24952.676    1857.0459    1.1578834    31.015963       31.016       31.016    29837.116 
 2611000    294.14195   -2196.5298    -22948.18   -24795.559    1847.3781    1.1578834    31.015963       31.016       31.016    29837.116 
 2612000    292.84411    -2943.019    -22973.67   -24812.897     1839.227    1.1578834    31.015963       31.016       31.016    29837.116 
 2613000    303.61535   -2168.0232   -23039.136   -24946.012    1906.8765    1.1578834    31.015963       31.016       31.016    29837.116 
 2614000    297.94559     -2845.75    -23018.32   -24889.587    1871.2671    1.1578834    31.015963       31.016       31.016    29837.116 
 2615000    302.23512   -2182.9972   -23018.893   -24917.101    1898.2078    1.1578834    31.015963       31.016       31.016    29837.116 
 2616000    293.99686   -3557.2778   -23007.763    -24854.23    1846.4669    1.1578834    31.015963       31.016       31.016    29837.116 
 2617000    304.84906   -3348.7233   -22903.381   -24818.006    1914.6249    1.1578834    31.015963       31.016       31.016    29837.116 
 2618000    297.77557   -2299.0282   -23043.562   -24913.761    1870.1993    1.1578834    31.015963       31.016       31.016    29837.116 
 2619000    292.35154   -2200.1874   -23051.938   -24888.072    1836.1334    1.1578834    31.015963       31.016       31.016    29837.116 
 2620000    296.52798   -2892.9375   -22990.033   -24852.397    1862.3638    1.1578834    31.015963       31.016       31.016    29837.116 
 2621000    289.67043   -2360.1116   -23004.045   -24823.339    1819.2945    1.1578834    31.015963       31.016       31.016    29837.116 
 2622000    297.95811    -2857.092    -22900.12   -24771.466    1871.3458    1.1578834    31.015963       31.016       31.016    29837.116 
 2623000    290.26718   -3226.7015   -23025.507   -24848.549    1823.0424    1.1578834    31.015963       31.016       31.016    29837.116 
 2624000     304.5545   -3074.3941   -22949.369   -24862.144    1912.7749    1.1578834    31.015963       31.016       31.016    29837.116 
 2625000    283.25567    -3619.096   -23119.721   -24898.727    1779.0062    1.1578834    31.015963       31.016       31.016    29837.116 
 2626000    295.23243   -2949.9132   -23025.966   -24880.193     1854.227    1.1578834    31.015963       31.016       31.016    29837.116 
 2627000    289.29437    -2770.687   -23091.576   -24908.509    1816.9326    1.1578834    31.015963       31.016       31.016    29837.116 
 2628000     301.5711    -2359.427   -22955.032   -24849.069    1894.0375    1.1578834    31.015963       31.016       31.016    29837.116 
 2629000    303.81204   -3082.4567   -23021.106   -24929.218    1908.1118    1.1578834    31.015963       31.016       31.016    29837.116 
 2630000    284.44418    -2628.371   -23103.975   -24890.446    1786.4707    1.1578834    31.015963       31.016       31.016    29837.116 
 2631000      297.337   -3413.8312   -23045.378   -24912.822    1867.4449    1.1578834    31.015963       31.016       31.016    29837.116 
 2632000    297.19577   -3351.7645   -23074.323   -24940.881    1866.5579    1.1578834    31.015963       31.016       31.016    29837.116 
 2633000    296.04276   -2928.2214   -22989.754    -24849.07    1859.3163    1.1578834    31.015963       31.016       31.016    29837.116 
 2634000    303.81314   -2273.2912   -22955.422    -24863.54    1908.1187    1.1578834    31.015963       31.016       31.016    29837.116 
 2635000    299.71455   -2214.3773   -22984.444   -24866.821    1882.3773    1.1578834    31.015963       31.016       31.016    29837.116 
 2636000     298.9022   -2845.4229   -22996.449   -24873.724    1877.2752    1.1578834    31.015963       31.016       31.016    29837.116 
 2637000    299.71178   -1756.7104   -23011.279   -24893.639    1882.3599    1.1578834    31.015963       31.016       31.016    29837.116 
 2638000    290.25037   -2622.3431   -23179.018   -25001.955    1822.9368    1.1578834    31.015963       31.016       31.016    29837.116 
 2639000    306.43523   -1805.3286   -22973.134   -24897.721    1924.5869    1.1578834    31.015963       31.016       31.016    29837.116 
 2640000    304.93635   -2308.4779   -22992.133   -24907.306    1915.1731    1.1578834    31.015963       31.016       31.016    29837.116 
 2641000    291.63746   -3157.1823   -22991.008   -24822.656    1831.6485    1.1578834    31.015963       31.016       31.016    29837.116 
 2642000    291.63373   -2585.1849   -23032.252   -24863.877    1831.6251    1.1578834    31.015963       31.016       31.016    29837.116 
 2643000    299.79044   -2747.8216   -22998.877   -24881.731    1882.8539    1.1578834    31.015963       31.016       31.016    29837.116 
 2644000    295.91744   -3030.8233   -23062.331   -24920.861    1858.5292    1.1578834    31.015963       31.016       31.016    29837.116 
 2645000    306.05388   -2972.1723   -22960.611   -24882.802    1922.1918    1.1578834    31.015963       31.016       31.016    29837.116 
 2646000    299.94189   -3417.3916   -23032.884    -24916.69    1883.8051    1.1578834    31.015963       31.016       31.016    29837.116 
 2647000    296.15024   -2035.4925   -23013.944   -24873.935    1859.9914    1.1578834    31.015963       31.016       31.016    29837.116 
 2648000     301.8334   -2334.3285    -22890.59   -24786.275    1895.6848    1.1578834    31.015963       31.016       31.016    29837.116 
 2649000     303.1508   -2489.5647   -22971.788   -24875.747    1903.9588    1.1578834    31.015963       31.016       31.016    29837.116 
 2650000    297.16873   -3356.2226   -23001.054   -24867.442     1866.388    1.1578834    31.015963       31.016       31.016    29837.116 
 2651000    303.12139   -2084.6744   -22908.794   -24812.568    1903.7741    1.1578834    31.015963       31.016       31.016    29837.116 
 2652000     295.8572   -2133.3633   -22969.761   -24827.912    1858.1509    1.1578834    31.015963       31.016       31.016    29837.116 
 2653000     303.1878   -3478.9836   -23056.817   -24961.008    1904.1912    1.1578834    31.015963       31.016       31.016    29837.116 
 2654000    300.34313   -2124.7126   -22998.181   -24884.506    1886.3251    1.1578834    31.015963       31.016       31.016    29837.116 
 2655000    296.97438   -3156.0162   -22953.772    -24818.94    1865.1674    1.1578834    31.015963       31.016       31.016    29837.116 
 2656000    306.97469   -2905.8059   -22927.044   -24855.019    1927.9751    1.1578834    31.015963       31.016       31.016    29837.116 
 2657000    295.23617   -2701.0201   -23053.616   -24907.866    1854.2505    1.1578834    31.015963       31.016       31.016    29837.116 
 2658000    291.23632   -2597.9522   -22999.369   -24828.498    1829.1291    1.1578834    31.015963       31.016       31.016    29837.116 
 2659000    290.45931   -2601.6796   -23002.679   -24826.928    1824.2491    1.1578834    31.015963       31.016       31.016    29837.116 
 2660000    300.68183   -2548.3171   -22868.333   -24756.785    1888.4523    1.1578834    31.015963       31.016       31.016    29837.116 
 2661000    298.82836   -2587.2789   -22996.936   -24873.748    1876.8115    1.1578834    31.015963       31.016       31.016    29837.116 
 2662000    296.82173   -2778.4687   -22986.426   -24850.635    1864.2087    1.1578834    31.015963       31.016       31.016    29837.116 
 2663000    300.72621    -2728.331   -22981.399   -24870.131     1888.731    1.1578834    31.015963       31.016       31.016    29837.116 
 2664000    295.20191   -3359.2029   -23101.439   -24955.474    1854.0353    1.1578834    31.015963       31.016       31.016    29837.116 
 2665000    291.36281   -2698.2268   -23025.479   -24855.403    1829.9236    1.1578834    31.015963       31.016       31.016    29837.116 
 2666000    299.80523   -2987.6335   -22951.188   -24834.134    1882.9468    1.1578834    31.015963       31.016       31.016    29837.116 
 2667000    300.56826   -3137.4635   -22950.084   -24837.823    1887.7391    1.1578834    31.015963       31.016       31.016    29837.116 
 2668000    306.15862   -3310.4536   -22960.026   -24882.876    1922.8497    1.1578834    31.015963       31.016       31.016    29837.116 
 2669000    298.17475    -3168.153   -22926.221   -24798.927    1872.7065    1.1578834    31.015963       31.016       31.016    29837.116 
 2670000    300.86765   -2940.1719   -23041.273   -24930.892    1889.6194    1.1578834    31.015963       31.016       31.016    29837.116 
 2671000    297.86466   -2384.2643   -22971.539   -24842.298    1870.7589    1.1578834    31.015963       31.016       31.016    29837.116 
 2672000     295.8003   -2311.2871   -23067.687    -24925.48    1857.7936    1.1578834    31.015963       31.016       31.016    29837.116 
 2673000    291.09782   -1589.5889   -23101.451    -24929.71    1828.2593    1.1578834    31.015963       31.016       31.016    29837.116 
 2674000    298.94797   -3329.0091    -23086.52   -24964.083    1877.5627    1.1578834    31.015963       31.016       31.016    29837.116 
 2675000    296.99127    -2958.017    -23015.53   -24880.803    1865.2735    1.1578834    31.015963       31.016       31.016    29837.116 
 2676000    295.33182   -2598.7963   -23007.081   -24861.932    1854.8512    1.1578834    31.015963       31.016       31.016    29837.116 
 2677000    302.91496   -2634.7827   -23008.073   -24910.551    1902.4777    1.1578834    31.015963       31.016       31.016    29837.116 
 2678000    289.84131   -3024.6036   -23074.599   -24894.967    1820.3677    1.1578834    31.015963       31.016       31.016    29837.116 
 2679000    301.82922   -3486.8735   -22962.594   -24858.252    1895.6586    1.1578834    31.015963       31.016       31.016    29837.116 
 2680000    303.49283   -3078.7019   -22876.183    -24782.29     1906.107    1.1578834    31.015963       31.016       31.016    29837.116 
 2681000    308.16912   -3608.3274   -22912.988   -24848.464    1935.4767    1.1578834    31.015963       31.016       31.016    29837.116 
 2682000    294.82684   -3077.0349   -23017.779   -24869.458    1851.6796    1.1578834    31.015963       31.016       31.016    29837.116 
 2683000    310.06865   -2975.8326   -22902.661   -24850.068    1947.4068    1.1578834    31.015963       31.016       31.016    29837.116 
 2684000    307.34729   -2675.5293   -22947.231   -24877.546    1930.3152    1.1578834    31.015963       31.016       31.016    29837.116 
 2685000    298.97022   -2373.8159   -22957.052   -24834.754    1877.7024    1.1578834    31.015963       31.016       31.016    29837.116 
 2686000    300.42928   -3369.0979   -22909.822   -24796.688    1886.8662    1.1578834    31.015963       31.016       31.016    29837.116 
 2687000    298.46729   -2229.7579   -22961.879   -24836.423    1874.5437    1.1578834    31.015963       31.016       31.016    29837.116 
 2688000     300.2034   -3133.1621   -22935.401   -24820.849    1885.4475    1.1578834    31.015963       31.016       31.016    29837.116 
 2689000    297.75904   -3629.6996   -22969.698   -24839.793    1870.0955    1.1578834    31.015963       31.016       31.016    29837.116 
 2690000    293.13465   -1937.7575   -22973.103   -24814.154    1841.0518    1.1578834    31.015963       31.016       31.016    29837.116 
 2691000    298.86265   -3123.3591   -22949.101   -24826.128    1877.0268    1.1578834    31.015963       31.016       31.016    29837.116 
 2692000    291.50099   -2397.7266   -23012.204   -24842.996    1830.7914    1.1578834    31.015963       31.016       31.016    29837.116 
 2693000    296.42394   -1981.8018   -22937.734   -24799.445    1861.7104    1.1578834    31.015963       31.016       31.016    29837.116 
 2694000    300.44502   -3120.5797   -23006.493   -24893.458     1886.965    1.1578834    31.015963       31.016       31.016    29837.116 
 2695000    296.40502   -3110.8063   -23038.577   -24900.169    1861.5915    1.1578834    31.015963       31.016       31.016    29837.116 
 2696000     296.5512   -2415.3708   -23011.235   -24873.745    1862.5096    1.1578834    31.015963       31.016       31.016    29837.116 
 2697000    301.02879     -2133.46   -22832.327   -24722.958    1890.6314    1.1578834    31.015963       31.016       31.016    29837.116 
 2698000    295.03097   -3147.3374   -22983.523   -24836.485    1852.9617    1.1578834    31.015963       31.016       31.016    29837.116 
 2699000    303.44179   -2346.0849     -22935.7   -24841.486    1905.7865    1.1578834    31.015963       31.016       31.016    29837.116 
 2700000    299.88994   -3558.8881   -22962.954   -24846.433    1883.4788    1.1578834    31.015963       31.016       31.016    29837.116 
 2701000    301.73144   -3072.6994   -22977.517   -24872.562    1895.0445    1.1578834    31.015963       31.016       31.016    29837.116 
 2702000    297.71678    -2156.262   -23014.322   -24884.152    1869.8301    1.1578834    31.015963       31.016       31.016    29837.116 
 2703000    295.68168   -2692.1529   -23059.683   -24916.732    1857.0486    1.1578834    31.015963       31.016       31.016    29837.116 
 2704000     299.7925   -2375.4272   -22933.722   -24816.589    1882.8668    1.1578834    31.015963       31.016       31.016    29837.116 
 2705000    294.50775   -2623.7033   -23013.259   -24862.935    1849.6756    1.1578834    31.015963       31.016       31.016    29837.116 
 2706000    297.98586   -2903.6646   -22977.755   -24849.275    1871.5201    1.1578834    31.015963       31.016       31.016    29837.116 
 2707000    299.71652   -2909.1037   -23095.754   -24978.143    1882.3896    1.1578834    31.015963       31.016       31.016    29837.116 
 2708000    288.14229   -2641.2799   -23112.178   -24921.874    1809.6969    1.1578834    31.015963       31.016       31.016    29837.116 
 2709000    298.92662   -2532.9867   -23024.986   -24902.414    1877.4286    1.1578834    31.015963       31.016       31.016    29837.116 
 2710000    298.02034   -2295.0755   -23085.344   -24957.081    1871.7366    1.1578834    31.015963       31.016       31.016    29837.116 
 2711000    291.80222   -1406.5699   -23110.489   -24943.173    1832.6833    1.1578834    31.015963       31.016       31.016    29837.116 
 2712000    293.17699    -3424.984   -22999.676   -24840.994    1841.3177    1.1578834    31.015963       31.016       31.016    29837.116 
 2713000     304.4717   -2656.4842   -22957.944   -24870.199    1912.2548    1.1578834    31.015963       31.016       31.016    29837.116 
 2714000      295.921   -2978.8929   -22996.173   -24854.724    1858.5516    1.1578834    31.015963       31.016       31.016    29837.116 
 2715000    292.10417   -2640.1406    -22953.04    -24787.62    1834.5798    1.1578834    31.015963       31.016       31.016    29837.116 
 2716000    298.55184   -2669.9487   -23024.152   -24899.226    1875.0748    1.1578834    31.015963       31.016       31.016    29837.116 
 2717000    309.54988   -3009.0006   -22927.715   -24871.864    1944.1487    1.1578834    31.015963       31.016       31.016    29837.116 
 2718000    295.18816   -3023.2211    -23090.23   -24944.179     1853.949    1.1578834    31.015963       31.016       31.016    29837.116 
 2719000    309.27295   -2573.7463   -23018.428   -24960.838    1942.4094    1.1578834    31.015963       31.016       31.016    29837.116 
 2720000    291.39047   -3183.9456    -23062.53   -24892.628    1830.0973    1.1578834    31.015963       31.016       31.016    29837.116 
 2721000    303.27319   -2992.2261   -22903.426   -24808.154    1904.7275    1.1578834    31.015963       31.016       31.016    29837.116 
 2722000    292.27303   -2491.5487   -23160.115   -24995.755    1835.6403    1.1578834    31.015963       31.016       31.016    29837.116 
 2723000    296.78568   -2373.2779   -22995.509   -24859.491    1863.9823    1.1578834    31.015963       31.016       31.016    29837.116 
 2724000    291.88342   -2775.8379   -23031.784   -24864.978    1833.1933    1.1578834    31.015963       31.016       31.016    29837.116 
 2725000    302.76776   -2459.2329   -23008.308   -24909.861    1901.5531    1.1578834    31.015963       31.016       31.016    29837.116 
 2726000    298.01936   -2356.6178   -22945.794   -24817.524    1871.7305    1.1578834    31.015963       31.016       31.016    29837.116 
 2727000    296.79982   -1771.5395   -23013.337   -24877.408    1864.0711    1.1578834    31.015963       31.016       31.016    29837.116 
 2728000    293.19242   -3145.5887   -22963.419   -24804.833    1841.4146    1.1578834    31.015963       31.016       31.016    29837.116 
 2729000    294.78054   -3275.9452   -22963.433   -24814.821    1851.3889    1.1578834    31.015963       31.016       31.016    29837.116 
 2730000    306.85907   -2473.2967   -22963.686   -24890.935    1927.2489    1.1578834    31.015963       31.016       31.016    29837.116 
 2731000    296.89078   -2949.7997   -22971.896   -24836.539    1864.6424    1.1578834    31.015963       31.016       31.016    29837.116 
 2732000    307.64096    -2413.784   -23026.571   -24958.731    1932.1596    1.1578834    31.015963       31.016       31.016    29837.116 
 2733000     302.9446   -2965.8148   -22966.311   -24868.975    1902.6638    1.1578834    31.015963       31.016       31.016    29837.116 
 2734000     297.1707   -2654.9996    -22908.55    -24774.95    1866.4004    1.1578834    31.015963       31.016       31.016    29837.116 
 2735000    301.46506   -2521.2171   -22973.846   -24867.218    1893.3714    1.1578834    31.015963       31.016       31.016    29837.116 
 2736000    298.62938   -2871.6743   -23015.335   -24890.897    1875.5618    1.1578834    31.015963       31.016       31.016    29837.116 
 2737000    300.35344   -2645.6999   -22970.239   -24856.629    1886.3898    1.1578834    31.015963       31.016       31.016    29837.116 
 2738000    303.48596   -2658.1091   -23031.544   -24937.608    1906.0638    1.1578834    31.015963       31.016       31.016    29837.116 
 2739000    302.83234   -2016.1479   -22942.129   -24844.088    1901.9587    1.1578834    31.015963       31.016       31.016    29837.116 
 2740000    300.75858   -3158.1127   -22934.386    -24823.32    1888.9344    1.1578834    31.015963       31.016       31.016    29837.116 
 2741000     294.9327   -2501.2846   -23062.465   -24914.809    1852.3445    1.1578834    31.015963       31.016       31.016    29837.116 
 2742000    294.72421   -2608.4519   -23054.499   -24905.534    1851.0351    1.1578834    31.015963       31.016       31.016    29837.116 
 2743000    286.63422   -3859.8248   -23101.277   -24901.503    1800.2254    1.1578834    31.015963       31.016       31.016    29837.116 
 2744000    301.21902   -2545.6139   -22973.063   -24864.889    1891.8262    1.1578834    31.015963       31.016       31.016    29837.116 
 2745000    294.72518   -2883.2072   -22991.411   -24842.452    1851.0412    1.1578834    31.015963       31.016       31.016    29837.116 
 2746000    301.21969   -3288.7748   -22990.144   -24881.974    1891.8304    1.1578834    31.015963       31.016       31.016    29837.116 
 2747000    295.71037   -2731.1773   -23050.339   -24907.568    1857.2287    1.1578834    31.015963       31.016       31.016    29837.116 
 2748000    289.63806   -2829.1429    -22952.61   -24771.701    1819.0911    1.1578834    31.015963       31.016       31.016    29837.116 
 2749000    291.24972   -2955.4935   -22954.924   -24784.137    1829.2133    1.1578834    31.015963       31.016       31.016    29837.116 
 2750000    296.52443   -3598.1136   -22999.407   -24861.749    1862.3415    1.1578834    31.015963       31.016       31.016    29837.116 
 2751000    302.17632   -3037.6377   -22927.678   -24825.517    1897.8385    1.1578834    31.015963       31.016       31.016    29837.116 
 2752000    300.50638   -2597.4264   -22951.481   -24838.831    1887.3504    1.1578834    31.015963       31.016       31.016    29837.116 
 2753000    293.94012   -3025.0379   -22976.466   -24822.576    1846.1106    1.1578834    31.015963       31.016       31.016    29837.116 
 2754000    300.51953   -2820.7669   -22979.195   -24866.628     1887.433    1.1578834    31.015963       31.016       31.016    29837.116 
 2755000    300.67335   -2694.7176   -23013.762   -24902.161    1888.3991    1.1578834    31.015963       31.016       31.016    29837.116 
 2756000    297.34508   -3374.2174   -23077.872   -24945.368    1867.4957    1.1578834    31.015963       31.016       31.016    29837.116 
 2757000    295.27878   -3423.8027   -22925.929   -24780.447    1854.5181    1.1578834    31.015963       31.016       31.016    29837.116 
 2758000    301.54101   -2508.3542   -22908.777   -24802.626    1893.8484    1.1578834    31.015963       31.016       31.016    29837.116 
 2759000     307.6056    -1921.155   -22888.624   -24820.562    1931.9375    1.1578834    31.015963       31.016       31.016    29837.116 
 2760000    298.75407   -3652.3698   -22975.768   -24852.113    1876.3449    1.1578834    31.015963       31.016       31.016    29837.116 
 2761000    305.48209   -2492.1557   -22925.348   -24843.949    1918.6007    1.1578834    31.015963       31.016       31.016    29837.116 
 2762000    295.00792   -3129.3491   -22997.074   -24849.891    1852.8169    1.1578834    31.015963       31.016       31.016    29837.116 
 2763000    295.07469    -3168.228   -22984.624    -24837.86    1853.2363    1.1578834    31.015963       31.016       31.016    29837.116 
 2764000    293.50574    -2930.315   -22991.125   -24834.508    1843.3824    1.1578834    31.015963       31.016       31.016    29837.116 
 2765000    300.89746   -1922.4404   -22882.196   -24772.003    1889.8066    1.1578834    31.015963       31.016       31.016    29837.116 
 2766000    295.48767   -2311.5122   -23009.599   -24865.429      1855.83    1.1578834    31.015963       31.016       31.016    29837.116 
 2767000    294.91325   -2445.7452   -22936.043   -24788.266    1852.2223    1.1578834    31.015963       31.016       31.016    29837.116 
 2768000    296.03684   -2445.0518   -23099.559   -24958.838    1859.2791    1.1578834    31.015963       31.016       31.016    29837.116 
 2769000     305.1441   -3281.7587   -22898.091   -24814.569    1916.4779    1.1578834    31.015963       31.016       31.016    29837.116 
 2770000    303.68803   -2554.3463   -22946.265   -24853.598     1907.333    1.1578834    31.015963       31.016       31.016    29837.116 
 2771000     302.0711    -2585.584    -23007.39   -24904.567    1897.1777    1.1578834    31.015963       31.016       31.016    29837.116 
 2772000    302.99878   -2297.2029   -22957.574   -24860.578    1903.0041    1.1578834    31.015963       31.016       31.016    29837.116 
 2773000    287.95406   -2991.6295   -23084.889   -24893.404    1808.5147    1.1578834    31.015963       31.016       31.016    29837.116 
 2774000    302.91645   -3056.4586   -22994.001   -24896.488     1902.487    1.1578834    31.015963       31.016       31.016    29837.116 
 2775000    292.47235   -2398.5975    -23028.12   -24865.012    1836.8922    1.1578834    31.015963       31.016       31.016    29837.116 
 2776000    290.47315   -2454.2773   -22995.893   -24820.229     1824.336    1.1578834    31.015963       31.016       31.016    29837.116 
 2777000    313.28927   -2926.2966   -22899.822   -24867.456    1967.6342    1.1578834    31.015963       31.016       31.016    29837.116 
 2778000    289.25903   -2674.5764   -22954.135   -24770.846    1816.7106    1.1578834    31.015963       31.016       31.016    29837.116 
 2779000    292.44067   -4054.4042   -23010.741   -24847.435    1836.6932    1.1578834    31.015963       31.016       31.016    29837.116 
 2780000    302.12382   -3373.2903   -22964.197   -24861.706    1897.5088    1.1578834    31.015963       31.016       31.016    29837.116 
 2781000    299.47622   -2861.1121   -23015.407   -24896.287    1880.8804    1.1578834    31.015963       31.016       31.016    29837.116 
 2782000    296.86187   -2744.3792   -22899.901   -24764.362    1864.4608    1.1578834    31.015963       31.016       31.016    29837.116 
 2783000    295.28557    -2874.377   -22987.015   -24841.576    1854.5607    1.1578834    31.015963       31.016       31.016    29837.116 
 2784000    297.69625   -2295.0682    -22970.41   -24840.111    1869.7012    1.1578834    31.015963       31.016       31.016    29837.116 
 2785000    290.79571   -3247.8775   -23048.029   -24874.391    1826.3619    1.1578834    31.015963       31.016       31.016    29837.116 
 2786000    294.48531   -1987.1917   -22955.068   -24804.602    1849.5346    1.1578834    31.015963       31.016       31.016    29837.116 
 2787000    301.35567   -3049.2626   -22951.032   -24843.716    1892.6844    1.1578834    31.015963       31.016       31.016    29837.116 
 2788000    301.41946   -1707.7558   -22963.712   -24856.797     1893.085    1.1578834    31.015963       31.016       31.016    29837.116 
 2789000    297.74079   -2901.6252   -22982.728   -24852.709    1869.9809    1.1578834    31.015963       31.016       31.016    29837.116 
 2790000    286.53121   -2804.3719   -23026.202   -24825.781    1799.5784    1.1578834    31.015963       31.016       31.016    29837.116 
 2791000    307.42545   -2368.3704   -22904.944    -24835.75    1930.8061    1.1578834    31.015963       31.016       31.016    29837.116 
 2792000    294.45538   -2529.0921   -23018.532   -24867.878    1849.3467    1.1578834    31.015963       31.016       31.016    29837.116 
 2793000    298.39207   -2473.2471   -22993.546   -24867.618    1874.0713    1.1578834    31.015963       31.016       31.016    29837.116 
 2794000     296.4958   -2613.2056   -23004.769   -24866.931    1862.1616    1.1578834    31.015963       31.016       31.016    29837.116 
 2795000    297.79866   -2120.6138   -22924.732   -24795.077    1870.3444    1.1578834    31.015963       31.016       31.016    29837.116 
 2796000     299.2223   -2697.7168       -22914   -24793.286    1879.2857    1.1578834    31.015963       31.016       31.016    29837.116 
 2797000    293.26562   -3001.9983    -22937.28   -24779.154    1841.8743    1.1578834    31.015963       31.016       31.016    29837.116 
 2798000    294.91895   -2826.3334   -23040.856   -24893.114    1852.2582    1.1578834    31.015963       31.016       31.016    29837.116 
 2799000    307.69482   -2764.4686   -22945.953   -24878.451    1932.4979    1.1578834    31.015963       31.016       31.016    29837.116 
 2800000    294.02436   -2334.0222    -23000.72    -24847.36    1846.6396    1.1578834    31.015963       31.016       31.016    29837.116 
 2801000    298.33979   -3430.3811   -23022.803   -24896.546     1873.743    1.1578834    31.015963       31.016       31.016    29837.116 
 2802000    299.10913   -2686.4998   -22945.478   -24824.053    1878.5749    1.1578834    31.015963       31.016       31.016    29837.116 
 2803000    291.79565   -2698.7667   -23016.571   -24849.213    1832.6421    1.1578834    31.015963       31.016       31.016    29837.116 
 2804000    298.61774   -3045.4423    -22949.16   -24824.649    1875.4887    1.1578834    31.015963       31.016       31.016    29837.116 
 2805000    295.24183   -2878.8061   -23039.274    -24893.56     1854.286    1.1578834    31.015963       31.016       31.016    29837.116 
 2806000    298.30959   -2234.9931   -23045.057    -24918.61    1873.5533    1.1578834    31.015963       31.016       31.016    29837.116 
 2807000    297.16688   -2692.4589   -23016.344   -24882.721    1866.3764    1.1578834    31.015963       31.016       31.016    29837.116 
 2808000    292.94624   -3123.0991   -23049.201   -24889.069    1839.8684    1.1578834    31.015963       31.016       31.016    29837.116 
 2809000    309.83409    -2959.843   -22884.011   -24829.944    1945.9337    1.1578834    31.015963       31.016       31.016    29837.116 
 2810000    299.61104   -2302.6272    -22995.79   -24877.518    1881.7271    1.1578834    31.015963       31.016       31.016    29837.116 
 2811000     286.0404   -2649.9971   -23062.965   -24859.461    1796.4959    1.1578834    31.015963       31.016       31.016    29837.116 
 2812000    294.03194   -2395.9328   -23066.555   -24913.242    1846.6872    1.1578834    31.015963       31.016       31.016    29837.116 
 2813000    298.23645   -2684.8673   -23017.593   -24890.687     1873.094    1.1578834    31.015963       31.016       31.016    29837.116 
 2814000    292.23457   -2644.6981   -23068.843   -24904.242    1835.3987    1.1578834    31.015963       31.016       31.016    29837.116 
 2815000     296.6628   -1919.9223   -23006.604   -24869.815    1863.2105    1.1578834    31.015963       31.016       31.016    29837.116 
 2816000    293.21277   -2630.7565   -23078.333   -24919.876    1841.5424    1.1578834    31.015963       31.016       31.016    29837.116 
 2817000    297.91082   -2473.6242   -22913.934   -24784.983    1871.0488    1.1578834    31.015963       31.016       31.016    29837.116 
 2818000    293.79325   -2595.6082   -22924.051   -24769.239    1845.1881    1.1578834    31.015963       31.016       31.016    29837.116 
 2819000    284.71577   -1860.4058   -23080.481   -24868.658    1788.1764    1.1578834    31.015963       31.016       31.016    29837.116 
 2820000    296.92033   -2407.7707   -23023.074   -24887.902     1864.828    1.1578834    31.015963       31.016       31.016    29837.116 
 2821000    298.48926   -3425.3695   -22927.175   -24801.857    1874.6817    1.1578834    31.015963       31.016       31.016    29837.116 
 2822000    298.18829   -3029.3622   -22911.846   -24784.638    1872.7915    1.1578834    31.015963       31.016       31.016    29837.116 
 2823000    295.27918   -2577.6707   -23035.096   -24889.617    1854.5206    1.1578834    31.015963       31.016       31.016    29837.116 
 2824000    288.46816    -3967.037   -23076.137   -24887.881    1811.7435    1.1578834    31.015963       31.016       31.016    29837.116 
 2825000    296.81881    -2728.565   -22943.643   -24807.834    1864.1904    1.1578834    31.015963       31.016       31.016    29837.116 
 2826000    293.26406   -3212.5512   -23031.768   -24873.632    1841.8645    1.1578834    31.015963       31.016       31.016    29837.116 
 2827000    305.71579   -2295.8297   -22852.166   -24772.235    1920.0684    1.1578834    31.015963       31.016       31.016    29837.116 
 2828000    295.18759     -2836.44   -22938.974   -24792.919    1853.9454    1.1578834    31.015963       31.016       31.016    29837.116 
 2829000    307.69347   -2703.7293   -22943.714   -24876.203    1932.4894    1.1578834    31.015963       31.016       31.016    29837.116 
 2830000     298.3613   -2576.6933   -22931.513   -24805.391    1873.8781    1.1578834    31.015963       31.016       31.016    29837.116 
 2831000    289.42578   -2452.7838   -23006.549   -24824.307    1817.7579    1.1578834    31.015963       31.016       31.016    29837.116 
 2832000    292.52304   -2732.6542   -23053.417   -24890.628    1837.2105    1.1578834    31.015963       31.016       31.016    29837.116 
 2833000    301.99779   -2826.2802   -22896.041   -24792.758    1896.7173    1.1578834    31.015963       31.016       31.016    29837.116 
 2834000    300.45429   -2125.9355   -22992.026    -24879.05    1887.0232    1.1578834    31.015963       31.016       31.016    29837.116 
 2835000    306.91398   -2622.2123   -22863.574   -24791.168    1927.5937    1.1578834    31.015963       31.016       31.016    29837.116 
 2836000    299.34239   -2942.3142   -22978.476   -24858.515    1880.0398    1.1578834    31.015963       31.016       31.016    29837.116 
 2837000    302.57358    -2273.932   -22911.865   -24812.198    1900.3336    1.1578834    31.015963       31.016       31.016    29837.116 
 2838000    292.69696   -3253.1921   -22958.975   -24797.278    1838.3028    1.1578834    31.015963       31.016       31.016    29837.116 
 2839000    298.31928   -3370.4061   -22956.993   -24830.608    1873.6142    1.1578834    31.015963       31.016       31.016    29837.116 
 2840000    293.82941   -2352.5698   -22955.158   -24800.573    1845.4152    1.1578834    31.015963       31.016       31.016    29837.116 
 2841000    293.77522    -2716.532   -22983.782   -24828.857    1845.0749    1.1578834    31.015963       31.016       31.016    29837.116 
 2842000    305.95616   -3285.1018   -22930.956   -24852.534    1921.5781    1.1578834    31.015963       31.016       31.016    29837.116 
 2843000    300.15327    -3027.732   -22981.863   -24866.996    1885.1327    1.1578834    31.015963       31.016       31.016    29837.116 
 2844000    303.11513   -2741.2154   -23005.836    -24909.57    1903.7348    1.1578834    31.015963       31.016       31.016    29837.116 
 2845000    299.32713   -3361.5399   -22906.746    -24786.69     1879.944    1.1578834    31.015963       31.016       31.016    29837.116 
 2846000    301.46082   -2639.2255   -22977.647   -24870.992    1893.3448    1.1578834    31.015963       31.016       31.016    29837.116 
 2847000     301.2851   -2039.3062   -22974.155   -24866.396    1892.2412    1.1578834    31.015963       31.016       31.016    29837.116 
 2848000    307.25862   -2723.5042   -22986.868   -24916.627    1929.7583    1.1578834    31.015963       31.016       31.016    29837.116 
 2849000     302.9901   -3285.6574    -22912.57    -24815.52    1902.9495    1.1578834    31.015963       31.016       31.016    29837.116 
 2850000    303.99121   -3143.9611   -22954.092   -24863.329    1909.2371    1.1578834    31.015963       31.016       31.016    29837.116 
 2851000    298.66599   -2863.9092   -22952.311   -24828.102    1875.7917    1.1578834    31.015963       31.016       31.016    29837.116 
 2852000    307.03332   -2805.5349   -22888.723   -24817.066    1928.3433    1.1578834    31.015963       31.016       31.016    29837.116 
 2853000    306.39877   -2865.0361   -22946.388   -24870.746    1924.3579    1.1578834    31.015963       31.016       31.016    29837.116 
 2854000    294.87756   -2369.2294   -22961.196   -24813.195    1851.9982    1.1578834    31.015963       31.016       31.016    29837.116 
 2855000    293.29505   -1222.2645   -23067.558   -24909.617    1842.0591    1.1578834    31.015963       31.016       31.016    29837.116 
 2856000    303.13576    -3589.574   -22984.148   -24888.012    1903.8644    1.1578834    31.015963       31.016       31.016    29837.116 
 2857000    300.87336   -3622.4026   -22997.748   -24887.404    1889.6552    1.1578834    31.015963       31.016       31.016    29837.116 
 2858000     304.4293   -2606.6243   -23035.165   -24947.153    1911.9886    1.1578834    31.015963       31.016       31.016    29837.116 
 2859000    301.68717   -2672.1024   -23086.739   -24981.505    1894.7664    1.1578834    31.015963       31.016       31.016    29837.116 
 2860000    298.96164   -1494.3356   -22978.593   -24856.242    1877.6485    1.1578834    31.015963       31.016       31.016    29837.116 
 2861000     290.6161   -2705.4205   -23011.509   -24836.742    1825.2338    1.1578834    31.015963       31.016       31.016    29837.116 
 2862000     295.1702   -2497.8069   -23064.831   -24918.667    1853.8362    1.1578834    31.015963       31.016       31.016    29837.116 
 2863000    295.35055   -2399.9356   -22988.735   -24843.704    1854.9689    1.1578834    31.015963       31.016       31.016    29837.116 
 2864000    284.25924   -3205.4687   -23181.308   -24966.618    1785.3091    1.1578834    31.015963       31.016       31.016    29837.116 
 2865000    296.50408   -2615.5483   -22999.708   -24861.922    1862.2136    1.1578834    31.015963       31.016       31.016    29837.116 
 2866000    290.64051   -2304.2276    -23028.49   -24853.878    1825.3871    1.1578834    31.015963       31.016       31.016    29837.116 
 2867000    303.45553   -3231.4039   -23004.016   -24909.889    1905.8727    1.1578834    31.015963       31.016       31.016    29837.116 
 2868000    299.90283   -4077.4822   -22968.308   -24851.868    1883.5597    1.1578834    31.015963       31.016       31.016    29837.116 
 2869000    300.36621   -2903.9202   -23031.497   -24917.968      1886.47    1.1578834    31.015963       31.016       31.016    29837.116 
 2870000    300.97152   -2105.9631   -23005.939   -24896.211    1890.2717    1.1578834    31.015963       31.016       31.016    29837.116 
 2871000    302.22838   -2325.2992   -22999.061   -24897.226    1898.1655    1.1578834    31.015963       31.016       31.016    29837.116 
 2872000    287.46821   -2756.2903   -23070.196   -24875.659    1805.4633    1.1578834    31.015963       31.016       31.016    29837.116 
 2873000    296.53297   -2027.9277   -22954.834   -24817.229    1862.3951    1.1578834    31.015963       31.016       31.016    29837.116 
 2874000    291.56498   -2909.7566   -23050.045   -24881.238    1831.1933    1.1578834    31.015963       31.016       31.016    29837.116 
 2875000    293.13188   -2301.3235   -22967.197   -24808.231    1841.0343    1.1578834    31.015963       31.016       31.016    29837.116 
 2876000    294.28727   -2720.8225   -22935.573   -24783.863    1848.2908    1.1578834    31.015963       31.016       31.016    29837.116 
 2877000    298.66712   -2392.7995   -23002.135   -24877.934    1875.7988    1.1578834    31.015963       31.016       31.016    29837.116 
 2878000    289.36932   -2158.9637   -23121.232   -24938.636    1817.4034    1.1578834    31.015963       31.016       31.016    29837.116 
 2879000    300.72859   -2134.4208    -23019.91   -24908.656     1888.746    1.1578834    31.015963       31.016       31.016    29837.116 
 2880000    295.98651   -2888.5549   -23081.041   -24940.004     1858.963    1.1578834    31.015963       31.016       31.016    29837.116 
 2881000    297.65595   -2767.4622   -23040.543   -24909.991     1869.448    1.1578834    31.015963       31.016       31.016    29837.116 
 2882000    302.29563   -2827.9952   -22950.224   -24848.812    1898.5879    1.1578834    31.015963       31.016       31.016    29837.116 
 2883000    302.40874   -2746.1743   -22982.152    -24881.45    1899.2983    1.1578834    31.015963       31.016       31.016    29837.116 
 2884000    291.19653   -2539.7891   -23010.601    -24839.48    1828.8793    1.1578834    31.015963       31.016       31.016    29837.116 
 2885000    302.16337   -2726.3523    -23037.12   -24934.878    1897.7572    1.1578834    31.015963       31.016       31.016    29837.116 
 2886000    299.40299   -2572.8531   -22999.348   -24879.769    1880.4205    1.1578834    31.015963       31.016       31.016    29837.116 
 2887000    300.19377   -3299.1484    -22935.91   -24821.297     1885.387    1.1578834    31.015963       31.016       31.016    29837.116 
 2888000    307.86507   -2964.0512   -22950.094   -24883.662    1933.5672    1.1578834    31.015963       31.016       31.016    29837.116 
 2889000    300.48681   -1499.5333   -22985.183   -24872.411    1887.2275    1.1578834    31.015963       31.016       31.016    29837.116 
 2890000    296.94725    -3356.221   -22995.928   -24860.925     1864.997    1.1578834    31.015963       31.016       31.016    29837.116 
 2891000    302.14072   -2751.9734    -22953.52   -24851.135    1897.6149    1.1578834    31.015963       31.016       31.016    29837.116 
 2892000    288.69766   -2801.9515   -23046.724   -24859.909     1813.185    1.1578834    31.015963       31.016       31.016    29837.116 
 2893000    293.17016   -2953.2131   -23030.304   -24871.579    1841.2748    1.1578834    31.015963       31.016       31.016    29837.116 
 2894000    298.61048   -2619.0297   -22943.988   -24819.431     1875.443    1.1578834    31.015963       31.016       31.016    29837.116 
 2895000    294.58341   -2181.7656   -23035.087   -24885.237    1850.1508    1.1578834    31.015963       31.016       31.016    29837.116 
 2896000    292.62961   -1970.7963   -23019.901    -24857.78    1837.8798    1.1578834    31.015963       31.016       31.016    29837.116 
 2897000    298.39391   -3098.6438   -23019.342   -24893.425    1874.0829    1.1578834    31.015963       31.016       31.016    29837.116 
 2898000    309.02652   -2306.8212   -22911.298    -24852.16    1940.8617    1.1578834    31.015963       31.016       31.016    29837.116 
 2899000    296.99403   -2692.5721   -23006.676   -24871.966    1865.2909    1.1578834    31.015963       31.016       31.016    29837.116 
 2900000    304.96265   -2150.3058   -22970.128   -24885.466    1915.3383    1.1578834    31.015963       31.016       31.016    29837.116 
 2901000    295.39399   -2975.6999   -23051.094   -24906.336    1855.2417    1.1578834    31.015963       31.016       31.016    29837.116 
 2902000    303.36044    -2131.271   -22959.924   -24865.199    1905.2755    1.1578834    31.015963       31.016       31.016    29837.116 
 2903000    295.41538   -2007.2549   -22953.255   -24808.631     1855.376    1.1578834    31.015963       31.016       31.016    29837.116 
 2904000    299.33598   -1959.5996   -23010.734   -24890.733    1879.9996    1.1578834    31.015963       31.016       31.016    29837.116 
 2905000    298.35117   -2818.8909   -22871.421   -24745.236    1873.8144    1.1578834    31.015963       31.016       31.016    29837.116 
 2906000    304.96992   -1861.4966    -22947.54   -24862.924     1915.384    1.1578834    31.015963       31.016       31.016    29837.116 
 2907000    306.79105   -3992.5849   -22878.134   -24804.955    1926.8216    1.1578834    31.015963       31.016       31.016    29837.116 
 2908000    297.88427   -2218.9628   -23044.214   -24915.096    1870.8821    1.1578834    31.015963       31.016       31.016    29837.116 
 2909000    289.36856   -2968.3704   -23076.951   -24894.349    1817.3986    1.1578834    31.015963       31.016       31.016    29837.116 
 2910000    296.79279   -2925.9587   -23029.092   -24893.119    1864.0269    1.1578834    31.015963       31.016       31.016    29837.116 
 2911000     298.1773    -2373.608   -22930.521   -24803.244    1872.7224    1.1578834    31.015963       31.016       31.016    29837.116 
 2912000    297.96561   -2668.2065   -22952.368   -24823.761    1871.3929    1.1578834    31.015963       31.016       31.016    29837.116 
 2913000    295.20042    -3079.458   -22947.627   -24801.653    1854.0259    1.1578834    31.015963       31.016       31.016    29837.116 
 2914000    289.77393   -3183.6516   -23072.674   -24892.619    1819.9445    1.1578834    31.015963       31.016       31.016    29837.116 
 2915000    297.86826   -2691.2728   -23019.224   -24890.006    1870.7815    1.1578834    31.015963       31.016       31.016    29837.116 
 2916000    303.87821   -2454.0486    -22893.63   -24802.158    1908.5274    1.1578834    31.015963       31.016       31.016    29837.116 
 2917000    291.12618   -2680.4748   -22971.255   -24799.692    1828.4374    1.1578834    31.015963       31.016       31.016    29837.116 
 2918000    284.49863    -2404.456   -23055.919   -24842.732    1786.8127    1.1578834    31.015963       31.016       31.016    29837.116 
 2919000    299.23463    -1850.315   -22957.808   -24837.171    1879.3631    1.1578834    31.015963       31.016       31.016    29837.116 
 2920000    298.69485   -2904.5619   -23005.482   -24881.455    1875.9729    1.1578834    31.015963       31.016       31.016    29837.116 
 2921000    296.98072   -2924.9651    -22983.54   -24848.747    1865.2072    1.1578834    31.015963       31.016       31.016    29837.116 
 2922000    297.63041   -2764.6705   -23020.255   -24889.543    1869.2877    1.1578834    31.015963       31.016       31.016    29837.116 
 2923000    305.59488   -3568.3665   -22912.529   -24831.838     1919.309    1.1578834    31.015963       31.016       31.016    29837.116 
 2924000    292.02239   -3220.8408   -23005.735   -24839.801    1834.0661    1.1578834    31.015963       31.016       31.016    29837.116 
 2925000    292.13775    -3657.278   -23083.688   -24918.479    1834.7906    1.1578834    31.015963       31.016       31.016    29837.116 
 2926000    302.33539    -3061.686   -22997.263     -24896.1    1898.8376    1.1578834    31.015963       31.016       31.016    29837.116 
 2927000    302.20056   -3670.5242   -22990.308   -24888.298    1897.9908    1.1578834    31.015963       31.016       31.016    29837.116 
 2928000    301.40565   -3084.9306   -23023.067   -24916.066    1892.9983    1.1578834    31.015963       31.016       31.016    29837.116 
 2929000    296.25311   -2880.4067   -23084.073   -24944.711    1860.6374    1.1578834    31.015963       31.016       31.016    29837.116 
 2930000    306.20917   -2289.2146   -22957.668   -24880.835    1923.1671    1.1578834    31.015963       31.016       31.016    29837.116 
 2931000     299.7084    -1776.354   -23037.899   -24920.238    1882.3386    1.1578834    31.015963       31.016       31.016    29837.116 
 2932000    297.75104   -2717.7686   -23030.995   -24901.041    1870.0453    1.1578834    31.015963       31.016       31.016    29837.116 
 2933000     300.2843    -2764.523   -22993.989   -24879.945    1885.9556    1.1578834    31.015963       31.016       31.016    29837.116 
 2934000    303.01337   -2112.9116   -22911.012   -24814.107    1903.0957    1.1578834    31.015963       31.016       31.016    29837.116 
 2935000     297.5571   -1724.1817   -22941.023    -24809.85    1868.8272    1.1578834    31.015963       31.016       31.016    29837.116 
 2936000    305.63472   -3910.1204   -22998.934   -24918.493    1919.5593    1.1578834    31.015963       31.016       31.016    29837.116 
 2937000    298.39005    -2129.198   -22960.726   -24834.785    1874.0587    1.1578834    31.015963       31.016       31.016    29837.116 
 2938000    300.44849   -2921.1265   -22995.173   -24882.159    1886.9868    1.1578834    31.015963       31.016       31.016    29837.116 
 2939000    299.29542   -3100.2173   -23026.507   -24906.252    1879.7449    1.1578834    31.015963       31.016       31.016    29837.116 
 2940000    306.01214   -2392.0456   -22890.801    -24812.73    1921.9297    1.1578834    31.015963       31.016       31.016    29837.116 
 2941000    300.57683   -2504.8904   -22975.141   -24862.934    1887.7928    1.1578834    31.015963       31.016       31.016    29837.116 
 2942000    296.92931   -3084.1996   -23026.143   -24891.027    1864.8843    1.1578834    31.015963       31.016       31.016    29837.116 
 2943000    300.76412   -2806.7453   -22896.274   -24785.244    1888.9691    1.1578834    31.015963       31.016       31.016    29837.116 
 2944000    293.14492   -2089.1508   -23014.844   -24855.961    1841.1162    1.1578834    31.015963       31.016       31.016    29837.116 
 2945000    299.80127   -2597.6226   -23018.663   -24901.585    1882.9219    1.1578834    31.015963       31.016       31.016    29837.116 
 2946000    289.65135   -3049.0703   -23077.132   -24896.307    1819.1746    1.1578834    31.015963       31.016       31.016    29837.116 
 2947000    299.17529    -2497.771   -22927.737   -24806.727    1878.9904    1.1578834    31.015963       31.016       31.016    29837.116 
 2948000     297.1151   -3409.3711   -22982.017   -24848.069    1866.0513    1.1578834    31.015963       31.016       31.016    29837.116 
 2949000    294.31271   -2778.2789   -22950.196   -24798.647    1848.4506    1.1578834    31.015963       31.016       31.016    29837.116 
 2950000      292.689   -4246.7836   -22941.458   -24779.711    1838.2528    1.1578834    31.015963       31.016       31.016    29837.116 
 2951000    304.37978   -1784.8796    -22920.25   -24831.927    1911.6775    1.1578834    31.015963       31.016       31.016    29837.116 
 2952000    304.49285   -3061.2779   -22959.177   -24871.565    1912.3877    1.1578834    31.015963       31.016       31.016    29837.116 
 2953000    299.22095   -1825.9553   -22987.843    -24867.12    1879.2772    1.1578834    31.015963       31.016       31.016    29837.116 
 2954000    298.13423   -2163.2049   -22970.449   -24842.901    1872.4519    1.1578834    31.015963       31.016       31.016    29837.116 
 2955000     293.2226   -2782.3854   -23034.931   -24876.535    1841.6041    1.1578834    31.015963       31.016       31.016    29837.116 
 2956000    298.95548   -2830.0146   -22982.415   -24860.025    1877.6099    1.1578834    31.015963       31.016       31.016    29837.116 
 2957000    295.29809   -2793.6757   -23023.853   -24878.492    1854.6393    1.1578834    31.015963       31.016       31.016    29837.116 
 2958000    302.38059     -2150.95    -22966.78   -24865.902    1899.1215    1.1578834    31.015963       31.016       31.016    29837.116 
 2959000    296.80662   -2626.6413   -23004.967   -24869.081    1864.1138    1.1578834    31.015963       31.016       31.016    29837.116 
 2960000    298.36054   -1746.8665   -22974.603   -24848.477    1873.8733    1.1578834    31.015963       31.016       31.016    29837.116 
 2961000     298.5211   -2633.5575   -22984.631   -24859.513    1874.8817    1.1578834    31.015963       31.016       31.016    29837.116 
 2962000    306.24327   -2945.2076   -22945.313   -24868.694    1923.3813    1.1578834    31.015963       31.016       31.016    29837.116 
 2963000    303.80555    -1396.088   -22979.845   -24887.916    1908.0711    1.1578834    31.015963       31.016       31.016    29837.116 
 2964000     297.5181   -1673.0561   -23009.975   -24878.557    1868.5823    1.1578834    31.015963       31.016       31.016    29837.116 
 2965000    289.75507    -2546.792   -23072.759   -24892.585     1819.826    1.1578834    31.015963       31.016       31.016    29837.116 
 2966000    298.85201    -2575.835   -22901.298   -24778.258      1876.96    1.1578834    31.015963       31.016       31.016    29837.116 
 2967000    299.76208   -3171.9503   -23020.054    -24902.73    1882.6758    1.1578834    31.015963       31.016       31.016    29837.116 
 2968000    297.91791   -2835.0936   -23018.353   -24889.447    1871.0933    1.1578834    31.015963       31.016       31.016    29837.116 
 2969000    300.68817   -2969.5835   -22959.807     -24848.3    1888.4921    1.1578834    31.015963       31.016       31.016    29837.116 
 2970000    289.65407   -2947.5354   -23088.772   -24907.964    1819.1917    1.1578834    31.015963       31.016       31.016    29837.116 
 2971000     295.0661   -2268.8879   -22945.036   -24798.219    1853.1824    1.1578834    31.015963       31.016       31.016    29837.116 
 2972000    299.70697   -3665.6622   -23023.256   -24905.585    1882.3296    1.1578834    31.015963       31.016       31.016    29837.116 
 2973000    303.00371   -3049.2482   -22955.493   -24858.528     1903.035    1.1578834    31.015963       31.016       31.016    29837.116 
 2974000    294.76981   -2152.6816   -23046.647   -24897.968    1851.3215    1.1578834    31.015963       31.016       31.016    29837.116 
 2975000    303.71224     -3104.47   -23036.088   -24943.573     1907.485    1.1578834    31.015963       31.016       31.016    29837.116 
 2976000    297.39148    -2399.608   -22972.631   -24840.418    1867.7871    1.1578834    31.015963       31.016       31.016    29837.116 
 2977000    293.62159   -3053.8382   -23052.691   -24896.801      1844.11    1.1578834    31.015963       31.016       31.016    29837.116 
 2978000    301.25589   -3022.8638   -22972.734   -24864.792    1892.0577    1.1578834    31.015963       31.016       31.016    29837.116 
 2979000    290.83915    -1589.108   -23013.753   -24840.387    1826.6347    1.1578834    31.015963       31.016       31.016    29837.116 
 2980000    298.24515   -2963.5641   -23009.458   -24882.606    1873.1486    1.1578834    31.015963       31.016       31.016    29837.116 
 2981000    302.69037   -3320.5847   -22961.746   -24862.813    1901.0671    1.1578834    31.015963       31.016       31.016    29837.116 
 2982000    293.22082   -2119.2496   -23004.163   -24845.756    1841.5929    1.1578834    31.015963       31.016       31.016    29837.116 
 2983000    297.39788   -2430.0605   -22975.385   -24843.212    1867.8272    1.1578834    31.015963       31.016       31.016    29837.116 
 2984000    287.16623   -2897.3934   -23055.261   -24858.827    1803.5667    1.1578834    31.015963       31.016       31.016    29837.116 
 2985000    303.16746   -3039.8008   -22956.206   -24860.269    1904.0635    1.1578834    31.015963       31.016       31.016    29837.116 
 2986000    298.06442     -3068.53    -23010.36   -24882.373    1872.0135    1.1578834    31.015963       31.016       31.016    29837.116 
 2987000    301.10114   -2542.0662    -22966.84   -24857.926    1891.0858    1.1578834    31.015963       31.016       31.016    29837.116 
 2988000    305.10759   -2792.6799   -23088.361   -25004.609    1916.2486    1.1578834    31.015963       31.016       31.016    29837.116 
 2989000    303.38747   -2727.8695   -22988.248   -24893.693    1905.4453    1.1578834    31.015963       31.016       31.016    29837.116 
 2990000    297.24367   -2393.7951   -23067.148   -24934.007    1866.8587    1.1578834    31.015963       31.016       31.016    29837.116 
 2991000    309.31089   -3260.2538   -23016.498   -24959.145    1942.6477    1.1578834    31.015963       31.016       31.016    29837.116 
 2992000    297.99087   -2668.4219   -22964.342   -24835.893    1871.5515    1.1578834    31.015963       31.016       31.016    29837.116 
 2993000    302.01858   -2372.0501    -22912.03   -24808.878    1896.8479    1.1578834    31.015963       31.016       31.016    29837.116 
 2994000    305.84076   -2959.0942   -22915.761   -24836.614    1920.8533    1.1578834    31.015963       31.016       31.016    29837.116 
 2995000    309.08483   -2689.7248   -22907.297   -24848.524    1941.2279    1.1578834    31.015963       31.016       31.016    29837.116 
 2996000    289.70687   -2787.5556   -23032.552   -24852.075    1819.5233    1.1578834    31.015963       31.016       31.016    29837.116 
 2997000    297.14127   -2684.2091   -22943.594   -24809.809    1866.2156    1.1578834    31.015963       31.016       31.016    29837.116 
 2998000    290.27464   -3013.9489   -23027.756   -24850.845    1823.0893    1.1578834    31.015963       31.016       31.016    29837.116 
 2999000     300.0273    -3184.618   -22969.684   -24854.025    1884.3415    1.1578834    31.015963       31.016       31.016    29837.116 
 3000000    294.71087   -2641.8509   -22972.915   -24823.866    1850.9513    1.1578834    31.015963       31.016       31.016    29837.116 
 3001000    300.17797   -2876.5244   -22842.074   -24727.362    1885.2878    1.1578834    31.015963       31.016       31.016    29837.116 
 3002000    289.51254    -2437.619   -23043.028   -24861.331    1818.3028    1.1578834    31.015963       31.016       31.016    29837.116 
 3003000     295.5916   -2566.6287   -22977.226   -24833.709    1856.4828    1.1578834    31.015963       31.016       31.016    29837.116 
 3004000    295.11864   -2560.2724   -22985.887   -24839.399    1853.5123    1.1578834    31.015963       31.016       31.016    29837.116 
 3005000    293.71825   -2438.5407   -22989.585   -24834.302    1844.7171    1.1578834    31.015963       31.016       31.016    29837.116 
 3006000    291.14109   -3278.1304   -23036.117   -24864.648    1828.5311    1.1578834    31.015963       31.016       31.016    29837.116 
 3007000    299.13351   -2670.9748   -22963.873   -24842.601     1878.728    1.1578834    31.015963       31.016       31.016    29837.116 
 3008000    293.29712   -2539.5062   -23013.555   -24855.627    1842.0722    1.1578834    31.015963       31.016       31.016    29837.116 
 3009000    292.65302   -2210.3737   -22987.794    -24825.82    1838.0268    1.1578834    31.015963       31.016       31.016    29837.116 
 3010000    312.17056     -3961.39   -22928.297   -24888.905     1960.608    1.1578834    31.015963       31.016       31.016    29837.116 
 3011000    294.68563   -2885.2321   -22921.988   -24772.781    1850.7928    1.1578834    31.015963       31.016       31.016    29837.116 
 3012000    299.86846   -3241.5031   -23028.744   -24912.088    1883.3439    1.1578834    31.015963       31.016       31.016    29837.116 
 3013000    302.28147   -1880.9663   -22978.449   -24876.948    1898.4989    1.1578834    31.015963       31.016       31.016    29837.116 
 3014000    297.98636   -2841.1444   -22995.605   -24867.128    1871.5232    1.1578834    31.015963       31.016       31.016    29837.116 
 3015000    292.85041   -2671.0817   -23064.259   -24903.526    1839.2665    1.1578834    31.015963       31.016       31.016    29837.116 
 3016000    299.92847   -1961.2877   -23000.347   -24884.068    1883.7208    1.1578834    31.015963       31.016       31.016    29837.116 
 3017000    290.70599   -2607.8945   -22988.456   -24814.254    1825.7984    1.1578834    31.015963       31.016       31.016    29837.116 
 3018000    298.01789   -2563.6138   -23072.085   -24943.806    1871.7213    1.1578834    31.015963       31.016       31.016    29837.116 
 3019000     295.7472   -3073.1643   -23091.013   -24948.473    1857.4601    1.1578834    31.015963       31.016       31.016    29837.116 
 3020000    297.13268   -2277.6466   -22994.726   -24860.888    1866.1616    1.1578834    31.015963       31.016       31.016    29837.116 
 3021000    293.05666   -2609.6877   -23104.636   -24945.197    1840.5619    1.1578834    31.015963       31.016       31.016    29837.116 
 3022000    290.19175   -2196.7565   -23041.075   -24863.644    1822.5687    1.1578834    31.015963       31.016       31.016    29837.116 
 3023000    297.00577   -2012.6998   -23050.612   -24915.977    1865.3646    1.1578834    31.015963       31.016       31.016    29837.116 
 3024000    296.82748   -2345.2435   -23060.245    -24924.49    1864.2448    1.1578834    31.015963       31.016       31.016    29837.116 
 3025000     300.6467   -2402.5094   -22920.057   -24808.289    1888.2317    1.1578834    31.015963       31.016       31.016    29837.116 
 3026000    300.65496    -2983.905   -22902.318   -24790.602    1888.2835    1.1578834    31.015963       31.016       31.016    29837.116 
 3027000    294.62728   -2411.2211   -22914.084    -24764.51    1850.4263    1.1578834    31.015963       31.016       31.016    29837.116 
 3028000    305.57056   -2860.6001   -23013.279   -24932.436    1919.1563    1.1578834    31.015963       31.016       31.016    29837.116 
 3029000    299.12267    -2787.594   -23014.071   -24892.731    1878.6599    1.1578834    31.015963       31.016       31.016    29837.116 
 3030000    292.20477   -3027.5368   -22978.701   -24813.913    1835.2116    1.1578834    31.015963       31.016       31.016    29837.116 
 3031000    308.73132   -3223.5854   -22917.292     -24856.3    1939.0077    1.1578834    31.015963       31.016       31.016    29837.116 
 3032000    301.63994   -1985.3666   -22999.685   -24894.155    1894.4698    1.1578834    31.015963       31.016       31.016    29837.116 
 3033000     299.5154   -2350.8386    -22974.11   -24855.237    1881.1265    1.1578834    31.015963       31.016       31.016    29837.116 
 3034000    302.67347   -2770.6317    -22959.75   -24860.711    1900.9609    1.1578834    31.015963       31.016       31.016    29837.116 
 3035000      297.097    -1852.392   -22946.228   -24812.166    1865.9376    1.1578834    31.015963       31.016       31.016    29837.116 
 3036000    290.38528    -3383.976   -22977.033   -24800.817    1823.7841    1.1578834    31.015963       31.016       31.016    29837.116 
 3037000    299.73901   -3108.6961   -22874.855   -24757.386    1882.5309    1.1578834    31.015963       31.016       31.016    29837.116 
 3038000    292.28124   -2580.1458   -23008.911   -24844.603    1835.6918    1.1578834    31.015963       31.016       31.016    29837.116 
 3039000    297.21957   -2695.8495   -22955.645   -24822.352    1866.7074    1.1578834    31.015963       31.016       31.016    29837.116 
 3040000    301.20238   -3147.3073   -22976.014   -24867.736    1891.7216    1.1578834    31.015963       31.016       31.016    29837.116 
 3041000    297.78429   -3993.0521   -22933.707   -24803.961    1870.2541    1.1578834    31.015963       31.016       31.016    29837.116 
 3042000    296.34479   -3170.3223   -23025.432   -24886.645    1861.2132    1.1578834    31.015963       31.016       31.016    29837.116 
 3043000    298.77055   -2395.2005   -23032.125   -24908.573    1876.4484    1.1578834    31.015963       31.016       31.016    29837.116 
 3044000    300.65693   -2467.6995   -22896.166   -24784.462    1888.2959    1.1578834    31.015963       31.016       31.016    29837.116 
 3045000    296.85727   -2411.8202   -23027.926   -24892.358    1864.4319    1.1578834    31.015963       31.016       31.016    29837.116 
 3046000    303.43643    -1867.564   -22873.249   -24779.002    1905.7528    1.1578834    31.015963       31.016       31.016    29837.116 
 3047000    300.92108   -2483.7011   -22954.417   -24844.371     1889.955    1.1578834    31.015963       31.016       31.016    29837.116 
 3048000    301.04317   -3015.6029    -22945.74   -24836.462    1890.7217    1.1578834    31.015963       31.016       31.016    29837.116 
 3049000    289.03775   -3661.6711   -23109.193   -24924.514    1815.3209    1.1578834    31.015963       31.016       31.016    29837.116 
 3050000    302.64619   -3363.5178   -22977.385   -24878.175    1900.7896    1.1578834    31.015963       31.016       31.016    29837.116 
 3051000    301.77265   -2790.5407    -23011.17   -24906.473    1895.3033    1.1578834    31.015963       31.016       31.016    29837.116 
 3052000    292.20897   -3680.8089   -23071.389   -24906.627     1835.238    1.1578834    31.015963       31.016       31.016    29837.116 
 3053000    304.66065   -2119.0781   -22900.686   -24814.128    1913.4415    1.1578834    31.015963       31.016       31.016    29837.116 
 3054000    309.41409   -2206.5305   -22935.156   -24878.452    1943.2958    1.1578834    31.015963       31.016       31.016    29837.116 
 3055000    299.78776   -2683.6436   -22920.036   -24802.873     1882.837    1.1578834    31.015963       31.016       31.016    29837.116 
 3056000    304.72653   -1902.3326   -22925.402   -24839.257    1913.8553    1.1578834    31.015963       31.016       31.016    29837.116 
 3057000    301.32945   -1696.0824   -22894.306   -24786.826    1892.5198    1.1578834    31.015963       31.016       31.016    29837.116 
 3058000    301.42632   -3253.3442   -23001.839   -24894.967    1893.1281    1.1578834    31.015963       31.016       31.016    29837.116 
 3059000    305.42276   -2751.7168    -22981.77   -24899.998     1918.228    1.1578834    31.015963       31.016       31.016    29837.116 
 3060000    312.00528    -3068.908   -22870.858   -24830.428      1959.57    1.1578834    31.015963       31.016       31.016    29837.116 
 3061000    295.85278   -2352.7725   -22979.945   -24838.068    1858.1232    1.1578834    31.015963       31.016       31.016    29837.116 
 3062000    294.86339   -2637.9458   -22896.212   -24748.121    1851.9092    1.1578834    31.015963       31.016       31.016    29837.116 
 3063000    304.38882   -2408.5615   -22881.391   -24793.125    1911.7343    1.1578834    31.015963       31.016       31.016    29837.116 
 3064000    305.87476    -1595.681   -22913.019   -24834.085    1921.0669    1.1578834    31.015963       31.016       31.016    29837.116 
 3065000    292.94503   -2918.5821   -23031.756   -24871.617    1839.8608    1.1578834    31.015963       31.016       31.016    29837.116 
 3066000    297.88221   -2568.6076   -22981.617   -24852.486    1870.8691    1.1578834    31.015963       31.016       31.016    29837.116 
 3067000     299.7278   -2549.6247    -22930.71    -24813.17    1882.4605    1.1578834    31.015963       31.016       31.016    29837.116 
 3068000    298.96947   -2968.3347   -22880.024   -24757.722    1877.6977    1.1578834    31.015963       31.016       31.016    29837.116 
 3069000    294.38877   -3043.4082   -22950.219   -24799.148    1848.9283    1.1578834    31.015963       31.016       31.016    29837.116 
 3070000    296.79959   -2534.5051   -23017.828   -24881.898    1864.0696    1.1578834    31.015963       31.016       31.016    29837.116 
 3071000    297.77231   -3248.8633   -23042.136   -24912.314    1870.1789    1.1578834    31.015963       31.016       31.016    29837.116 
 3072000    298.48331   -1921.6537   -22998.068   -24872.712    1874.6444    1.1578834    31.015963       31.016       31.016    29837.116 
 3073000    295.62279   -1873.4603   -23049.268   -24905.947    1856.6787    1.1578834    31.015963       31.016       31.016    29837.116 
 3074000    290.58848   -2338.7649   -23129.997   -24955.057    1825.0603    1.1578834    31.015963       31.016       31.016    29837.116 
 3075000    299.26523   -3218.8893   -22938.434    -24817.99    1879.5553    1.1578834    31.015963       31.016       31.016    29837.116 
 3076000    301.31011    -1832.277   -22936.667   -24829.065    1892.3983    1.1578834    31.015963       31.016       31.016    29837.116 
 3077000    304.76906   -1599.8635   -22983.018   -24897.141    1914.1224    1.1578834    31.015963       31.016       31.016    29837.116 
 3078000    291.70627   -1844.9614   -23063.148   -24895.229    1832.0807    1.1578834    31.015963       31.016       31.016    29837.116 
 3079000    303.27661   -2935.4618   -22953.058   -24857.807     1904.749    1.1578834    31.015963       31.016       31.016    29837.116 
 3080000    305.03484   -3308.6008   -22957.092   -24872.884    1915.7917    1.1578834    31.015963       31.016       31.016    29837.116 
 3081000     305.9577   -2522.6262   -22912.165   -24833.753    1921.5878    1.1578834    31.015963       31.016       31.016    29837.116 
 3082000    285.21734   -2832.7064   -22978.306   -24769.633    1791.3266    1.1578834    31.015963       31.016       31.016    29837.116 
 3083000    299.83168   -3113.1964   -22919.974   -24803.087    1883.1129    1.1578834    31.015963       31.016       31.016    29837.116 
 3084000    296.89751   -2516.1147   -23012.931   -24877.616    1864.6846    1.1578834    31.015963       31.016       31.016    29837.116 
 3085000    304.02308   -1801.1694   -22946.131   -24855.568    1909.4372    1.1578834    31.015963       31.016       31.016    29837.116 
 3086000    301.00682   -1244.7422    -22954.17   -24844.664    1890.4935    1.1578834    31.015963       31.016       31.016    29837.116 
 3087000    297.17217   -2788.4321   -23029.059   -24895.468    1866.4096    1.1578834    31.015963       31.016       31.016    29837.116 
 3088000    285.21363   -1330.4085   -23079.909   -24871.212    1791.3032    1.1578834    31.015963       31.016       31.016    29837.116 
 3089000      299.162   -2250.9703   -22958.436   -24837.343    1878.9069    1.1578834    31.015963       31.016       31.016    29837.116 
 3090000    300.15933   -3314.9048   -22954.743   -24839.914    1885.1707    1.1578834    31.015963       31.016       31.016    29837.116 
 3091000    300.97135   -2996.6627   -22933.427   -24823.697    1890.2707    1.1578834    31.015963       31.016       31.016    29837.116 
 3092000    298.17209   -3059.7363   -23025.031   -24897.721    1872.6897    1.1578834    31.015963       31.016       31.016    29837.116 
 3093000    297.69253   -2710.3488   -22983.502    -24853.18    1869.6778    1.1578834    31.015963       31.016       31.016    29837.116 
 3094000    304.45395   -1613.1339   -22883.279   -24795.422    1912.1434    1.1578834    31.015963       31.016       31.016    29837.116 
 3095000     298.3889   -2175.9487   -22986.653   -24860.705    1874.0514    1.1578834    31.015963       31.016       31.016    29837.116 
 3096000    297.35803    -2700.703   -22986.871   -24854.448     1867.577    1.1578834    31.015963       31.016       31.016    29837.116 
 3097000    300.58076   -1764.0204   -22927.121   -24814.939    1887.8176    1.1578834    31.015963       31.016       31.016    29837.116 
 3098000    296.84489   -3065.4634   -22966.746     -24831.1    1864.3542    1.1578834    31.015963       31.016       31.016    29837.116 
 3099000    296.46175   -3226.5472    -22971.39   -24833.337    1861.9478    1.1578834    31.015963       31.016       31.016    29837.116 
 3100000    296.53467   -1911.2544   -23005.485   -24867.891    1862.4058    1.1578834    31.015963       31.016       31.016    29837.116 
 3101000    300.15484   -3048.4911    -22869.26   -24754.403    1885.1425    1.1578834    31.015963       31.016       31.016    29837.116 
 3102000    296.20126   -2877.7904   -22931.073   -24791.385    1860.3118    1.1578834    31.015963       31.016       31.016    29837.116 
 3103000    307.16647   -3045.2871   -22874.561   -24803.741    1929.1795    1.1578834    31.015963       31.016       31.016    29837.116 
 3104000    291.37875   -2443.6161   -22981.033   -24811.056    1830.0237    1.1578834    31.015963       31.016       31.016    29837.116 
 3105000    293.33761   -2109.7375   -22965.388   -24807.714    1842.3265    1.1578834    31.015963       31.016       31.016    29837.116 
 3106000    293.88553   -3114.9813   -23099.393    -24945.16    1845.7677    1.1578834    31.015963       31.016       31.016    29837.116 
 3107000    300.43258   -1418.7987   -23004.849   -24891.735    1886.8869    1.1578834    31.015963       31.016       31.016    29837.116 
 3108000    303.73167   -2580.9943   -22950.339   -24857.946    1907.6071    1.1578834    31.015963       31.016       31.016    29837.116 
 3109000    297.75342   -3406.5722   -23070.386   -24940.447    1870.0603    1.1578834    31.015963       31.016       31.016    29837.116 
 3110000     309.2587   -2705.2079   -22912.093   -24854.413    1942.3199    1.1578834    31.015963       31.016       31.016    29837.116 
 3111000    296.08163   -2182.7864   -23004.565   -24864.126    1859.5605    1.1578834    31.015963       31.016       31.016    29837.116 
 3112000    302.96354   -2447.0471   -22908.367   -24811.149    1902.7828    1.1578834    31.015963       31.016       31.016    29837.116 
 3113000    298.14613    -2377.944   -22921.093   -24793.619    1872.5267    1.1578834    31.015963       31.016       31.016    29837.116 
 3114000    299.16266   -2520.2044   -22963.832   -24842.743    1878.9111    1.1578834    31.015963       31.016       31.016    29837.116 
 3115000    293.79766   -2682.6516   -22957.986   -24803.202    1845.2158    1.1578834    31.015963       31.016       31.016    29837.116 
 3116000    303.06182   -2336.4312   -23027.488   -24930.888       1903.4    1.1578834    31.015963       31.016       31.016    29837.116 
 3117000    305.13367   -2756.7841   -22938.047   -24854.459    1916.4124    1.1578834    31.015963       31.016       31.016    29837.116 
 3118000    294.45618   -2967.4432   -23092.428   -24941.779    1849.3517    1.1578834    31.015963       31.016       31.016    29837.116 
 3119000    312.14686   -2615.9226   -22849.956   -24810.416    1960.4592    1.1578834    31.015963       31.016       31.016    29837.116 
 3120000    298.36157   -2673.7076   -22965.017   -24838.897    1873.8798    1.1578834    31.015963       31.016       31.016    29837.116 
 3121000    302.02292   -2673.3497   -22927.278   -24824.154    1896.8751    1.1578834    31.015963       31.016       31.016    29837.116 
 3122000    293.86784   -3182.0037   -23050.385   -24896.041    1845.6566    1.1578834    31.015963       31.016       31.016    29837.116 
 3123000    301.53093   -2988.4426   -22938.717   -24832.502    1893.7851    1.1578834    31.015963       31.016       31.016    29837.116 
 3124000    301.78267   -2459.6516   -23045.671   -24941.037    1895.3662    1.1578834    31.015963       31.016       31.016    29837.116 
 3125000    299.87559   -2252.6039   -22937.264   -24820.653    1883.3886    1.1578834    31.015963       31.016       31.016    29837.116 
 3126000    291.75023   -2909.8042   -23071.875   -24904.232    1832.3568    1.1578834    31.015963       31.016       31.016    29837.116 
 3127000    297.96218   -2161.4753   -22933.932   -24805.303    1871.3714    1.1578834    31.015963       31.016       31.016    29837.116 
 3128000    305.68754   -3037.0184   -22980.525   -24900.416     1919.891    1.1578834    31.015963       31.016       31.016    29837.116 
 3129000    300.28519   -2013.0763   -23078.755   -24964.717    1885.9612    1.1578834    31.015963       31.016       31.016    29837.116 
 3130000     301.4995   -3128.6931   -22898.633   -24792.221    1893.5878    1.1578834    31.015963       31.016       31.016    29837.116 
 3131000    295.29077   -3547.7135   -23057.462   -24912.056    1854.5934    1.1578834    31.015963       31.016       31.016    29837.116 
 3132000    293.77859   -1657.5104   -23060.562   -24905.658    1845.0961    1.1578834    31.015963       31.016       31.016    29837.116 
 3133000    297.32674   -2751.4155    -23072.98   -24940.361    1867.3804    1.1578834    31.015963       31.016       31.016    29837.116 
 3134000    295.66559   -3207.9353   -23071.273    -24928.22    1856.9475    1.1578834    31.015963       31.016       31.016    29837.116 
 3135000    303.54152   -2640.8914   -22951.319   -24857.732    1906.4128    1.1578834    31.015963       31.016       31.016    29837.116 
 3136000    297.38064   -3169.6463   -23018.046   -24885.764     1867.719    1.1578834    31.015963       31.016       31.016    29837.116 
 3137000    290.08737    -2945.436   -23137.554   -24959.467    1821.9131    1.1578834    31.015963       31.016       31.016    29837.116 
 3138000    295.35697   -2556.7732   -23045.638   -24900.647    1855.0092    1.1578834    31.015963       31.016       31.016    29837.116 
 3139000    302.49243   -2902.1779   -22942.666    -24842.49    1899.8239    1.1578834    31.015963       31.016       31.016    29837.116 
 3140000    296.60937   -2904.5864   -23090.448   -24953.323     1862.875    1.1578834    31.015963       31.016       31.016    29837.116 
 3141000    300.92535   -3058.0041    -23074.92   -24964.902    1889.9818    1.1578834    31.015963       31.016       31.016    29837.116 
 3142000     299.0821   -2746.6295   -22954.967   -24833.373    1878.4051    1.1578834    31.015963       31.016       31.016    29837.116 
 3143000    298.33738   -2709.3227   -23028.982    -24902.71    1873.7278    1.1578834    31.015963       31.016       31.016    29837.116 
 3144000    299.49214   -2675.8751    -22936.06    -24817.04    1880.9804    1.1578834    31.015963       31.016       31.016    29837.116 
 3145000     297.6233    -2747.198   -23003.335   -24872.578     1869.243    1.1578834    31.015963       31.016       31.016    29837.116 
 3146000    298.88492    -2451.809   -23006.564   -24883.731    1877.1667    1.1578834    31.015963       31.016       31.016    29837.116 
 3147000     300.0372   -1801.2227    -22957.87   -24842.273    1884.4037    1.1578834    31.015963       31.016       31.016    29837.116 
 3148000    301.36889   -2858.5701   -23044.465   -24937.233    1892.7674    1.1578834    31.015963       31.016       31.016    29837.116 
 3149000    306.53184   -2626.9288   -22985.239   -24910.433    1925.1937    1.1578834    31.015963       31.016       31.016    29837.116 
 3150000    297.05964   -2746.8391   -23001.483   -24867.186    1865.7029    1.1578834    31.015963       31.016       31.016    29837.116 
 3151000    289.31036    -2502.906   -23056.706   -24873.739     1817.033    1.1578834    31.015963       31.016       31.016    29837.116 
 3152000     292.9846   -3134.4828   -23009.825   -24849.934    1840.1093    1.1578834    31.015963       31.016       31.016    29837.116 
 3153000    297.63374   -2455.5936   -22958.909   -24828.218    1869.3086    1.1578834    31.015963       31.016       31.016    29837.116 
 3154000    298.37753   -1672.9369   -23061.493   -24935.474      1873.98    1.1578834    31.015963       31.016       31.016    29837.116 
 3155000    295.33878   -1977.1619   -22946.777   -24801.671    1854.8949    1.1578834    31.015963       31.016       31.016    29837.116 
 3156000    301.56006   -2809.5583   -22976.392    -24870.36    1893.9681    1.1578834    31.015963       31.016       31.016    29837.116 
 3157000    303.89701   -2497.7119   -23019.197   -24927.842    1908.6454    1.1578834    31.015963       31.016       31.016    29837.116 
 3158000    291.54566   -2443.4369   -23079.319   -24910.391     1831.072    1.1578834    31.015963       31.016       31.016    29837.116 
 3159000    298.76625   -2440.4951   -23056.414   -24932.836    1876.4214    1.1578834    31.015963       31.016       31.016    29837.116 
 3160000    294.91117   -2860.5745   -23101.652   -24953.861    1852.2093    1.1578834    31.015963       31.016       31.016    29837.116 
 3161000    299.07716   -2729.4369   -23069.914   -24948.288    1878.3741    1.1578834    31.015963       31.016       31.016    29837.116 
 3162000    310.75727   -3021.4283   -22967.665   -24919.397    1951.7318    1.1578834    31.015963       31.016       31.016    29837.116 
 3163000    306.37924   -2642.5618   -23086.965     -25011.2    1924.2353    1.1578834    31.015963       31.016       31.016    29837.116 
 3164000    299.94825   -3153.7684   -22984.498   -24868.343     1883.845    1.1578834    31.015963       31.016       31.016    29837.116 
 3165000     296.3312   -2952.6076   -23055.933   -24917.061    1861.1279    1.1578834    31.015963       31.016       31.016    29837.116 
 3166000    302.02655   -2112.4427   -22983.327   -24880.225    1896.8979    1.1578834    31.015963       31.016       31.016    29837.116 
 3167000    295.88838   -3106.1976   -23024.795   -24883.142    1858.3468    1.1578834    31.015963       31.016       31.016    29837.116 
 3168000    295.07967   -2384.6391   -23019.725   -24872.993    1853.2676    1.1578834    31.015963       31.016       31.016    29837.116 
 3169000    295.60052    -3660.054   -23013.426   -24869.965    1856.5388    1.1578834    31.015963       31.016       31.016    29837.116 
 3170000     302.9845   -2427.3999   -22912.758   -24815.673    1902.9144    1.1578834    31.015963       31.016       31.016    29837.116 
 3171000    299.81737   -3205.4154   -23011.194   -24894.217     1883.023    1.1578834    31.015963       31.016       31.016    29837.116 
 3172000    304.64938   -2579.0714   -22925.765   -24839.136    1913.3708    1.1578834    31.015963       31.016       31.016    29837.116 
 3173000    293.75886   -3001.8557   -23023.406   -24868.378    1844.9721    1.1578834    31.015963       31.016       31.016    29837.116 
 3174000    301.84067   -3600.6008   -22950.209   -24845.939    1895.7305    1.1578834    31.015963       31.016       31.016    29837.116 
 3175000    301.03886   -2610.1257   -22970.946   -24861.641    1890.6946    1.1578834    31.015963       31.016       31.016    29837.116 
 3176000    301.70575   -2882.6853   -23044.209   -24939.092    1894.8831    1.1578834    31.015963       31.016       31.016    29837.116 
 3177000    302.32573   -2678.9172   -22973.897   -24872.674    1898.7769    1.1578834    31.015963       31.016       31.016    29837.116 
 3178000    295.31001   -3488.6327   -22985.078   -24839.792    1854.7142    1.1578834    31.015963       31.016       31.016    29837.116 
 3179000    303.18089   -2401.1429   -23023.092    -24927.24    1904.1478    1.1578834    31.015963       31.016       31.016    29837.116 
 3180000    289.66141   -3409.1168   -23034.045   -24853.283    1819.2378    1.1578834    31.015963       31.016       31.016    29837.116 
 3181000    297.23804   -2804.9845   -23055.054   -24921.877    1866.8234    1.1578834    31.015963       31.016       31.016    29837.116 
 3182000    301.12882   -2615.5334   -23009.253   -24900.513    1891.2597    1.1578834    31.015963       31.016       31.016    29837.116 
 3183000    292.91208   -2451.7119   -23010.405   -24850.059    1839.6539    1.1578834    31.015963       31.016       31.016    29837.116 
 3184000    301.26295   -2422.0728   -22996.958    -24889.06    1892.1021    1.1578834    31.015963       31.016       31.016    29837.116 
 3185000     292.3571   -2509.6045   -23119.464   -24955.632    1836.1683    1.1578834    31.015963       31.016       31.016    29837.116 
 3186000    299.55311   -2858.3865   -22980.871   -24862.234    1881.3633    1.1578834    31.015963       31.016       31.016    29837.116 
 3187000    296.36628   -2912.2807   -22990.344   -24851.692    1861.3482    1.1578834    31.015963       31.016       31.016    29837.116 
 3188000    301.13138   -2191.5484   -23003.637   -24894.913    1891.2758    1.1578834    31.015963       31.016       31.016    29837.116 
 3189000    297.31566    -1410.678   -22951.465   -24818.775    1867.3109    1.1578834    31.015963       31.016       31.016    29837.116 
 3190000    296.01499   -3042.9492   -23078.829   -24937.971    1859.1419    1.1578834    31.015963       31.016       31.016    29837.116 
 3191000    307.89263   -3338.4002   -22920.728   -24854.469    1933.7402    1.1578834    31.015963       31.016       31.016    29837.116 
 3192000     293.8862   -2813.0604    -23060.44   -24906.211    1845.7719    1.1578834    31.015963       31.016       31.016    29837.116 
 3193000    292.93769   -2773.3869   -23115.872   -24955.687    1839.8147    1.1578834    31.015963       31.016       31.016    29837.116 
 3194000    294.58885   -2469.4351   -23089.245    -24939.43    1850.1849    1.1578834    31.015963       31.016       31.016    29837.116 
 3195000    296.36247   -2382.6856   -23010.575   -24871.899    1861.3243    1.1578834    31.015963       31.016       31.016    29837.116 
 3196000    304.40739   -2897.0892   -23125.866   -25037.717    1911.8509    1.1578834    31.015963       31.016       31.016    29837.116 
 3197000    301.68866   -2454.9319   -23063.676   -24958.452    1894.7758    1.1578834    31.015963       31.016       31.016    29837.116 
 3198000    303.22803   -2812.6096   -22984.124   -24888.568    1904.4439    1.1578834    31.015963       31.016       31.016    29837.116 
 3199000    300.69536   -1790.0187   -22983.992   -24872.529    1888.5373    1.1578834    31.015963       31.016       31.016    29837.116 
 3200000    302.78701    -2302.235   -23013.624   -24915.298     1901.674    1.1578834    31.015963       31.016       31.016    29837.116 
 3201000    301.73642   -2364.8189   -23024.294    -24919.37    1895.0757    1.1578834    31.015963       31.016       31.016    29837.116 
 3202000      300.326   -2431.7605   -22967.469   -24853.686    1886.2175    1.1578834    31.015963       31.016       31.016    29837.116 
 3203000    297.68175   -3097.1506   -23016.902   -24886.512    1869.6101    1.1578834    31.015963       31.016       31.016    29837.116 
 3204000     295.0497   -2732.6355   -23076.087   -24929.166    1853.0794    1.1578834    31.015963       31.016       31.016    29837.116 
 3205000    298.15049   -2934.6993   -22988.988   -24861.542    1872.5541    1.1578834    31.015963       31.016       31.016    29837.116 
 3206000    296.22617   -2463.2993   -22961.345   -24821.814    1860.4682    1.1578834    31.015963       31.016       31.016    29837.116 
 3207000    295.49188   -2884.0176   -23002.872   -24858.729    1855.8565    1.1578834    31.015963       31.016       31.016    29837.116 
 3208000    298.56588   -2650.2019   -22946.228   -24821.391    1875.1629    1.1578834    31.015963       31.016       31.016    29837.116 
 3209000    291.13865    -1917.468   -23031.088   -24859.603    1828.5157    1.1578834    31.015963       31.016       31.016    29837.116 
 3210000     301.3772   -2150.0839   -22928.756   -24821.576    1892.8196    1.1578834    31.015963       31.016       31.016    29837.116 
 3211000    305.74943   -2259.0864   -23073.501   -24993.781    1920.2797    1.1578834    31.015963       31.016       31.016    29837.116 
 3212000    307.57453   -2128.1837   -23000.616   -24932.358    1931.7424    1.1578834    31.015963       31.016       31.016    29837.116 
 3213000    304.02973   -1952.4862   -23045.937   -24955.416     1909.479    1.1578834    31.015963       31.016       31.016    29837.116 
 3214000    305.88662   -2372.0985   -23010.946   -24932.087    1921.1413    1.1578834    31.015963       31.016       31.016    29837.116 
 3215000    294.86231    -1770.238   -23104.666   -24956.569    1851.9024    1.1578834    31.015963       31.016       31.016    29837.116 
 3216000     303.5929   -3380.9342   -23043.882   -24950.617    1906.7355    1.1578834    31.015963       31.016       31.016    29837.116 
 3217000    288.03371   -2827.8847   -23170.962   -24979.977    1809.0149    1.1578834    31.015963       31.016       31.016    29837.116 
 3218000    294.74091   -2665.1783   -23087.329   -24938.469    1851.1399    1.1578834    31.015963       31.016       31.016    29837.116 
 3219000    293.91857   -1268.4536   -23127.773   -24973.748    1845.9752    1.1578834    31.015963       31.016       31.016    29837.116 
 3220000    290.10954    -2684.043   -23073.247   -24895.299    1822.0524    1.1578834    31.015963       31.016       31.016    29837.116 
 3221000     294.5607   -2646.5026   -22981.243   -24831.251    1850.0082    1.1578834    31.015963       31.016       31.016    29837.116 
 3222000    295.80603   -2736.8296   -23073.919   -24931.749    1857.8295    1.1578834    31.015963       31.016       31.016    29837.116 
 3223000    298.91014   -1571.0869   -22894.332   -24771.657    1877.3251    1.1578834    31.015963       31.016       31.016    29837.116 
 3224000    292.51401   -2874.8912   -23081.874   -24919.028    1837.1537    1.1578834    31.015963       31.016       31.016    29837.116 
 3225000    292.66561   -2586.6425   -23033.974    -24872.08    1838.1059    1.1578834    31.015963       31.016       31.016    29837.116 
 3226000    291.05907   -2601.6806   -23077.166   -24905.182    1828.0159    1.1578834    31.015963       31.016       31.016    29837.116 
 3227000    293.47301   -2442.2005   -23022.015   -24865.192    1843.1768    1.1578834    31.015963       31.016       31.016    29837.116 
 3228000    308.98262   -2482.2376   -23083.962   -25024.548     1940.586    1.1578834    31.015963       31.016       31.016    29837.116 
 3229000    299.30945   -3483.0518   -23029.027    -24908.86     1879.833    1.1578834    31.015963       31.016       31.016    29837.116 
 3230000    295.59646   -2068.4591   -22989.031   -24845.545    1856.5133    1.1578834    31.015963       31.016       31.016    29837.116 
 3231000    303.53572   -2853.1952   -22898.135   -24804.512    1906.3764    1.1578834    31.015963       31.016       31.016    29837.116 
 3232000    295.52941    -2502.467   -22943.507   -24799.599    1856.0922    1.1578834    31.015963       31.016       31.016    29837.116 
 3233000    308.94367   -2250.8996   -22917.737   -24858.078    1940.3414    1.1578834    31.015963       31.016       31.016    29837.116 
 3234000    295.88576   -3046.1625   -23033.471   -24891.801    1858.3302    1.1578834    31.015963       31.016       31.016    29837.116 
 3235000    305.30422   -1991.8284   -22929.896   -24847.379    1917.4835    1.1578834    31.015963       31.016       31.016    29837.116 
 3236000    299.19706   -2451.3273   -22975.484   -24854.611    1879.1271    1.1578834    31.015963       31.016       31.016    29837.116 
 3237000    290.45896   -2407.9773   -23022.669   -24846.916    1824.2469    1.1578834    31.015963       31.016       31.016    29837.116 
 3238000    301.05797   -2337.8576   -22967.296   -24858.111    1890.8147    1.1578834    31.015963       31.016       31.016    29837.116 
 3239000    299.28922   -2585.5617   -22996.848   -24876.554    1879.7059    1.1578834    31.015963       31.016       31.016    29837.116 
 3240000     302.1409   -3083.4874   -22983.151   -24880.767    1897.6161    1.1578834    31.015963       31.016       31.016    29837.116 
 3241000    308.00332   -2575.5739   -22940.799   -24875.235    1934.4354    1.1578834    31.015963       31.016       31.016    29837.116 
 3242000     302.2437   -4062.6757    -22982.31   -24880.572    1898.2617    1.1578834    31.015963       31.016       31.016    29837.116 
 3243000    298.37812   -2459.1828    -23001.06   -24875.044    1873.9837    1.1578834    31.015963       31.016       31.016    29837.116 
 3244000    293.78848    -2130.996   -23062.398   -24907.556    1845.1582    1.1578834    31.015963       31.016       31.016    29837.116 
 3245000    293.47581   -2263.8122    -23099.13   -24942.324    1843.1944    1.1578834    31.015963       31.016       31.016    29837.116 
 3246000    302.58765     -1715.48   -22944.829   -24845.251    1900.4219    1.1578834    31.015963       31.016       31.016    29837.116 
 3247000    295.73959   -2262.0304   -23032.019   -24889.431    1857.4122    1.1578834    31.015963       31.016       31.016    29837.116 
 3248000    304.85705   -3284.8924   -22968.783   -24883.458    1914.6751    1.1578834    31.015963       31.016       31.016    29837.116 
 3249000    298.43243   -3547.9413   -23006.212   -24880.536    1874.3248    1.1578834    31.015963       31.016       31.016    29837.116 
 3250000    300.75347   -2579.9576   -23021.425   -24910.328    1888.9023    1.1578834    31.015963       31.016       31.016    29837.116 
 3251000    302.92725   -1510.6474   -22952.171   -24854.725    1902.5548    1.1578834    31.015963       31.016       31.016    29837.116 
 3252000    300.02303   -2581.4166   -22977.603   -24861.918    1884.3146    1.1578834    31.015963       31.016       31.016    29837.116 
 3253000    307.31648   -2794.1274   -23010.835   -24940.957    1930.1217    1.1578834    31.015963       31.016       31.016    29837.116 
 3254000     298.1646   -3545.3861   -23059.247    -24931.89    1872.6427    1.1578834    31.015963       31.016       31.016    29837.116 
 3255000    300.30439   -3391.9613   -23088.015   -24974.096    1886.0818    1.1578834    31.015963       31.016       31.016    29837.116 
 3256000    296.58027   -2326.8209   -23085.771   -24948.463    1862.6922    1.1578834    31.015963       31.016       31.016    29837.116 
 3257000     303.2736   -2465.8132   -23045.566   -24950.296    1904.7301    1.1578834    31.015963       31.016       31.016    29837.116 
 3258000    304.64603   -3314.6585   -23065.096   -24978.445    1913.3497    1.1578834    31.015963       31.016       31.016    29837.116 
 3259000     287.4727   -2326.7696   -23140.443   -24945.935    1805.4915    1.1578834    31.015963       31.016       31.016    29837.116 
 3260000    299.33781   -2316.0784   -23046.527   -24926.538    1880.0111    1.1578834    31.015963       31.016       31.016    29837.116 
 3261000    312.94876   -1621.8667   -22876.887   -24842.382    1965.4956    1.1578834    31.015963       31.016       31.016    29837.116 
 3262000    295.95935   -2591.0911   -22979.368    -24838.16    1858.7925    1.1578834    31.015963       31.016       31.016    29837.116 
 3263000    302.63833   -2238.5371   -23014.862   -24915.602    1900.7403    1.1578834    31.015963       31.016       31.016    29837.116 
 3264000    286.22443   -3039.7435   -23131.163   -24928.815    1797.6516    1.1578834    31.015963       31.016       31.016    29837.116 
 3265000    303.12944   -3049.9279   -22952.274   -24856.099    1903.8247    1.1578834    31.015963       31.016       31.016    29837.116 
 3266000    295.45357   -2729.9741    -23049.34   -24904.956    1855.6158    1.1578834    31.015963       31.016       31.016    29837.116 
 3267000    292.83299    -3459.375    -23039.54   -24878.697    1839.1571    1.1578834    31.015963       31.016       31.016    29837.116 
 3268000    290.82068   -2003.1992   -23075.329   -24901.848    1826.5187    1.1578834    31.015963       31.016       31.016    29837.116 
 3269000    294.17056   -2541.8553   -22950.953   -24798.511    1847.5578    1.1578834    31.015963       31.016       31.016    29837.116 
 3270000    297.17278   -2570.7143   -23021.531   -24887.944    1866.4135    1.1578834    31.015963       31.016       31.016    29837.116 
 3271000    292.36584   -2472.3747   -23098.249   -24934.472    1836.2232    1.1578834    31.015963       31.016       31.016    29837.116 
 3272000    303.04094   -1815.7576   -22989.347   -24892.616    1903.2688    1.1578834    31.015963       31.016       31.016    29837.116 
 3273000    295.23179   -2843.9135   -23018.407    -24872.63     1854.223    1.1578834    31.015963       31.016       31.016    29837.116 
 3274000    308.06081   -3067.6537   -22986.983    -24921.78    1934.7965    1.1578834    31.015963       31.016       31.016    29837.116 
 3275000    294.40128    -2279.312   -23101.087   -24950.094    1849.0069    1.1578834    31.015963       31.016       31.016    29837.116 
 3276000    296.10369   -2280.6302   -22912.983   -24772.682     1859.699    1.1578834    31.015963       31.016       31.016    29837.116 
 3277000    301.80761   -2871.5101   -22956.873   -24852.396    1895.5228    1.1578834    31.015963       31.016       31.016    29837.116 
 3278000     305.5452   -2033.4087   -22995.874   -24914.871     1918.997    1.1578834    31.015963       31.016       31.016    29837.116 
 3279000    299.62528   -2652.8215   -22979.914   -24861.731    1881.8166    1.1578834    31.015963       31.016       31.016    29837.116 
 3280000    293.00758   -2299.1492    -23043.45   -24883.703    1840.2537    1.1578834    31.015963       31.016       31.016    29837.116 
 3281000    308.08087   -3381.0821   -23005.283   -24940.205    1934.9225    1.1578834    31.015963       31.016       31.016    29837.116 
 3282000    302.97788   -3425.7626   -22933.887    -24836.76    1902.8728    1.1578834    31.015963       31.016       31.016    29837.116 
 3283000    304.16187   -2870.0911   -22981.793   -24892.102    1910.3089    1.1578834    31.015963       31.016       31.016    29837.116 
 3284000    298.24555   -3271.2918   -22978.196   -24851.347    1873.1511    1.1578834    31.015963       31.016       31.016    29837.116 
 3285000    295.26262   -3325.7975   -22940.874   -24795.291    1854.4166    1.1578834    31.015963       31.016       31.016    29837.116 
 3286000    297.62517    -2013.435    -22931.55   -24800.805    1869.2547    1.1578834    31.015963       31.016       31.016    29837.116 
 3287000    298.80578   -3015.5427    -22995.38   -24872.049    1876.6696    1.1578834    31.015963       31.016       31.016    29837.116 
 3288000    299.56052   -3314.1297   -23003.701   -24885.111    1881.4099    1.1578834    31.015963       31.016       31.016    29837.116 
 3289000    302.88634   -2300.7647   -22989.582    -24891.88    1902.2979    1.1578834    31.015963       31.016       31.016    29837.116 
 3290000    300.81817   -2756.2326   -23029.185   -24918.494    1889.3086    1.1578834    31.015963       31.016       31.016    29837.116 
 3291000    305.51433   -2438.8098   -22976.291   -24895.094    1918.8032    1.1578834    31.015963       31.016       31.016    29837.116 
 3292000    299.13755   -2908.2678    -22973.16   -24851.914    1878.7534    1.1578834    31.015963       31.016       31.016    29837.116 
 3293000    300.85354   -2080.1047   -23001.057   -24890.587    1889.5308    1.1578834    31.015963       31.016       31.016    29837.116 
 3294000    297.92814   -3007.8396   -23079.438   -24950.595    1871.1576    1.1578834    31.015963       31.016       31.016    29837.116 
 3295000    297.15628   -2277.8896   -23108.615   -24974.925    1866.3098    1.1578834    31.015963       31.016       31.016    29837.116 
 3296000    295.67896   -3202.9357   -23033.637   -24890.668    1857.0315    1.1578834    31.015963       31.016       31.016    29837.116 
 3297000    298.76811   -2940.2702   -23149.831   -25026.264    1876.4331    1.1578834    31.015963       31.016       31.016    29837.116 
 3298000    297.90568    -3229.864     -23024.9   -24895.917    1871.0165    1.1578834    31.015963       31.016       31.016    29837.116 
 3299000    293.52137   -3488.1978   -23106.898   -24950.379    1843.4806    1.1578834    31.015963       31.016       31.016    29837.116 
 3300000    296.82195   -2567.8254   -23044.143   -24908.353    1864.2101    1.1578834    31.015963       31.016       31.016    29837.116 
 3301000    290.55879   -2240.7615   -23089.102   -24913.976    1824.8739    1.1578834    31.015963       31.016       31.016    29837.116 
 3302000    290.12563    -1581.087   -23079.557   -24901.711    1822.1534    1.1578834    31.015963       31.016       31.016    29837.116 
 3303000    297.48469   -3098.6239   -22960.401   -24828.773    1868.3724    1.1578834    31.015963       31.016       31.016    29837.116 
 3304000    290.77877   -2513.9953   -23053.181   -24879.437    1826.2555    1.1578834    31.015963       31.016       31.016    29837.116 
 3305000    296.18752    -2148.729   -23007.242   -24867.468    1860.2255    1.1578834    31.015963       31.016       31.016    29837.116 
 3306000    291.18406   -3248.0784   -23117.482   -24946.283    1828.8009    1.1578834    31.015963       31.016       31.016    29837.116 
 3307000    296.11819   -2697.1364   -23012.968   -24872.758    1859.7901    1.1578834    31.015963       31.016       31.016    29837.116 
 3308000    297.64765   -2176.0188   -22985.835   -24855.231     1869.396    1.1578834    31.015963       31.016       31.016    29837.116 
 3309000    301.01242   -2177.3291   -22933.399   -24823.928    1890.5286    1.1578834    31.015963       31.016       31.016    29837.116 
 3310000    297.85163   -2785.5206   -23051.381   -24922.059    1870.6771    1.1578834    31.015963       31.016       31.016    29837.116 
 3311000    292.83189   -2852.7607   -23055.653   -24894.804    1839.1503    1.1578834    31.015963       31.016       31.016    29837.116 
 3312000    313.29589    -3451.076   -22935.339   -24903.015    1967.6758    1.1578834    31.015963       31.016       31.016    29837.116 
 3313000    301.84681   -3307.4806   -23029.179   -24924.948    1895.7691    1.1578834    31.015963       31.016       31.016    29837.116 
 3314000    295.80241   -2049.6322   -22995.855   -24853.662    1857.8068    1.1578834    31.015963       31.016       31.016    29837.116 
 3315000    289.40376   -1754.8159   -23091.055   -24908.675    1817.6196    1.1578834    31.015963       31.016       31.016    29837.116 
 3316000    302.26219   -2648.1194   -22969.341   -24867.719    1898.3779    1.1578834    31.015963       31.016       31.016    29837.116 
 3317000    299.15862   -2281.5918   -22951.834    -24830.72    1878.8857    1.1578834    31.015963       31.016       31.016    29837.116 
 3318000    296.16282   -3117.5668   -23046.459   -24906.529    1860.0704    1.1578834    31.015963       31.016       31.016    29837.116 
 3319000    290.89469   -2162.1972   -23052.593   -24879.577    1826.9835    1.1578834    31.015963       31.016       31.016    29837.116 
 3320000    299.67089   -2420.4192   -22939.664   -24821.767     1882.103    1.1578834    31.015963       31.016       31.016    29837.116 
 3321000    306.22909   -2024.5167   -23022.193   -24945.485    1923.2922    1.1578834    31.015963       31.016       31.016    29837.116 
 3322000    299.64523   -1667.5802   -23041.378    -24923.32    1881.9419    1.1578834    31.015963       31.016       31.016    29837.116 
 3323000    296.43039    -2875.346    -23132.36   -24994.111    1861.7508    1.1578834    31.015963       31.016       31.016    29837.116 
 3324000    290.83493   -1949.7224   -23071.838   -24898.446    1826.6082    1.1578834    31.015963       31.016       31.016    29837.116 
 3325000    294.91072   -3170.1046   -23097.681   -24949.888    1852.2065    1.1578834    31.015963       31.016       31.016    29837.116 
 3326000    296.97081   -1906.3825   -22975.235    -24840.38     1865.145    1.1578834    31.015963       31.016       31.016    29837.116 
 3327000    296.17145   -2638.5256   -23036.415   -24896.539    1860.1246    1.1578834    31.015963       31.016       31.016    29837.116 
 3328000    296.34084   -2205.3676   -23044.156   -24905.344    1861.1884    1.1578834    31.015963       31.016       31.016    29837.116 
 3329000    295.98631   -3471.0502    -23080.24   -24939.202    1858.9618    1.1578834    31.015963       31.016       31.016    29837.116 
 3330000    289.99028    -3537.835   -23063.016   -24884.319    1821.3033    1.1578834    31.015963       31.016       31.016    29837.116 
 3331000     305.6298   -3854.6374    -22951.89   -24871.418    1919.5284    1.1578834    31.015963       31.016       31.016    29837.116 
 3332000     303.8239   -1774.8944   -22934.399   -24842.585    1908.1863    1.1578834    31.015963       31.016       31.016    29837.116 
 3333000    292.13189   -2893.9647   -23013.103   -24847.857    1834.7539    1.1578834    31.015963       31.016       31.016    29837.116 
 3334000    297.77477   -3483.3087   -23045.333   -24915.528    1870.1943    1.1578834    31.015963       31.016       31.016    29837.116 
 3335000    298.39254   -2980.3547   -22979.866    -24853.94    1874.0743    1.1578834    31.015963       31.016       31.016    29837.116 
 3336000     303.5493   -2574.0436   -22883.113   -24789.574    1906.4616    1.1578834    31.015963       31.016       31.016    29837.116 
 3337000    291.20285   -2934.1359   -22928.434   -24757.353     1828.919    1.1578834    31.015963       31.016       31.016    29837.116 
 3338000    306.86483   -2845.2739   -22946.394    -24873.68    1927.2851    1.1578834    31.015963       31.016       31.016    29837.116 
 3339000    291.26829   -2883.7353   -22943.682   -24773.012    1829.3299    1.1578834    31.015963       31.016       31.016    29837.116 
 3340000    295.94285   -2913.8277   -22901.295   -24759.984    1858.6888    1.1578834    31.015963       31.016       31.016    29837.116 
 3341000    302.65036   -3462.7311   -22966.939   -24867.755    1900.8158    1.1578834    31.015963       31.016       31.016    29837.116 
 3342000    304.37084   -2561.2443   -23009.017   -24920.639    1911.6214    1.1578834    31.015963       31.016       31.016    29837.116 
 3343000    291.48776   -2746.7186   -23120.173   -24950.881    1830.7083    1.1578834    31.015963       31.016       31.016    29837.116 
 3344000    302.80871   -2609.1131   -22975.769   -24877.579    1901.8103    1.1578834    31.015963       31.016       31.016    29837.116 
 3345000    300.57894   -3289.1692   -23004.408   -24892.214    1887.8061    1.1578834    31.015963       31.016       31.016    29837.116 
 3346000    299.16919   -1805.5442   -23042.878    -24921.83    1878.9521    1.1578834    31.015963       31.016       31.016    29837.116 
 3347000    304.65357   -3069.1709   -22933.937   -24847.334    1913.3971    1.1578834    31.015963       31.016       31.016    29837.116 
 3348000    296.61803   -2347.6863   -23032.089   -24895.018    1862.9293    1.1578834    31.015963       31.016       31.016    29837.116 
 3349000     297.2245   -1649.7005   -22959.912    -24826.65    1866.7384    1.1578834    31.015963       31.016       31.016    29837.116 
 3350000    296.29211   -2304.4266   -22987.349   -24848.231    1860.8824    1.1578834    31.015963       31.016       31.016    29837.116 
 3351000    293.94922   -2009.1275   -22962.957   -24809.125    1846.1677    1.1578834    31.015963       31.016       31.016    29837.116 
 3352000    297.34531   -3977.7155   -23082.108   -24949.605    1867.4971    1.1578834    31.015963       31.016       31.016    29837.116 
 3353000     300.3294   -2445.1455   -22943.156   -24829.395    1886.2388    1.1578834    31.015963       31.016       31.016    29837.116 
 3354000      304.524   -2959.8379   -23005.837    -24918.42    1912.5833    1.1578834    31.015963       31.016       31.016    29837.116 
 3355000    296.14142    -2799.145   -22962.176   -24822.112     1859.936    1.1578834    31.015963       31.016       31.016    29837.116 
 3356000    302.86112   -2615.4404   -23050.925   -24953.065    1902.1395    1.1578834    31.015963       31.016       31.016    29837.116 
 3357000    298.57891   -2578.0994   -23039.552   -24914.797    1875.2448    1.1578834    31.015963       31.016       31.016    29837.116 
 3358000    292.01126   -2908.0911   -23018.492   -24852.489    1833.9962    1.1578834    31.015963       31.016       31.016    29837.116 
 3359000     294.9673   -2279.6695   -22996.471   -24849.033    1852.5618    1.1578834    31.015963       31.016       31.016    29837.116 
 3360000    299.65693   -2333.0968   -23085.382   -24967.397    1882.0154    1.1578834    31.015963       31.016       31.016    29837.116 
 3361000    293.96093   -2338.5728   -23064.643   -24910.884    1846.2412    1.1578834    31.015963       31.016       31.016    29837.116 
 3362000    300.05012   -3021.8276    -22965.48   -24849.964    1884.4848    1.1578834    31.015963       31.016       31.016    29837.116 
 3363000    298.13593   -3015.6699   -23077.119   -24949.582    1872.4626    1.1578834    31.015963       31.016       31.016    29837.116 
 3364000     290.8776   -2200.6045   -23076.601   -24903.477    1826.8762    1.1578834    31.015963       31.016       31.016    29837.116 
 3365000    293.38162   -2195.4767   -23049.896   -24892.499    1842.6028    1.1578834    31.015963       31.016       31.016    29837.116 
 3366000    293.66397   -2776.5866   -22967.853   -24812.229    1844.3762    1.1578834    31.015963       31.016       31.016    29837.116 
 3367000    297.59448   -1846.0608   -23068.348    -24937.41     1869.062    1.1578834    31.015963       31.016       31.016    29837.116 
 3368000    294.82147   -2919.7582   -23024.728   -24876.373    1851.6459    1.1578834    31.015963       31.016       31.016    29837.116 
 3369000    292.74696   -2161.3556   -23008.421   -24847.038    1838.6168    1.1578834    31.015963       31.016       31.016    29837.116 
 3370000    290.69132   -1971.4667   -23074.011   -24899.718    1825.7063    1.1578834    31.015963       31.016       31.016    29837.116 
 3371000    296.29306   -2623.9722   -23072.376   -24933.264    1860.8883    1.1578834    31.015963       31.016       31.016    29837.116 
 3372000    303.18208   -3151.6893   -23015.738   -24919.893    1904.1553    1.1578834    31.015963       31.016       31.016    29837.116 
 3373000    293.32133   -2996.6067   -23051.986   -24894.211    1842.2242    1.1578834    31.015963       31.016       31.016    29837.116 
 3374000    302.78911   -2992.2005   -22968.212   -24869.899    1901.6872    1.1578834    31.015963       31.016       31.016    29837.116 
 3375000    293.78287   -2605.2879   -23003.133   -24848.256    1845.1229    1.1578834    31.015963       31.016       31.016    29837.116 
 3376000    302.16482    -2143.042   -22937.293    -24835.06    1897.7663    1.1578834    31.015963       31.016       31.016    29837.116 
 3377000    298.40446   -1834.0746    -23051.38    -24925.53    1874.1492    1.1578834    31.015963       31.016       31.016    29837.116 
 3378000    306.01809   -2582.2269   -22976.764   -24898.731    1921.9671    1.1578834    31.015963       31.016       31.016    29837.116 
 3379000    294.43295   -1834.6232   -23039.068   -24888.274    1849.2058    1.1578834    31.015963       31.016       31.016    29837.116 
 3380000    295.34198   -1486.6635   -22952.328   -24807.243     1854.915    1.1578834    31.015963       31.016       31.016    29837.116 
 3381000    297.00861   -2495.0771   -23023.251   -24888.633    1865.3824    1.1578834    31.015963       31.016       31.016    29837.116 
 3382000    299.00355   -2698.9675   -22955.886   -24833.798    1877.9118    1.1578834    31.015963       31.016       31.016    29837.116 
 3383000    301.37105   -3526.9023   -22990.704   -24883.485     1892.781    1.1578834    31.015963       31.016       31.016    29837.116 
 3384000    300.57308   -1869.7826    -23037.18   -24924.949    1887.7693    1.1578834    31.015963       31.016       31.016    29837.116 
 3385000    298.94985   -3157.8648   -23004.324   -24881.898    1877.5745    1.1578834    31.015963       31.016       31.016    29837.116 
 3386000    304.25974   -1872.3206   -23033.216    -24944.14    1910.9236    1.1578834    31.015963       31.016       31.016    29837.116 
 3387000    282.54644   -3322.3533   -23001.852   -24776.404    1774.5518    1.1578834    31.015963       31.016       31.016    29837.116 
 3388000    303.07982   -2615.3003   -23066.884   -24970.397    1903.5131    1.1578834    31.015963       31.016       31.016    29837.116 
 3389000    306.15778   -3598.0971   -22987.855     -24910.7    1922.8444    1.1578834    31.015963       31.016       31.016    29837.116 
 3390000    297.71756   -3233.4424   -23057.517   -24927.352     1869.835    1.1578834    31.015963       31.016       31.016    29837.116 
 3391000    299.83411    -3198.332   -23111.692    -24994.82    1883.1282    1.1578834    31.015963       31.016       31.016    29837.116 
 3392000    308.71029   -1559.5781   -22943.895    -24882.77    1938.8756    1.1578834    31.015963       31.016       31.016    29837.116 
 3393000    297.79942   -3031.7262   -23062.245   -24932.594    1870.3491    1.1578834    31.015963       31.016       31.016    29837.116 
 3394000    302.85899   -2372.5613   -22956.953   -24859.079    1902.1261    1.1578834    31.015963       31.016       31.016    29837.116 
 3395000    300.26596   -2339.7593   -23048.191   -24934.032    1885.8404    1.1578834    31.015963       31.016       31.016    29837.116 
 3396000    303.66937   -2223.6757    -22871.02   -24778.235    1907.2158    1.1578834    31.015963       31.016       31.016    29837.116 
 3397000    310.67363   -2822.7248   -22965.742   -24916.949    1951.2065    1.1578834    31.015963       31.016       31.016    29837.116 
 3398000    300.40529   -3787.9286   -22969.516   -24856.232    1886.7155    1.1578834    31.015963       31.016       31.016    29837.116 
 3399000    307.43285   -3010.3006   -22925.772   -24856.624    1930.8525    1.1578834    31.015963       31.016       31.016    29837.116 
 3400000    295.17082   -1969.7536   -23065.688   -24919.528      1853.84    1.1578834    31.015963       31.016       31.016    29837.116 
 3401000    290.81178   -3322.5226   -23100.453   -24926.916    1826.4628    1.1578834    31.015963       31.016       31.016    29837.116 
 3402000    295.98943   -2207.0778   -23072.192   -24931.173    1858.9814    1.1578834    31.015963       31.016       31.016    29837.116 
 3403000    297.81903   -2317.4486   -23146.557   -25017.029    1870.4723    1.1578834    31.015963       31.016       31.016    29837.116 
 3404000     304.6582   -2376.0676   -23062.083    -24975.51    1913.4262    1.1578834    31.015963       31.016       31.016    29837.116 
 3405000     302.9634   -1752.6993   -23002.167   -24904.949    1902.7818    1.1578834    31.015963       31.016       31.016    29837.116 
 3406000    300.52962   -1591.9128   -22961.859   -24849.355    1887.4963    1.1578834    31.015963       31.016       31.016    29837.116 
 3407000    301.19044   -2098.0875   -22935.728   -24827.374    1891.6467    1.1578834    31.015963       31.016       31.016    29837.116 
 3408000     291.8251   -1690.5196   -23040.329   -24873.156     1832.827    1.1578834    31.015963       31.016       31.016    29837.116 
 3409000    292.03124   -1425.8775   -23061.536   -24895.657    1834.1217    1.1578834    31.015963       31.016       31.016    29837.116 
 3410000    288.70606   -2486.7404    -22983.31   -24796.547    1813.2377    1.1578834    31.015963       31.016       31.016    29837.116 
 3411000    300.42525   -3214.4467   -23010.385   -24897.226    1886.8408    1.1578834    31.015963       31.016       31.016    29837.116 
 3412000    312.23875   -3276.0678   -22938.389   -24899.425    1961.0363    1.1578834    31.015963       31.016       31.016    29837.116 
 3413000    296.70829   -2012.5819   -23025.752   -24889.248    1863.4962    1.1578834    31.015963       31.016       31.016    29837.116 
 3414000    297.74857   -2844.3217   -23028.759   -24898.789    1870.0298    1.1578834    31.015963       31.016       31.016    29837.116 
 3415000     298.4026   -2125.3237   -22998.563     -24872.7    1874.1374    1.1578834    31.015963       31.016       31.016    29837.116 
 3416000    296.40778   -2692.9813   -23083.663   -24945.272    1861.6089    1.1578834    31.015963       31.016       31.016    29837.116 
 3417000    289.76085   -1707.5934    -23000.27   -24820.132    1819.8624    1.1578834    31.015963       31.016       31.016    29837.116 
 3418000    297.23614   -2573.2799   -23063.186   -24929.998    1866.8114    1.1578834    31.015963       31.016       31.016    29837.116 
 3419000    298.75212   -2824.3177    -23037.14   -24913.472    1876.3326    1.1578834    31.015963       31.016       31.016    29837.116 
 3420000    300.89999   -2625.6807   -23035.619   -24925.442    1889.8225    1.1578834    31.015963       31.016       31.016    29837.116 
 3421000    296.05689   -3065.9867   -23004.436   -24863.841    1859.4051    1.1578834    31.015963       31.016       31.016    29837.116 
 3422000    297.66497   -2111.6186   -22995.284   -24864.789    1869.5047    1.1578834    31.015963       31.016       31.016    29837.116 
 3423000    299.15824   -2671.3592   -23012.272   -24891.156    1878.8833    1.1578834    31.015963       31.016       31.016    29837.116 
 3424000    298.95997   -1697.2761   -22983.371   -24861.009     1877.638    1.1578834    31.015963       31.016       31.016    29837.116 
 3425000    305.75639   -2249.2673   -22915.513   -24835.837    1920.3234    1.1578834    31.015963       31.016       31.016    29837.116 
 3426000     291.4287   -2111.0515   -22999.679   -24830.016    1830.3374    1.1578834    31.015963       31.016       31.016    29837.116 
 3427000    299.75467   -2792.7668   -22971.908   -24854.537    1882.6292    1.1578834    31.015963       31.016       31.016    29837.116 
 3428000    292.01055   -2183.1768   -23041.437   -24875.428    1833.9918    1.1578834    31.015963       31.016       31.016    29837.116 
 3429000    298.34139   -1938.6621   -22930.091   -24803.844     1873.753    1.1578834    31.015963       31.016       31.016    29837.116 
 3430000    294.65002   -1899.3854    -23038.88   -24889.449    1850.5691    1.1578834    31.015963       31.016       31.016    29837.116 
 3431000    301.14409   -3439.2121   -22910.591   -24801.946    1891.3556    1.1578834    31.015963       31.016       31.016    29837.116 
 3432000    296.26416   -2533.8999    -22971.25   -24831.957    1860.7068    1.1578834    31.015963       31.016       31.016    29837.116 
 3433000     295.1565   -3371.7793   -22985.051   -24838.801    1853.7501    1.1578834    31.015963       31.016       31.016    29837.116 
 3434000    307.92082      -2789.8   -22931.375   -24865.292    1933.9173    1.1578834    31.015963       31.016       31.016    29837.116 
 3435000    293.82332   -2232.2132   -23017.447   -24862.824     1845.377    1.1578834    31.015963       31.016       31.016    29837.116 
 3436000    298.02893    -2011.456   -23078.388   -24950.178    1871.7906    1.1578834    31.015963       31.016       31.016    29837.116 
 3437000    294.08148   -2274.5858   -22973.906   -24820.905    1846.9984    1.1578834    31.015963       31.016       31.016    29837.116 
 3438000     289.2169   -2459.1166    -23008.06   -24824.506    1816.4461    1.1578834    31.015963       31.016       31.016    29837.116 
 3439000    289.31697   -3388.1946   -22995.153   -24812.227    1817.0746    1.1578834    31.015963       31.016       31.016    29837.116 
 3440000    302.26365   -2851.8357   -23031.203    -24929.59     1898.387    1.1578834    31.015963       31.016       31.016    29837.116 
 3441000    300.70708   -2455.6533   -22939.604   -24828.215    1888.6109    1.1578834    31.015963       31.016       31.016    29837.116 
 3442000    296.85522   -2948.0176   -23121.651    -24986.07     1864.419    1.1578834    31.015963       31.016       31.016    29837.116 
 3443000    306.04618   -2527.6003   -23011.959   -24934.103    1922.1435    1.1578834    31.015963       31.016       31.016    29837.116 
 3444000    296.22304   -2389.9252   -23026.639   -24887.087    1860.4486    1.1578834    31.015963       31.016       31.016    29837.116 
 3445000    309.35019   -2929.6737   -22977.522   -24920.417    1942.8945    1.1578834    31.015963       31.016       31.016    29837.116 
 3446000    296.45095   -2806.1953   -23018.616   -24880.496      1861.88    1.1578834    31.015963       31.016       31.016    29837.116 
 3447000    300.01122   -2069.6416   -23013.335   -24897.576    1884.2405    1.1578834    31.015963       31.016       31.016    29837.116 
 3448000    294.60279    -2521.534   -23096.998   -24947.271    1850.2725    1.1578834    31.015963       31.016       31.016    29837.116 
 3449000     296.5025   -2535.9118   -22929.267   -24791.471    1862.2038    1.1578834    31.015963       31.016       31.016    29837.116 
 3450000    294.36915   -2813.7112   -23017.341   -24866.146    1848.8051    1.1578834    31.015963       31.016       31.016    29837.116 
 3451000    296.24268   -1918.4495   -23048.855   -24909.427    1860.5719    1.1578834    31.015963       31.016       31.016    29837.116 
 3452000    301.94083   -3349.6688   -22969.166   -24865.526    1896.3596    1.1578834    31.015963       31.016       31.016    29837.116 
 3453000    298.30678   -3107.7915   -22977.411   -24850.947    1873.5356    1.1578834    31.015963       31.016       31.016    29837.116 
 3454000    302.62126   -3130.1046   -22961.141   -24861.774     1900.633    1.1578834    31.015963       31.016       31.016    29837.116 
 3455000    296.60008   -2703.8143   -23053.782   -24916.599    1862.8166    1.1578834    31.015963       31.016       31.016    29837.116 
 3456000    301.16339   -2918.8685   -22976.132   -24867.609    1891.4768    1.1578834    31.015963       31.016       31.016    29837.116 
 3457000    296.74188   -2898.6448   -23032.204   -24895.911    1863.7072    1.1578834    31.015963       31.016       31.016    29837.116 
 3458000    291.91113   -2810.0485    -22973.16   -24806.527    1833.3674    1.1578834    31.015963       31.016       31.016    29837.116 
 3459000    296.45534   -2154.6741   -23027.526   -24889.434    1861.9075    1.1578834    31.015963       31.016       31.016    29837.116 
 3460000    307.27732   -1869.7668   -22967.579   -24897.454    1929.8757    1.1578834    31.015963       31.016       31.016    29837.116 
 3461000    302.72122   -2252.5842   -22924.444   -24825.704    1901.2608    1.1578834    31.015963       31.016       31.016    29837.116 
 3462000    300.65506    -2878.333   -22913.789   -24802.073    1888.2842    1.1578834    31.015963       31.016       31.016    29837.116 
 3463000     300.4301   -3275.9268   -23019.922   -24906.793    1886.8713    1.1578834    31.015963       31.016       31.016    29837.116 
 3464000    302.96036   -2495.6923   -22915.147    -24817.91    1902.7628    1.1578834    31.015963       31.016       31.016    29837.116 
 3465000    297.37183   -3453.7937   -22943.571   -24811.234    1867.6636    1.1578834    31.015963       31.016       31.016    29837.116 
 3466000    295.63835   -3038.7957   -22984.247   -24841.024    1856.7764    1.1578834    31.015963       31.016       31.016    29837.116 
 3467000    300.66984    -2988.412   -22968.559   -24856.936     1888.377    1.1578834    31.015963       31.016       31.016    29837.116 
 3468000       299.41   -1929.1106   -22942.223   -24822.687    1880.4645    1.1578834    31.015963       31.016       31.016    29837.116 
 3469000    286.54977   -2424.8456   -23130.278   -24929.973     1799.695    1.1578834    31.015963       31.016       31.016    29837.116 
 3470000    306.45071    -3223.432   -22984.562   -24909.246    1924.6841    1.1578834    31.015963       31.016       31.016    29837.116 
 3471000    298.67392   -2490.5082    -23006.87   -24882.712    1875.8415    1.1578834    31.015963       31.016       31.016    29837.116 
 3472000    306.54055   -1879.4134   -22906.515   -24831.764    1925.2484    1.1578834    31.015963       31.016       31.016    29837.116 
 3473000    300.61312   -1943.9005   -22898.122   -24786.143    1888.0208    1.1578834    31.015963       31.016       31.016    29837.116 
 3474000    287.90885   -3767.1295   -23021.478   -24829.709    1808.2308    1.1578834    31.015963       31.016       31.016    29837.116 
 3475000    301.10648   -3463.0488   -22942.087   -24833.206    1891.1193    1.1578834    31.015963       31.016       31.016    29837.116 
 3476000    303.70823   -2561.9006   -22948.153   -24855.613    1907.4598    1.1578834    31.015963       31.016       31.016    29837.116 
 3477000    299.19471   -2071.3619   -22962.371   -24841.483    1879.1124    1.1578834    31.015963       31.016       31.016    29837.116 
 3478000    299.82937   -2448.3226   -22926.393   -24809.492    1883.0984    1.1578834    31.015963       31.016       31.016    29837.116 
 3479000     302.4296   -2234.8625   -22985.052   -24884.481    1899.4293    1.1578834    31.015963       31.016       31.016    29837.116 
 3480000    296.80595   -2624.7707   -22980.764   -24844.874    1864.1096    1.1578834    31.015963       31.016       31.016    29837.116 
 3481000    294.73342   -3551.1967   -23088.082   -24939.175    1851.0929    1.1578834    31.015963       31.016       31.016    29837.116 
 3482000    299.14275   -2898.3992   -22976.116   -24854.902     1878.786    1.1578834    31.015963       31.016       31.016    29837.116 
 3483000    302.91317    -2658.197   -22955.726   -24858.193    1902.4664    1.1578834    31.015963       31.016       31.016    29837.116 
 3484000    295.46354   -2452.8201   -23102.136   -24957.815    1855.6785    1.1578834    31.015963       31.016       31.016    29837.116 
 3485000    293.64423   -3416.4016   -23086.096   -24930.349    1844.2522    1.1578834    31.015963       31.016       31.016    29837.116 
 3486000    292.28814   -2265.6784   -23007.057   -24842.792    1835.7352    1.1578834    31.015963       31.016       31.016    29837.116 
 3487000    302.42984   -2380.7798   -22948.262   -24847.692    1899.4308    1.1578834    31.015963       31.016       31.016    29837.116 
 3488000    303.41619   -2381.8995   -23001.681   -24907.307    1905.6256    1.1578834    31.015963       31.016       31.016    29837.116 
 3489000    294.71149   -2149.3133   -23031.007   -24881.962    1850.9552    1.1578834    31.015963       31.016       31.016    29837.116 
 3490000    294.66807   -3225.8029   -23028.253   -24878.935    1850.6825    1.1578834    31.015963       31.016       31.016    29837.116 
 3491000    291.46724   -2192.0622   -23090.642   -24921.222    1830.5795    1.1578834    31.015963       31.016       31.016    29837.116 
 3492000    293.35794   -2506.2066   -23020.458   -24862.912    1842.4541    1.1578834    31.015963       31.016       31.016    29837.116 
 3493000    306.99428   -2011.8165   -22943.476   -24871.574     1928.098    1.1578834    31.015963       31.016       31.016    29837.116 
 3494000    300.37702    -2995.311   -22983.841   -24870.379    1886.5379    1.1578834    31.015963       31.016       31.016    29837.116 
 3495000    302.99262   -2207.4293   -23017.728   -24920.693    1902.9654    1.1578834    31.015963       31.016       31.016    29837.116 
 3496000    296.40628    -2854.899   -23011.397   -24872.997    1861.5995    1.1578834    31.015963       31.016       31.016    29837.116 
 3497000    314.49775   -1916.2977   -22877.814   -24853.038    1975.2241    1.1578834    31.015963       31.016       31.016    29837.116 
 3498000    306.14474   -2552.1235   -22999.621   -24922.383    1922.7625    1.1578834    31.015963       31.016       31.016    29837.116 
 3499000    296.32374   -2600.0855   -23059.463   -24920.544    1861.0811    1.1578834    31.015963       31.016       31.016    29837.116 
 3500000    291.32737   -3033.3922    -23039.68   -24869.381     1829.701    1.1578834    31.015963       31.016       31.016    29837.116 
 3501000    296.61493   -3373.9619   -23025.382   -24888.291    1862.9099    1.1578834    31.015963       31.016       31.016    29837.116 
 3502000      295.232    -2825.283   -23076.854   -24931.078    1854.2243    1.1578834    31.015963       31.016       31.016    29837.116 
 3503000    292.39544   -2748.8402   -23068.116   -24904.525    1836.4091    1.1578834    31.015963       31.016       31.016    29837.116 
 3504000    296.91251   -2647.9682   -22995.733   -24860.511    1864.7788    1.1578834    31.015963       31.016       31.016    29837.116 
 3505000    298.88038   -1470.9553   -22991.285   -24868.423    1877.1382    1.1578834    31.015963       31.016       31.016    29837.116 
 3506000    293.76095   -2898.9479   -23100.775   -24945.761    1844.9853    1.1578834    31.015963       31.016       31.016    29837.116 
 3507000    297.23463    -2878.015   -22964.269   -24831.071    1866.8019    1.1578834    31.015963       31.016       31.016    29837.116 
 3508000    296.41883   -3657.0522   -23007.707   -24869.385    1861.6782    1.1578834    31.015963       31.016       31.016    29837.116 
 3509000    297.89886   -2800.9412   -22997.306    -24868.28    1870.9737    1.1578834    31.015963       31.016       31.016    29837.116 
 3510000    305.58163   -2560.7634   -23027.862   -24947.088    1919.2258    1.1578834    31.015963       31.016       31.016    29837.116 
 3511000    298.67572   -2816.4071   -23050.149   -24926.001    1875.8528    1.1578834    31.015963       31.016       31.016    29837.116 
 3512000    302.96611    -2713.216   -22930.091    -24832.89    1902.7989    1.1578834    31.015963       31.016       31.016    29837.116 
 3513000    304.41486   -3247.4312   -22977.418   -24889.316    1911.8978    1.1578834    31.015963       31.016       31.016    29837.116 
 3514000    302.60744   -2506.2529   -23002.765   -24903.311    1900.5463    1.1578834    31.015963       31.016       31.016    29837.116 
 3515000     288.7185   -2816.5322   -23027.993   -24841.309    1813.3158    1.1578834    31.015963       31.016       31.016    29837.116 
 3516000    306.68669   -1815.9469   -22909.816   -24835.982    1926.1662    1.1578834    31.015963       31.016       31.016    29837.116 
 3517000    295.82344   -3326.5687   -22986.219   -24844.158    1857.9389    1.1578834    31.015963       31.016       31.016    29837.116 
 3518000    298.04064   -2476.6585   -23013.365   -24885.229    1871.8641    1.1578834    31.015963       31.016       31.016    29837.116 
 3519000    293.05888   -2134.6221   -23100.141   -24940.717    1840.5759    1.1578834    31.015963       31.016       31.016    29837.116 
 3520000    298.34654   -2507.1331   -22992.076   -24865.862    1873.7854    1.1578834    31.015963       31.016       31.016    29837.116 
 3521000    288.90991   -2389.3889   -23108.866   -24923.384     1814.518    1.1578834    31.015963       31.016       31.016    29837.116 
 3522000    295.23246   -2594.3292   -23066.966   -24921.194    1854.2272    1.1578834    31.015963       31.016       31.016    29837.116 
 3523000    307.19348   -2960.6903   -23024.879   -24954.228    1929.3492    1.1578834    31.015963       31.016       31.016    29837.116 
 3524000    296.65459   -2136.1749   -23030.981    -24894.14     1863.159    1.1578834    31.015963       31.016       31.016    29837.116 
 3525000    284.72988   -3323.1272   -23243.902   -25032.167     1788.265    1.1578834    31.015963       31.016       31.016    29837.116 
 3526000    302.30379   -2333.7212   -22934.354   -24832.993    1898.6392    1.1578834    31.015963       31.016       31.016    29837.116 
 3527000    301.77283   -2543.4516   -22989.836    -24885.14    1895.3044    1.1578834    31.015963       31.016       31.016    29837.116 
 3528000    300.07359   -2929.6576    -23030.73   -24915.362    1884.6322    1.1578834    31.015963       31.016       31.016    29837.116 
 3529000    309.47386   -3034.5317     -22933.5   -24877.171    1943.6712    1.1578834    31.015963       31.016       31.016    29837.116 
 3530000    292.31449   -3504.9496   -23071.688   -24907.589    1835.9007    1.1578834    31.015963       31.016       31.016    29837.116 
 3531000    297.78357   -2812.7575   -23148.284   -25018.534    1870.2496    1.1578834    31.015963       31.016       31.016    29837.116 
 3532000    294.26831   -2166.2449   -23017.494   -24865.666    1848.1718    1.1578834    31.015963       31.016       31.016    29837.116 
 3533000    282.18301   -2844.9847   -23149.553   -24921.823    1772.2693    1.1578834    31.015963       31.016       31.016    29837.116 
 3534000    295.90468   -2860.2067    -23024.29   -24882.739    1858.4491    1.1578834    31.015963       31.016       31.016    29837.116 
 3535000    293.79478   -3352.7816   -23135.156   -24980.353    1845.1978    1.1578834    31.015963       31.016       31.016    29837.116 
 3536000    300.38586   -2497.4584   -23051.439   -24938.032    1886.5934    1.1578834    31.015963       31.016       31.016    29837.116 
 3537000    298.44292   -2540.4036   -23013.974   -24888.365    1874.3907    1.1578834    31.015963       31.016       31.016    29837.116 
 3538000    305.16472   -2502.4229   -22916.333   -24832.941    1916.6074    1.1578834    31.015963       31.016       31.016    29837.116 
 3539000    298.23793   -3122.4124   -23005.156   -24878.259    1873.1032    1.1578834    31.015963       31.016       31.016    29837.116 
 3540000    298.74803   -2121.5717   -23006.203    -24882.51    1876.3069    1.1578834    31.015963       31.016       31.016    29837.116 
 3541000    292.19262   -3149.3841   -23009.249   -24844.384    1835.1353    1.1578834    31.015963       31.016       31.016    29837.116 
 3542000    286.04399   -2787.9131   -23099.904   -24896.422    1796.5184    1.1578834    31.015963       31.016       31.016    29837.116 
 3543000    296.12139   -2105.1292   -22992.455   -24852.266    1859.8102    1.1578834    31.015963       31.016       31.016    29837.116 
 3544000    290.49143   -2248.5312    -23049.12    -24873.57    1824.4508    1.1578834    31.015963       31.016       31.016    29837.116 
 3545000    291.51103   -3277.9523   -23041.741   -24872.596    1830.8545    1.1578834    31.015963       31.016       31.016    29837.116 
 3546000    301.67313   -3223.6994   -22939.237   -24833.915    1894.6782    1.1578834    31.015963       31.016       31.016    29837.116 
 3547000    299.07151   -3193.5346    -22982.19   -24860.528    1878.3386    1.1578834    31.015963       31.016       31.016    29837.116 
 3548000    289.49771   -2597.2213    -23023.88    -24842.09    1818.2097    1.1578834    31.015963       31.016       31.016    29837.116 
 3549000    297.83156   -2525.4275   -23000.773   -24871.324     1870.551    1.1578834    31.015963       31.016       31.016    29837.116 
 3550000    302.13114    -2424.399   -23012.473   -24910.028    1897.5548    1.1578834    31.015963       31.016       31.016    29837.116 
 3551000    297.31694   -1762.9418    -23004.45   -24871.769    1867.3189    1.1578834    31.015963       31.016       31.016    29837.116 
 3552000    289.98129   -2947.7866   -23098.341   -24919.588    1821.2469    1.1578834    31.015963       31.016       31.016    29837.116 
 3553000    296.49593   -2386.9217   -23046.678    -24908.84    1862.1625    1.1578834    31.015963       31.016       31.016    29837.116 
 3554000    293.25741   -3091.8636    -23063.71   -24905.533    1841.8227    1.1578834    31.015963       31.016       31.016    29837.116 
 3555000    289.61158    -2335.217   -23064.003   -24882.928    1818.9249    1.1578834    31.015963       31.016       31.016    29837.116 
 3556000    305.87162   -1995.4594    -23015.89   -24936.937    1921.0471    1.1578834    31.015963       31.016       31.016    29837.116 
 3557000    292.31281   -1981.8686   -23108.845   -24944.736    1835.8901    1.1578834    31.015963       31.016       31.016    29837.116 
 3558000    298.93982   -2655.7811   -23096.785   -24974.297    1877.5115    1.1578834    31.015963       31.016       31.016    29837.116 
 3559000    301.34957   -2467.3545   -23080.353   -24972.999    1892.6461    1.1578834    31.015963       31.016       31.016    29837.116 
 3560000    293.73472    -2890.709   -23077.697   -24922.517    1844.8205    1.1578834    31.015963       31.016       31.016    29837.116 
 3561000    297.90405   -2775.0846   -23023.972   -24894.978    1871.0063    1.1578834    31.015963       31.016       31.016    29837.116 
 3562000    300.98208   -2530.2226   -23099.677   -24990.016     1890.338    1.1578834    31.015963       31.016       31.016    29837.116 
 3563000    300.18588   -2990.9543   -22965.448   -24850.785    1885.3374    1.1578834    31.015963       31.016       31.016    29837.116 
 3564000    313.33021   -2687.1595    -22837.01   -24804.901    1967.8913    1.1578834    31.015963       31.016       31.016    29837.116 
 3565000    296.41875   -3340.3198   -22979.321   -24840.999    1861.6777    1.1578834    31.015963       31.016       31.016    29837.116 
 3566000     296.8534   -3003.4142   -23000.849   -24865.256    1864.4076    1.1578834    31.015963       31.016       31.016    29837.116 
 3567000     299.9696   -2165.9753   -23034.026   -24918.005    1883.9791    1.1578834    31.015963       31.016       31.016    29837.116 
 3568000    302.81576   -2774.2461   -22947.179   -24849.034    1901.8546    1.1578834    31.015963       31.016       31.016    29837.116 
 3569000    297.57578   -3303.6758   -22958.738   -24827.683    1868.9446    1.1578834    31.015963       31.016       31.016    29837.116 
 3570000    303.47467   -2213.7566    -22828.05   -24734.043     1905.993    1.1578834    31.015963       31.016       31.016    29837.116 
 3571000     299.8228   -2017.1341   -23006.795   -24889.852    1883.0571    1.1578834    31.015963       31.016       31.016    29837.116 
 3572000     294.1273   -2620.3137   -23010.846   -24858.132    1847.2862    1.1578834    31.015963       31.016       31.016    29837.116 
 3573000    300.61945   -2932.3685   -22943.832   -24831.893    1888.0605    1.1578834    31.015963       31.016       31.016    29837.116 
 3574000     296.6854   -3765.0521   -22936.215   -24799.567    1863.3524    1.1578834    31.015963       31.016       31.016    29837.116 
 3575000    288.93387   -2248.5672   -22978.297   -24792.965    1814.6685    1.1578834    31.015963       31.016       31.016    29837.116 
 3576000    293.70493   -3446.6114   -23010.068   -24854.702    1844.6334    1.1578834    31.015963       31.016       31.016    29837.116 
 3577000    299.37832   -2941.2535   -23010.679   -24890.945    1880.2655    1.1578834    31.015963       31.016       31.016    29837.116 
 3578000    303.07733   -3641.3063   -22930.542   -24834.039    1903.4974    1.1578834    31.015963       31.016       31.016    29837.116 
 3579000    300.03776   -3036.2471   -23029.209   -24913.617    1884.4072    1.1578834    31.015963       31.016       31.016    29837.116 
 3580000     293.0131    -3299.373   -22952.066   -24792.354    1840.2884    1.1578834    31.015963       31.016       31.016    29837.116 
 3581000    296.17473   -2650.0841   -22985.678   -24845.823    1860.1452    1.1578834    31.015963       31.016       31.016    29837.116 
 3582000    304.59784   -2828.9791   -22908.789   -24821.836     1913.047    1.1578834    31.015963       31.016       31.016    29837.116 
 3583000    299.00519   -3602.5931   -23042.994   -24920.916     1877.922    1.1578834    31.015963       31.016       31.016    29837.116 
 3584000     307.6722   -2198.9099   -22892.864    -24825.22    1932.3558    1.1578834    31.015963       31.016       31.016    29837.116 
 3585000    306.54558   -2382.1865    -22926.84    -24852.12      1925.28    1.1578834    31.015963       31.016       31.016    29837.116 
 3586000    292.65812    -2700.658   -23128.729   -24966.788    1838.0589    1.1578834    31.015963       31.016       31.016    29837.116 
 3587000    298.37513   -2273.0568   -22956.915    -24830.88     1873.965    1.1578834    31.015963       31.016       31.016    29837.116 
 3588000      293.605   -3122.2233   -22999.745   -24843.751    1844.0058    1.1578834    31.015963       31.016       31.016    29837.116 
 3589000    304.57058   -2892.4728   -23011.315   -24924.191    1912.8759    1.1578834    31.015963       31.016       31.016    29837.116 
 3590000    293.91155   -3608.4711   -23061.566   -24907.497    1845.9311    1.1578834    31.015963       31.016       31.016    29837.116 
 3591000     299.5245   -2264.3389   -23020.112   -24901.296    1881.1836    1.1578834    31.015963       31.016       31.016    29837.116 
 3592000     293.5422   -2949.5647     -22982.8   -24826.411    1843.6114    1.1578834    31.015963       31.016       31.016    29837.116 
 3593000    304.97048   -1993.4359   -22906.081   -24821.469    1915.3874    1.1578834    31.015963       31.016       31.016    29837.116 
 3594000    299.07095   -3074.7323   -23010.993   -24889.328    1878.3351    1.1578834    31.015963       31.016       31.016    29837.116 
 3595000    301.24707   -2443.9211   -23047.353   -24939.356    1892.0024    1.1578834    31.015963       31.016       31.016    29837.116 
 3596000    299.03875   -2818.8723   -23007.536   -24885.669    1878.1328    1.1578834    31.015963       31.016       31.016    29837.116 
 3597000    295.07565   -1378.0862   -23041.687    -24894.93    1853.2423    1.1578834    31.015963       31.016       31.016    29837.116 
 3598000    301.15529   -2631.5949   -22984.235   -24875.661    1891.4259    1.1578834    31.015963       31.016       31.016    29837.116 
 3599000    300.03232    -2722.103   -22971.493   -24855.866     1884.373    1.1578834    31.015963       31.016       31.016    29837.116 
 3600000    287.19558   -2652.2645   -23019.259    -24823.01     1803.751    1.1578834    31.015963       31.016       31.016    29837.116 
 3601000    302.39936   -2900.8274   -23007.019   -24906.258    1899.2394    1.1578834    31.015963       31.016       31.016    29837.116 
 3602000    304.00923   -1835.4705   -22957.035   -24866.385    1909.3503    1.1578834    31.015963       31.016       31.016    29837.116 
 3603000    300.89582   -2180.4964   -23070.346   -24960.142    1889.7963    1.1578834    31.015963       31.016       31.016    29837.116 
 3604000    295.74439   -3104.1263   -23057.479   -24914.921    1857.4424    1.1578834    31.015963       31.016       31.016    29837.116 
 3605000    302.85764   -2335.3277   -22925.434   -24827.551    1902.1176    1.1578834    31.015963       31.016       31.016    29837.116 
 3606000    293.37196   -3189.4145   -23084.505   -24927.048    1842.5422    1.1578834    31.015963       31.016       31.016    29837.116 
 3607000    303.14988   -3612.5374   -22955.156   -24859.109    1903.9531    1.1578834    31.015963       31.016       31.016    29837.116 
 3608000    301.09092   -3071.6952     -23015.8   -24906.822    1891.0216    1.1578834    31.015963       31.016       31.016    29837.116 
 3609000    304.00833   -3914.5972   -23013.667   -24923.011    1909.3446    1.1578834    31.015963       31.016       31.016    29837.116 
 3610000    286.27952   -3518.3668   -23106.318   -24904.315    1797.9976    1.1578834    31.015963       31.016       31.016    29837.116 
 3611000    293.67932   -2538.6273   -23009.896   -24854.369    1844.4726    1.1578834    31.015963       31.016       31.016    29837.116 
 3612000    290.23381    -2185.201   -23053.439   -24876.272    1822.8328    1.1578834    31.015963       31.016       31.016    29837.116 
 3613000    300.24449    -2174.648   -22893.045    -24778.75    1885.7055    1.1578834    31.015963       31.016       31.016    29837.116 
 3614000    296.94142   -2190.2396    -22991.63    -24856.59    1864.9604    1.1578834    31.015963       31.016       31.016    29837.116 
 3615000    293.79587   -2435.9521   -22957.196   -24802.401    1845.2046    1.1578834    31.015963       31.016       31.016    29837.116 
 3616000    295.15015   -2962.8484   -23017.329    -24871.04    1853.7102    1.1578834    31.015963       31.016       31.016    29837.116 
 3617000    295.03562   -2362.5759   -22979.726   -24832.717    1852.9909    1.1578834    31.015963       31.016       31.016    29837.116 
 3618000    292.87301   -1923.3372   -23038.521   -24877.929    1839.4085    1.1578834    31.015963       31.016       31.016    29837.116 
 3619000    300.60316   -3630.4709    -22940.71   -24828.668    1887.9582    1.1578834    31.015963       31.016       31.016    29837.116 
 3620000    303.99417   -2621.2529    -23051.39   -24960.645    1909.2557    1.1578834    31.015963       31.016       31.016    29837.116 
 3621000    306.24419   -1579.4728   -22957.103    -24880.49    1923.3871    1.1578834    31.015963       31.016       31.016    29837.116 
 3622000    292.47191   -2944.1563   -23028.196   -24865.085    1836.8894    1.1578834    31.015963       31.016       31.016    29837.116 
 3623000    302.37446   -2186.9285   -22870.063   -24769.146     1899.083    1.1578834    31.015963       31.016       31.016    29837.116 
 3624000    289.42219   -2697.3853   -23013.587   -24831.322    1817.7354    1.1578834    31.015963       31.016       31.016    29837.116 
 3625000    298.75658   -2522.9589   -22929.552   -24805.913    1876.3607    1.1578834    31.015963       31.016       31.016    29837.116 
 3626000    293.68099   -3498.7979   -22984.036   -24828.519    1844.4831    1.1578834    31.015963       31.016       31.016    29837.116 
 3627000    296.91703   -3733.4751   -23030.005   -24894.812    1864.8072    1.1578834    31.015963       31.016       31.016    29837.116 
 3628000    293.97777   -3633.3493   -23107.544   -24953.891     1846.347    1.1578834    31.015963       31.016       31.016    29837.116 
 3629000    293.85744   -3066.6054   -22996.384   -24841.975    1845.5913    1.1578834    31.015963       31.016       31.016    29837.116 
 3630000    310.47464   -3298.8999   -22946.242   -24896.198    1949.9567    1.1578834    31.015963       31.016       31.016    29837.116 
 3631000    298.51023   -2283.7705   -22990.461   -24865.275    1874.8134    1.1578834    31.015963       31.016       31.016    29837.116 
 3632000     299.0201   -1939.1317   -22969.169   -24847.185    1878.0157    1.1578834    31.015963       31.016       31.016    29837.116 
 3633000    302.22608   -2203.6669   -22957.732   -24855.883    1898.1511    1.1578834    31.015963       31.016       31.016    29837.116 
 3634000    312.37746   -2865.3561   -22832.832   -24794.739    1961.9075    1.1578834    31.015963       31.016       31.016    29837.116 
 3635000     293.7849    -3313.474   -22953.776   -24798.912    1845.1357    1.1578834    31.015963       31.016       31.016    29837.116 
 3636000    300.50263   -3719.4191   -22953.147   -24840.474    1887.3269    1.1578834    31.015963       31.016       31.016    29837.116 
 3637000    298.81245   -3703.4399   -22988.045   -24864.756    1876.7116    1.1578834    31.015963       31.016       31.016    29837.116 
 3638000    302.22995    -2780.812   -22955.604   -24853.779    1898.1754    1.1578834    31.015963       31.016       31.016    29837.116 
 3639000    301.98752   -3270.9718   -22924.627    -24821.28    1896.6528    1.1578834    31.015963       31.016       31.016    29837.116 
 3640000    290.07829   -2449.2074   -22959.384    -24781.24    1821.8561    1.1578834    31.015963       31.016       31.016    29837.116 
 3641000    287.55903   -4472.0926   -23049.565   -24855.599    1806.0337    1.1578834    31.015963       31.016       31.016    29837.116 
 3642000     294.7267   -3791.9342   -23003.557   -24854.608    1851.0507    1.1578834    31.015963       31.016       31.016    29837.116 
 3643000     309.1483   -3590.0129   -22908.046   -24849.672    1941.6266    1.1578834    31.015963       31.016       31.016    29837.116 
 3644000     291.3679    -3327.833   -23037.008   -24866.963    1829.9556    1.1578834    31.015963       31.016       31.016    29837.116 
 3645000    301.32214   -2803.2614   -23002.316    -24894.79    1892.4738    1.1578834    31.015963       31.016       31.016    29837.116 
 3646000    301.38892   -2690.4892   -23009.828   -24902.722    1892.8933    1.1578834    31.015963       31.016       31.016    29837.116 
 3647000    304.75512   -2597.7771   -22971.358   -24885.393    1914.0349    1.1578834    31.015963       31.016       31.016    29837.116 
 3648000    291.42221   -2612.4128   -23077.244   -24907.541    1830.2966    1.1578834    31.015963       31.016       31.016    29837.116 
 3649000    296.15384   -2262.6931   -22957.257   -24817.271     1860.014    1.1578834    31.015963       31.016       31.016    29837.116 
 3650000    305.73808   -2483.5797   -23053.338   -24973.546    1920.2085    1.1578834    31.015963       31.016       31.016    29837.116 
 3651000    301.38808   -2073.4283   -22963.758   -24856.646     1892.888    1.1578834    31.015963       31.016       31.016    29837.116 
 3652000    284.32969   -3999.3291   -23117.438    -24903.19    1785.7516    1.1578834    31.015963       31.016       31.016    29837.116 
 3653000    297.48154   -3449.3949   -23015.836   -24884.188    1868.3527    1.1578834    31.015963       31.016       31.016    29837.116 
 3654000    312.49219   -3150.8968   -22960.915   -24923.543    1962.6281    1.1578834    31.015963       31.016       31.016    29837.116 
 3655000    296.03812   -2686.8121   -23035.177   -24894.464    1859.2872    1.1578834    31.015963       31.016       31.016    29837.116 
 3656000    288.88708   -2915.7233   -23119.569   -24933.944    1814.3746    1.1578834    31.015963       31.016       31.016    29837.116 
 3657000    300.79631   -2259.9931   -22942.117   -24831.289    1889.1713    1.1578834    31.015963       31.016       31.016    29837.116 
 3658000     304.5394   -2599.2188   -22939.115   -24851.795      1912.68    1.1578834    31.015963       31.016       31.016    29837.116 
 3659000    295.78808   -2872.0729   -22982.783     -24840.5    1857.7168    1.1578834    31.015963       31.016       31.016    29837.116 
 3660000     298.7548   -1909.0635   -22973.467   -24849.817    1876.3495    1.1578834    31.015963       31.016       31.016    29837.116 
 3661000    309.54836   -2606.3955   -22969.211    -24913.35    1944.1392    1.1578834    31.015963       31.016       31.016    29837.116 
 3662000    292.63662   -2936.0569   -23096.697   -24934.621    1837.9238    1.1578834    31.015963       31.016       31.016    29837.116 
 3663000    302.11786   -2422.3629   -23016.668    -24914.14    1897.4714    1.1578834    31.015963       31.016       31.016    29837.116 
 3664000    302.29225   -2821.0525   -23003.162   -24901.729    1898.5667    1.1578834    31.015963       31.016       31.016    29837.116 
 3665000    304.72989   -2364.2037   -22980.836   -24894.713    1913.8764    1.1578834    31.015963       31.016       31.016    29837.116 
 3666000    294.72423   -3072.8017   -23082.917   -24933.952    1851.0352    1.1578834    31.015963       31.016       31.016    29837.116 
 3667000    306.37751   -1901.8667   -22988.177   -24912.401    1924.2244    1.1578834    31.015963       31.016       31.016    29837.116 
 3668000     303.4168   -2182.7467   -22960.392   -24866.021    1905.6295    1.1578834    31.015963       31.016       31.016    29837.116 
 3669000    303.65181   -1649.7324       -22950   -24857.105    1907.1054    1.1578834    31.015963       31.016       31.016    29837.116 
 3670000    294.98254   -2508.7573     -23054.2   -24906.857    1852.6575    1.1578834    31.015963       31.016       31.016    29837.116 
 3671000    296.96174   -2140.1371   -22951.164   -24816.252    1865.0881    1.1578834    31.015963       31.016       31.016    29837.116 
 3672000    289.66615   -2700.6173    -23061.48   -24880.748    1819.2676    1.1578834    31.015963       31.016       31.016    29837.116 
 3673000    294.40342   -2350.0843    -23043.17    -24892.19    1849.0204    1.1578834    31.015963       31.016       31.016    29837.116 
 3674000    305.40426   -3031.1662   -22953.384   -24871.496    1918.1119    1.1578834    31.015963       31.016       31.016    29837.116 
 3675000    294.78241   -2969.3943   -23043.205   -24894.606    1851.4006    1.1578834    31.015963       31.016       31.016    29837.116 
 3676000    309.99989   -3264.9516   -22933.388   -24880.363     1946.975    1.1578834    31.015963       31.016       31.016    29837.116 
 3677000    300.76621   -2064.9454   -23012.232   -24901.214    1888.9823    1.1578834    31.015963       31.016       31.016    29837.116 
 3678000    301.14383     -1973.56   -22969.347   -24860.701    1891.3539    1.1578834    31.015963       31.016       31.016    29837.116 
 3679000    297.04747    -1813.207   -23031.927   -24897.553    1865.6265    1.1578834    31.015963       31.016       31.016    29837.116 
 3680000     300.8982   -2839.9624   -22975.964   -24865.776    1889.8113    1.1578834    31.015963       31.016       31.016    29837.116 
 3681000    308.95984   -2892.3873   -22948.704   -24889.147    1940.4429    1.1578834    31.015963       31.016       31.016    29837.116 
 3682000    296.72899    -2463.588   -22983.465   -24847.091    1863.6262    1.1578834    31.015963       31.016       31.016    29837.116 
 3683000    298.51544   -3257.9537   -23088.823    -24963.67    1874.8462    1.1578834    31.015963       31.016       31.016    29837.116 
 3684000     303.3252   -3525.1008   -23064.836    -24969.89    1905.0542    1.1578834    31.015963       31.016       31.016    29837.116 
 3685000    296.76326   -2288.1491   -23020.823   -24884.665    1863.8415    1.1578834    31.015963       31.016       31.016    29837.116 
 3686000    302.69678   -3323.5165   -22974.064   -24875.171    1901.1074    1.1578834    31.015963       31.016       31.016    29837.116 
 3687000    303.13885   -3204.7304   -22976.604   -24880.488    1903.8838    1.1578834    31.015963       31.016       31.016    29837.116 
 3688000     295.3531   -2981.1364    -23002.79   -24857.775    1854.9849    1.1578834    31.015963       31.016       31.016    29837.116 
 3689000     294.8233   -3103.9573   -23116.931   -24968.589    1851.6574    1.1578834    31.015963       31.016       31.016    29837.116 
 3690000    295.03213   -2823.6515   -23128.056   -24981.025     1852.969    1.1578834    31.015963       31.016       31.016    29837.116 
 3691000    295.97432    -2077.127   -22999.761   -24858.648    1858.8865    1.1578834    31.015963       31.016       31.016    29837.116 
 3692000    299.37316    -2141.228   -22987.773   -24868.007    1880.2331    1.1578834    31.015963       31.016       31.016    29837.116 
 3693000     284.9592   -2902.8545   -23074.357   -24864.063    1789.7053    1.1578834    31.015963       31.016       31.016    29837.116 
 3694000    288.72482   -3228.3202    -23019.26   -24832.616    1813.3555    1.1578834    31.015963       31.016       31.016    29837.116 
 3695000    294.08657   -2282.6798   -23031.061   -24878.091    1847.0303    1.1578834    31.015963       31.016       31.016    29837.116 
 3696000    308.64019   -2113.9379   -22891.577   -24830.013    1938.4353    1.1578834    31.015963       31.016       31.016    29837.116 
 3697000    303.56951   -2895.8383   -22898.069   -24804.658    1906.5886    1.1578834    31.015963       31.016       31.016    29837.116 
 3698000    310.49106   -2359.5486   -22990.522   -24940.582    1950.0598    1.1578834    31.015963       31.016       31.016    29837.116 
 3699000    294.60068   -2541.9903   -23077.177   -24927.437    1850.2592    1.1578834    31.015963       31.016       31.016    29837.116 
 3700000    302.50137   -1913.9365   -23019.214   -24919.094      1899.88    1.1578834    31.015963       31.016       31.016    29837.116 
 3701000    293.65528   -1745.4798   -23056.251   -24900.573    1844.3216    1.1578834    31.015963       31.016       31.016    29837.116 
 3702000    303.26765   -1907.8445   -22986.169   -24890.862    1904.6927    1.1578834    31.015963       31.016       31.016    29837.116 
 3703000    307.90731   -2762.3641   -22843.388   -24777.221    1933.8324    1.1578834    31.015963       31.016       31.016    29837.116 
 3704000    309.29616   -2404.3531   -22933.932   -24876.487    1942.5552    1.1578834    31.015963       31.016       31.016    29837.116 
 3705000    291.83402   -1917.6362   -23102.751   -24935.634    1832.8831    1.1578834    31.015963       31.016       31.016    29837.116 
 3706000    299.80772   -2066.7978   -22961.934   -24844.896    1882.9624    1.1578834    31.015963       31.016       31.016    29837.116 
 3707000    292.93093   -2751.3529    -23040.04   -24879.812    1839.7723    1.1578834    31.015963       31.016       31.016    29837.116 
 3708000    296.40578   -3376.2345   -23027.407   -24889.003    1861.5963    1.1578834    31.015963       31.016       31.016    29837.116 
 3709000    298.34064    -2667.901   -23042.978   -24916.726    1873.7483    1.1578834    31.015963       31.016       31.016    29837.116 
 3710000    301.93186   -2753.9945   -23068.094   -24964.398    1896.3032    1.1578834    31.015963       31.016       31.016    29837.116 
 3711000    304.54582   -3660.3269   -23044.058   -24956.778    1912.7204    1.1578834    31.015963       31.016       31.016    29837.116 
 3712000    293.39762   -3317.8226   -23030.138   -24872.841    1842.7034    1.1578834    31.015963       31.016       31.016    29837.116 
 3713000    303.99743    -2137.533   -22918.693   -24827.969    1909.2762    1.1578834    31.015963       31.016       31.016    29837.116 
 3714000    297.61536   -3171.6578    -23067.57   -24936.763    1869.1931    1.1578834    31.015963       31.016       31.016    29837.116 
 3715000    299.05995   -2706.9557   -23129.462   -25007.728     1878.266    1.1578834    31.015963       31.016       31.016    29837.116 
 3716000    300.85034   -2255.6124   -23021.314   -24910.824    1889.5106    1.1578834    31.015963       31.016       31.016    29837.116 
 3717000    296.84915   -2809.0079   -23109.836   -24974.217    1864.3809    1.1578834    31.015963       31.016       31.016    29837.116 
 3718000    295.05857   -3180.5885   -23015.775    -24868.91     1853.135    1.1578834    31.015963       31.016       31.016    29837.116 
 3719000    289.92174   -2969.9836   -23208.483   -25029.356    1820.8728    1.1578834    31.015963       31.016       31.016    29837.116 
 3720000    299.94408   -1643.1061   -23009.662   -24893.481    1883.8189    1.1578834    31.015963       31.016       31.016    29837.116 
 3721000    293.43276   -3066.9574     -23046.3   -24889.225     1842.924    1.1578834    31.015963       31.016       31.016    29837.116 
 3722000    292.60214   -3165.6418    -23097.91   -24935.617    1837.7072    1.1578834    31.015963       31.016       31.016    29837.116 
 3723000    301.63725   -2659.2575   -22995.937   -24890.389    1894.4529    1.1578834    31.015963       31.016       31.016    29837.116 
 3724000    289.78461   -3203.6261   -23024.805   -24844.817    1820.0116    1.1578834    31.015963       31.016       31.016    29837.116 
 3725000    301.95725   -3108.0249   -22990.035   -24886.497    1896.4627    1.1578834    31.015963       31.016       31.016    29837.116 
 3726000    298.40884   -2887.6175   -22987.542   -24861.719    1874.1766    1.1578834    31.015963       31.016       31.016    29837.116 
 3727000    292.29225   -3233.7778   -23066.784   -24902.545     1835.761    1.1578834    31.015963       31.016       31.016    29837.116 
 3728000    297.20715   -2783.1545   -23111.921    -24978.55    1866.6294    1.1578834    31.015963       31.016       31.016    29837.116 
 3729000    303.00888   -3175.5683   -22901.042    -24804.11    1903.0675    1.1578834    31.015963       31.016       31.016    29837.116 
 3730000    300.24845   -2817.8674    -22947.28    -24833.01    1885.7304    1.1578834    31.015963       31.016       31.016    29837.116 
 3731000    293.16927     -3493.16   -23029.038   -24870.307    1841.2692    1.1578834    31.015963       31.016       31.016    29837.116 
 3732000    306.15761   -2119.4791   -22874.346   -24797.189    1922.8433    1.1578834    31.015963       31.016       31.016    29837.116 
 3733000    308.38126   -1753.3035    -22944.51   -24881.319    1936.8091    1.1578834    31.015963       31.016       31.016    29837.116 
 3734000    308.16659   -2978.2058   -22892.229    -24827.69    1935.4609    1.1578834    31.015963       31.016       31.016    29837.116 
 3735000    291.84787   -3078.1988   -23018.715   -24851.685      1832.97    1.1578834    31.015963       31.016       31.016    29837.116 
 3736000    297.99944   -3172.8951   -22930.013   -24801.619    1871.6054    1.1578834    31.015963       31.016       31.016    29837.116 
 3737000    294.42773   -2546.7689   -23024.638   -24873.811     1849.173    1.1578834    31.015963       31.016       31.016    29837.116 
 3738000    292.57707   -3489.1329   -23091.958   -24929.507    1837.5498    1.1578834    31.015963       31.016       31.016    29837.116 
 3739000    299.70698     -2909.65   -23088.857   -24971.187    1882.3297    1.1578834    31.015963       31.016       31.016    29837.116 
 3740000    294.97416   -2716.1267   -23019.922   -24872.527    1852.6049    1.1578834    31.015963       31.016       31.016    29837.116 
 3741000    299.80093   -2922.9158   -23049.454   -24932.374    1882.9198    1.1578834    31.015963       31.016       31.016    29837.116 
 3742000    302.72775   -2223.1409    -22955.39   -24856.692    1901.3018    1.1578834    31.015963       31.016       31.016    29837.116 
 3743000    285.64483   -1594.5224    -22987.49   -24781.502    1794.0114    1.1578834    31.015963       31.016       31.016    29837.116 
 3744000    297.78742   -2045.6377   -22993.334   -24863.608    1870.2738    1.1578834    31.015963       31.016       31.016    29837.116 
 3745000     303.9501   -2101.9544   -22911.452   -24820.431    1908.9789    1.1578834    31.015963       31.016       31.016    29837.116 
 3746000    305.36272    -2861.667       -23011   -24928.851    1917.8509    1.1578834    31.015963       31.016       31.016    29837.116 
 3747000    297.31721   -2382.2726   -23039.883   -24907.204    1867.3206    1.1578834    31.015963       31.016       31.016    29837.116 
 3748000    290.74722   -2976.6706   -23126.627   -24952.684    1826.0574    1.1578834    31.015963       31.016       31.016    29837.116 
 3749000    290.74056   -2397.5122   -23014.825   -24840.841    1826.0155    1.1578834    31.015963       31.016       31.016    29837.116 
 3750000    287.97213   -2958.1381   -23077.238   -24885.866    1808.6282    1.1578834    31.015963       31.016       31.016    29837.116 
 3751000    302.88054   -1993.5733   -22951.094   -24853.356    1902.2615    1.1578834    31.015963       31.016       31.016    29837.116 
 3752000    296.67904   -2882.6052   -23044.699   -24908.011    1863.3125    1.1578834    31.015963       31.016       31.016    29837.116 
 3753000    296.29633   -2237.2352   -23053.661   -24914.569    1860.9089    1.1578834    31.015963       31.016       31.016    29837.116 
 3754000    303.46444   -4122.7885   -23060.287   -24966.215    1905.9287    1.1578834    31.015963       31.016       31.016    29837.116 
 3755000     303.5064   -2569.8888   -23083.496   -24989.688    1906.1922    1.1578834    31.015963       31.016       31.016    29837.116 
 3756000    288.56551    -2519.069   -23145.917   -24958.272    1812.3549    1.1578834    31.015963       31.016       31.016    29837.116 
 3757000     311.5755   -2397.0606   -23013.679    -24970.55    1956.8707    1.1578834    31.015963       31.016       31.016    29837.116 
 3758000    311.53474   -2832.9507   -22960.804   -24917.419    1956.6147    1.1578834    31.015963       31.016       31.016    29837.116 
 3759000    292.68242   -1870.8242   -22909.809   -24748.021    1838.2115    1.1578834    31.015963       31.016       31.016    29837.116 
 3760000    295.11843   -2459.0219   -23031.436   -24884.947     1853.511    1.1578834    31.015963       31.016       31.016    29837.116 
 3761000    287.18552   -2972.0758   -23080.637   -24884.325    1803.6878    1.1578834    31.015963       31.016       31.016    29837.116 
 3762000     295.9595   -2879.9239   -23088.726    -24947.52    1858.7934    1.1578834    31.015963       31.016       31.016    29837.116 
 3763000    298.53249   -2273.6753   -23160.372   -25035.326    1874.9532    1.1578834    31.015963       31.016       31.016    29837.116 
 3764000      303.775   -2839.2587   -23070.116   -24977.995    1907.8792    1.1578834    31.015963       31.016       31.016    29837.116 
 3765000    294.86726    -3336.026   -23080.204   -24932.138    1851.9335    1.1578834    31.015963       31.016       31.016    29837.116 
 3766000    291.49011   -3304.9499   -23148.208   -24978.931    1830.7231    1.1578834    31.015963       31.016       31.016    29837.116 
 3767000    306.91626   -2333.3223   -22977.865   -24905.473     1927.608    1.1578834    31.015963       31.016       31.016    29837.116 
 3768000    295.98302   -3400.2708   -23035.245   -24894.186    1858.9411    1.1578834    31.015963       31.016       31.016    29837.116 
 3769000    294.30393   -2248.3796   -23075.131   -24923.526    1848.3955    1.1578834    31.015963       31.016       31.016    29837.116 
 3770000    306.09085   -2453.9522   -23032.379   -24954.803     1922.424    1.1578834    31.015963       31.016       31.016    29837.116 
 3771000     300.3691   -2482.1956   -23112.568   -24999.056    1886.4882    1.1578834    31.015963       31.016       31.016    29837.116 
 3772000    295.84507   -2526.2149   -23056.841   -24914.915    1858.0747    1.1578834    31.015963       31.016       31.016    29837.116 
 3773000    298.38852   -2573.2262   -23019.527   -24893.576     1874.049    1.1578834    31.015963       31.016       31.016    29837.116 
 3774000    290.85052   -1856.6518   -22991.034    -24817.74    1826.7061    1.1578834    31.015963       31.016       31.016    29837.116 
 3775000    300.65633   -2307.9469   -22958.735   -24847.027    1888.2921    1.1578834    31.015963       31.016       31.016    29837.116 
 3776000    299.04273   -2834.3886   -23007.461   -24885.619    1878.1578    1.1578834    31.015963       31.016       31.016    29837.116 
 3777000    294.37015   -2381.4538   -23035.363   -24884.174    1848.8114    1.1578834    31.015963       31.016       31.016    29837.116 
 3778000    295.94897   -2678.2633   -22983.994   -24842.722    1858.7273    1.1578834    31.015963       31.016       31.016    29837.116 
 3779000    288.87613   -2816.4291   -23098.103   -24912.408    1814.3058    1.1578834    31.015963       31.016       31.016    29837.116 
 3780000    304.05313   -1956.6771   -22993.492   -24903.117     1909.626    1.1578834    31.015963       31.016       31.016    29837.116 
 3781000    303.36718   -2675.2617   -23013.563   -24918.881    1905.3178    1.1578834    31.015963       31.016       31.016    29837.116 
 3782000    308.14366   -2468.5645   -22999.628   -24934.944    1935.3168    1.1578834    31.015963       31.016       31.016    29837.116 
 3783000    292.67456   -2801.7532   -23077.233   -24915.395    1838.1621    1.1578834    31.015963       31.016       31.016    29837.116 
 3784000    296.30966   -2179.0429   -23082.523   -24943.515    1860.9926    1.1578834    31.015963       31.016       31.016    29837.116 
 3785000    305.97209   -3286.8622   -23008.845   -24930.524    1921.6781    1.1578834    31.015963       31.016       31.016    29837.116 
 3786000    287.90069   -3340.2478   -23240.107   -25048.286    1808.1795    1.1578834    31.015963       31.016       31.016    29837.116 
 3787000    284.59512   -3603.7046   -23068.861    -24856.28    1787.4186    1.1578834    31.015963       31.016       31.016    29837.116 
 3788000    290.54641   -3454.9692   -23075.001   -24899.797    1824.7961    1.1578834    31.015963       31.016       31.016    29837.116 
 3789000    287.63303   -3356.6069   -23198.797   -25005.295    1806.4984    1.1578834    31.015963       31.016       31.016    29837.116 
 3790000    294.76705   -1769.4817   -23043.603   -24894.907    1851.3042    1.1578834    31.015963       31.016       31.016    29837.116 
 3791000    299.13806   -2733.3318   -23088.567   -24967.323    1878.7566    1.1578834    31.015963       31.016       31.016    29837.116 
 3792000    296.11884   -2572.1997   -23002.742   -24862.536    1859.7942    1.1578834    31.015963       31.016       31.016    29837.116 
 3793000    302.99795   -2609.4088    -23009.34   -24912.339    1902.9989    1.1578834    31.015963       31.016       31.016    29837.116 
 3794000    292.88972   -2793.7906   -23074.294   -24913.807    1839.5135    1.1578834    31.015963       31.016       31.016    29837.116 
 3795000    296.52102   -3021.8279   -22947.745   -24810.065    1862.3201    1.1578834    31.015963       31.016       31.016    29837.116 
 3796000    292.22163   -2582.9047   -23008.874   -24844.191    1835.3175    1.1578834    31.015963       31.016       31.016    29837.116 
 3797000    295.55681   -3204.2007   -23029.778   -24886.042    1856.2643    1.1578834    31.015963       31.016       31.016    29837.116 
 3798000    295.44069   -2754.7791   -23102.754   -24958.289     1855.535    1.1578834    31.015963       31.016       31.016    29837.116 
 3799000    302.59426   -2892.9399   -22983.434   -24883.897    1900.4634    1.1578834    31.015963       31.016       31.016    29837.116 
 3800000    299.98646   -2406.5054   -23040.162   -24924.247     1884.085    1.1578834    31.015963       31.016       31.016    29837.116 
 3801000    292.00775   -2999.7872   -23069.508   -24903.482    1833.9742    1.1578834    31.015963       31.016       31.016    29837.116 
 3802000    303.12467   -3462.9422   -23006.262   -24910.056    1903.7947    1.1578834    31.015963       31.016       31.016    29837.116 
 3803000    304.09605   -3399.9194   -23009.466   -24919.361    1909.8955    1.1578834    31.015963       31.016       31.016    29837.116 
 3804000    296.60977   -2695.4247   -23031.638   -24894.516    1862.8775    1.1578834    31.015963       31.016       31.016    29837.116 
 3805000    289.96861   -1546.6688   -23078.822   -24899.989    1821.1672    1.1578834    31.015963       31.016       31.016    29837.116 
 3806000    303.64211   -2999.7205   -23029.801   -24936.846    1907.0445    1.1578834    31.015963       31.016       31.016    29837.116 
 3807000    300.55701   -2375.2557   -23071.644   -24959.312    1887.6684    1.1578834    31.015963       31.016       31.016    29837.116 
 3808000    301.78304   -2833.2266   -23075.412   -24970.781    1895.3686    1.1578834    31.015963       31.016       31.016    29837.116 
 3809000    302.77113   -3726.7732   -23081.397   -24982.972    1901.5743    1.1578834    31.015963       31.016       31.016    29837.116 
 3810000    295.83046   -3003.7346   -23099.907    -24957.89     1857.983    1.1578834    31.015963       31.016       31.016    29837.116 
 3811000    299.39351    -2216.313   -23025.309    -24905.67    1880.3609    1.1578834    31.015963       31.016       31.016    29837.116 
 3812000    301.62191   -3280.9552   -22955.608   -24849.965    1894.3566    1.1578834    31.015963       31.016       31.016    29837.116 
 3813000    298.78485   -2488.9875   -23056.564   -24933.102    1876.5382    1.1578834    31.015963       31.016       31.016    29837.116 
 3814000    294.02886   -2731.9274   -23011.955   -24858.623    1846.6679    1.1578834    31.015963       31.016       31.016    29837.116 
 3815000    297.63317   -2858.2912    -23101.46   -24970.765     1869.305    1.1578834    31.015963       31.016       31.016    29837.116 
 3816000     290.6313   -3184.9217    -23027.86    -24853.19    1825.3293    1.1578834    31.015963       31.016       31.016    29837.116 
 3817000     305.3696   -1962.1485   -23052.432   -24970.326    1917.8942    1.1578834    31.015963       31.016       31.016    29837.116 
 3818000    293.24911   -3055.9306   -23035.728   -24877.498    1841.7706    1.1578834    31.015963       31.016       31.016    29837.116 
 3819000     300.6424     -2674.26   -23027.614   -24915.819    1888.2047    1.1578834    31.015963       31.016       31.016    29837.116 
 3820000    298.21538   -2801.3332   -22995.222   -24868.183    1872.9616    1.1578834    31.015963       31.016       31.016    29837.116 
 3821000    299.15649   -2077.2094   -22994.861   -24873.733    1878.8723    1.1578834    31.015963       31.016       31.016    29837.116 
 3822000    305.12126   -2340.9084   -22886.714   -24803.048    1916.3345    1.1578834    31.015963       31.016       31.016    29837.116 
 3823000    300.88356   -3814.9255   -22997.753   -24887.472    1889.7193    1.1578834    31.015963       31.016       31.016    29837.116 
 3824000    299.96736   -2204.6763   -22947.407   -24831.372     1883.965    1.1578834    31.015963       31.016       31.016    29837.116 
 3825000    303.27412   -2486.9327   -22971.289   -24876.023    1904.7333    1.1578834    31.015963       31.016       31.016    29837.116 
 3826000     293.0002   -2617.8171   -23135.094   -24975.302    1840.2073    1.1578834    31.015963       31.016       31.016    29837.116 
 3827000    296.59186   -3213.1315   -22965.089   -24827.854     1862.765    1.1578834    31.015963       31.016       31.016    29837.116 
 3828000    305.64499   -2486.0655   -23005.554   -24925.177    1919.6238    1.1578834    31.015963       31.016       31.016    29837.116 
 3829000    296.25863   -2584.4478   -23125.525   -24986.197    1860.6721    1.1578834    31.015963       31.016       31.016    29837.116 
 3830000    299.15362   -2279.3358   -22956.022   -24834.876    1878.8543    1.1578834    31.015963       31.016       31.016    29837.116 
 3831000    304.18398   -2610.7424   -23013.836   -24924.283    1910.4478    1.1578834    31.015963       31.016       31.016    29837.116 
 3832000    298.59626   -2647.9216   -22974.641   -24849.995    1875.3538    1.1578834    31.015963       31.016       31.016    29837.116 
 3833000    300.01465   -3072.1888   -23052.743   -24937.005    1884.2621    1.1578834    31.015963       31.016       31.016    29837.116 
 3834000    305.78903    -2542.483   -22889.158   -24809.687    1920.5285    1.1578834    31.015963       31.016       31.016    29837.116 
 3835000    300.13533   -2113.5405   -22993.464   -24878.484      1885.02    1.1578834    31.015963       31.016       31.016    29837.116 
 3836000    292.71141   -2570.2557   -23016.119   -24854.512    1838.3936    1.1578834    31.015963       31.016       31.016    29837.116 
 3837000    290.86276   -2831.0864   -23072.981   -24899.764     1826.783    1.1578834    31.015963       31.016       31.016    29837.116 
 3838000    313.89065   -2259.7606   -22942.663   -24914.074    1971.4112    1.1578834    31.015963       31.016       31.016    29837.116 
 3839000    300.35829   -3125.2255    -22896.89   -24783.311    1886.4203    1.1578834    31.015963       31.016       31.016    29837.116 
 3840000    303.48488   -1922.8465   -22935.795   -24841.852    1906.0571    1.1578834    31.015963       31.016       31.016    29837.116 
 3841000    304.36877    -3061.007   -22950.968   -24862.576    1911.6084    1.1578834    31.015963       31.016       31.016    29837.116 
 3842000    297.28325   -3350.7252   -22963.289   -24830.397    1867.1073    1.1578834    31.015963       31.016       31.016    29837.116 
 3843000    298.57663   -2948.4174   -22939.196   -24814.427    1875.2305    1.1578834    31.015963       31.016       31.016    29837.116 
 3844000    299.07121   -2685.5995    -23042.94   -24921.276    1878.3367    1.1578834    31.015963       31.016       31.016    29837.116 
 3845000    301.67146   -2934.7064   -22949.707   -24844.375    1894.6677    1.1578834    31.015963       31.016       31.016    29837.116 
 3846000     306.6215   -3224.2256   -22989.748   -24915.505    1925.7568    1.1578834    31.015963       31.016       31.016    29837.116 
 3847000    297.59841   -3776.2713   -23034.236   -24903.323    1869.0867    1.1578834    31.015963       31.016       31.016    29837.116 
 3848000    306.83305   -2747.1836   -22930.853   -24857.939    1927.0855    1.1578834    31.015963       31.016       31.016    29837.116 
 3849000    291.97167   -2874.4226   -22995.243   -24828.991    1833.7475    1.1578834    31.015963       31.016       31.016    29837.116 
 3850000    292.73715   -2999.3881   -22985.729   -24824.284    1838.5552    1.1578834    31.015963       31.016       31.016    29837.116 
 3851000    291.98263   -2938.7972   -22998.963   -24832.779    1833.8164    1.1578834    31.015963       31.016       31.016    29837.116 
 3852000    305.54314    -3143.834   -22913.915   -24832.899    1918.9841    1.1578834    31.015963       31.016       31.016    29837.116 
 3853000    297.22416   -3514.5189   -22933.432   -24800.168    1866.7362    1.1578834    31.015963       31.016       31.016    29837.116 
 3854000    291.39229   -2733.0008   -22960.601    -24790.71    1830.1088    1.1578834    31.015963       31.016       31.016    29837.116 
 3855000    301.06537   -1810.4004   -22967.625   -24858.486    1890.8611    1.1578834    31.015963       31.016       31.016    29837.116 
 3856000    288.02899   -3028.6618   -23060.799   -24869.784    1808.9853    1.1578834    31.015963       31.016       31.016    29837.116 
 3857000    299.24947   -2518.1134   -23057.401   -24936.857    1879.4563    1.1578834    31.015963       31.016       31.016    29837.116 
 3858000    295.88546   -3212.2714   -22974.456   -24832.785    1858.3284    1.1578834    31.015963       31.016       31.016    29837.116 
 3859000    291.84063   -2919.4062   -23010.537   -24843.462    1832.9246    1.1578834    31.015963       31.016       31.016    29837.116 
 3860000    300.93128   -3491.4159   -22916.254   -24806.273     1890.019    1.1578834    31.015963       31.016       31.016    29837.116 
 3861000    301.21259   -2667.4649   -22961.481   -24853.267    1891.7858    1.1578834    31.015963       31.016       31.016    29837.116 
 3862000     293.0025   -2518.7695   -23041.285   -24881.507    1840.2218    1.1578834    31.015963       31.016       31.016    29837.116 
 3863000    305.60267   -2639.0559   -22988.964   -24908.322     1919.358    1.1578834    31.015963       31.016       31.016    29837.116 
 3864000    297.99338   -3238.8946   -22997.642    -24869.21    1871.5673    1.1578834    31.015963       31.016       31.016    29837.116 
 3865000    295.22529    -3155.628   -23092.607   -24946.789    1854.1822    1.1578834    31.015963       31.016       31.016    29837.116 
 3866000    302.16285   -2215.3909   -22964.504   -24862.258    1897.7539    1.1578834    31.015963       31.016       31.016    29837.116 
 3867000    307.81982   -2593.5406   -22983.162   -24916.445    1933.2829    1.1578834    31.015963       31.016       31.016    29837.116 
 3868000    293.84392   -2369.2579   -23029.783    -24875.29    1845.5064    1.1578834    31.015963       31.016       31.016    29837.116 
 3869000    291.09491   -3041.8595   -23008.666   -24836.907     1828.241    1.1578834    31.015963       31.016       31.016    29837.116 
 3870000    301.42999   -3322.8088    -23040.45   -24933.601    1893.1512    1.1578834    31.015963       31.016       31.016    29837.116 
 3871000     304.0722   -3467.7739   -22951.382   -24861.128    1909.7458    1.1578834    31.015963       31.016       31.016    29837.116 
 3872000    304.11961    -3507.126   -22939.536   -24849.579    1910.0435    1.1578834    31.015963       31.016       31.016    29837.116 
 3873000    306.19771   -2459.1765   -22955.588   -24878.684    1923.0952    1.1578834    31.015963       31.016       31.016    29837.116 
 3874000    287.77238   -3216.3339   -23056.439   -24863.813    1807.3737    1.1578834    31.015963       31.016       31.016    29837.116 
 3875000    297.55873   -4006.3921   -23068.781   -24937.618    1868.8374    1.1578834    31.015963       31.016       31.016    29837.116 
 3876000    309.66024   -2840.5593   -22950.223   -24895.065    1944.8418    1.1578834    31.015963       31.016       31.016    29837.116 
 3877000    297.33524   -3353.9798   -23036.761   -24904.195    1867.4338    1.1578834    31.015963       31.016       31.016    29837.116 
 3878000    302.13079   -3029.3608   -23020.613   -24918.166    1897.5526    1.1578834    31.015963       31.016       31.016    29837.116 
 3879000    299.45718   -3041.7757    -22932.59   -24813.351    1880.7608    1.1578834    31.015963       31.016       31.016    29837.116 
 3880000    312.02491   -2576.6304   -22876.431   -24836.124    1959.6933    1.1578834    31.015963       31.016       31.016    29837.116 
 3881000    307.80375   -2567.4185   -22996.103   -24929.285     1933.182    1.1578834    31.015963       31.016       31.016    29837.116 
 3882000    294.91458   -2567.9246   -23002.829    -24855.06    1852.2307    1.1578834    31.015963       31.016       31.016    29837.116 
 3883000    301.69538   -3129.5072   -22864.119   -24758.937     1894.818    1.1578834    31.015963       31.016       31.016    29837.116 
 3884000    299.14714   -1615.2152   -22949.292   -24828.106    1878.8136    1.1578834    31.015963       31.016       31.016    29837.116 
 3885000    311.52749   -2889.0055   -22946.989   -24903.558    1956.5692    1.1578834    31.015963       31.016       31.016    29837.116 
 3886000    300.48554   -2190.8301   -23044.824   -24932.044    1887.2195    1.1578834    31.015963       31.016       31.016    29837.116 
 3887000    289.34669   -2483.6137   -23073.572   -24890.833    1817.2612    1.1578834    31.015963       31.016       31.016    29837.116 
 3888000    303.27026   -2694.7872   -22970.508   -24875.217    1904.7091    1.1578834    31.015963       31.016       31.016    29837.116 
 3889000    294.40338   -3286.0476   -23021.532   -24870.552    1849.0201    1.1578834    31.015963       31.016       31.016    29837.116 
 3890000    292.38806   -2543.6286   -23109.951   -24946.313    1836.3628    1.1578834    31.015963       31.016       31.016    29837.116 
 3891000    293.43459   -2720.5209   -23069.847   -24912.783    1842.9355    1.1578834    31.015963       31.016       31.016    29837.116 
 3892000    303.43109    -3049.584   -22927.679   -24833.398    1905.7192    1.1578834    31.015963       31.016       31.016    29837.116 
 3893000    296.06858   -3030.3134   -23012.728   -24872.206    1859.4785    1.1578834    31.015963       31.016       31.016    29837.116 
 3894000    287.47749   -1971.0382   -23052.293   -24857.815    1805.5216    1.1578834    31.015963       31.016       31.016    29837.116 
 3895000    295.67458   -2338.2507   -23004.767   -24861.771    1857.0039    1.1578834    31.015963       31.016       31.016    29837.116 
 3896000     292.2256   -3314.6025   -23072.889   -24908.232    1835.3424    1.1578834    31.015963       31.016       31.016    29837.116 
 3897000    302.80072   -2671.1588   -22967.125   -24868.886    1901.7602    1.1578834    31.015963       31.016       31.016    29837.116 
 3898000    300.61753   -2867.3235    -23024.28   -24912.328    1888.0485    1.1578834    31.015963       31.016       31.016    29837.116 
 3899000    299.13851   -2755.6429   -23098.329   -24977.088    1878.7594    1.1578834    31.015963       31.016       31.016    29837.116 
 3900000    293.29872   -1764.1757   -23072.772   -24914.854    1842.0822    1.1578834    31.015963       31.016       31.016    29837.116 
 3901000    300.78468   -2511.7235   -22904.391   -24793.489    1889.0983    1.1578834    31.015963       31.016       31.016    29837.116 
 3902000    291.29285   -1963.7145   -23037.743   -24867.227    1829.4842    1.1578834    31.015963       31.016       31.016    29837.116 
 3903000    310.03516   -2935.2551   -23015.479   -24962.675    1947.1966    1.1578834    31.015963       31.016       31.016    29837.116 
 3904000    301.61229   -2301.4178   -22962.418   -24856.714    1894.2962    1.1578834    31.015963       31.016       31.016    29837.116 
 3905000    300.03697   -2889.3533   -23016.399   -24900.801    1884.4022    1.1578834    31.015963       31.016       31.016    29837.116 
 3906000    300.09901   -3129.8176   -23051.152   -24935.943    1884.7919    1.1578834    31.015963       31.016       31.016    29837.116 
 3907000    300.19715   -2827.8729   -23070.954   -24956.363    1885.4082    1.1578834    31.015963       31.016       31.016    29837.116 
 3908000    302.63339   -2477.6958   -23080.351    -24981.06    1900.7092    1.1578834    31.015963       31.016       31.016    29837.116 
 3909000    303.73421   -2436.5968    -22932.86   -24840.483     1907.623    1.1578834    31.015963       31.016       31.016    29837.116 
 3910000    301.41393   -2111.3469   -22952.557   -24845.607    1893.0503    1.1578834    31.015963       31.016       31.016    29837.116 
 3911000    300.72269   -2068.5354   -22969.993   -24858.702     1888.709    1.1578834    31.015963       31.016       31.016    29837.116 
 3912000    291.54244   -3045.6554   -23025.389   -24856.441    1831.0517    1.1578834    31.015963       31.016       31.016    29837.116 
 3913000    294.08622   -4196.4714    -23039.37   -24886.398    1847.0282    1.1578834    31.015963       31.016       31.016    29837.116 
 3914000    296.19809   -2793.5947    -22969.02   -24829.312    1860.2919    1.1578834    31.015963       31.016       31.016    29837.116 
 3915000    300.18639   -3664.1835    -23000.41   -24885.751    1885.3407    1.1578834    31.015963       31.016       31.016    29837.116 
 3916000    304.40072   -1796.1975   -22966.827   -24878.636     1911.809    1.1578834    31.015963       31.016       31.016    29837.116 
 3917000    292.80553   -2160.3213   -23143.228   -24982.212    1838.9847    1.1578834    31.015963       31.016       31.016    29837.116 
 3918000    298.56454   -3328.2887   -23040.264   -24915.419    1875.1545    1.1578834    31.015963       31.016       31.016    29837.116 
 3919000    291.11416   -2595.0558   -23098.518    -24926.88    1828.3619    1.1578834    31.015963       31.016       31.016    29837.116 
 3920000    301.93862   -2013.9814   -23063.375   -24959.721    1896.3457    1.1578834    31.015963       31.016       31.016    29837.116 
 3921000    294.51064   -2514.1449   -23055.151   -24904.845    1849.6937    1.1578834    31.015963       31.016       31.016    29837.116 
 3922000    298.68332   -2977.8064   -23149.236   -25025.136    1875.9006    1.1578834    31.015963       31.016       31.016    29837.116 
 3923000    304.95359   -2965.2473   -22905.401   -24820.683    1915.2814    1.1578834    31.015963       31.016       31.016    29837.116 
 3924000    303.30815   -2601.6611   -22987.096   -24892.043    1904.9471    1.1578834    31.015963       31.016       31.016    29837.116 
 3925000    304.99111   -2930.0772   -23051.495   -24967.012     1915.517    1.1578834    31.015963       31.016       31.016    29837.116 
 3926000    300.74246   -2440.8854   -22995.133   -24883.966    1888.8331    1.1578834    31.015963       31.016       31.016    29837.116 
 3927000    301.18166   -2239.0221    -22965.74   -24857.331    1891.5915    1.1578834    31.015963       31.016       31.016    29837.116 
 3928000    298.20779   -2576.5836   -23002.229   -24875.143    1872.9139    1.1578834    31.015963       31.016       31.016    29837.116 
 3929000    306.44537   -2792.6982   -22896.143   -24820.793    1924.6506    1.1578834    31.015963       31.016       31.016    29837.116 
 3930000    297.71548    -2995.146    -22913.17   -24782.992    1869.8219    1.1578834    31.015963       31.016       31.016    29837.116 
 3931000    299.84577   -2825.0589   -23020.546   -24903.747    1883.2014    1.1578834    31.015963       31.016       31.016    29837.116 
 3932000    300.66633   -3094.5686   -22975.899   -24864.254     1888.355    1.1578834    31.015963       31.016       31.016    29837.116 
 3933000    306.37803   -2949.5827   -22939.618   -24863.846    1924.2277    1.1578834    31.015963       31.016       31.016    29837.116 
 3934000    288.81734   -2793.8742   -22957.397   -24771.334    1813.9366    1.1578834    31.015963       31.016       31.016    29837.116 
 3935000     291.1973   -3637.3883   -23045.268   -24874.152    1828.8841    1.1578834    31.015963       31.016       31.016    29837.116 
 3936000     291.6392   -2763.9634    -22988.33    -24819.99    1831.6595    1.1578834    31.015963       31.016       31.016    29837.116 
 3937000    299.23495   -2628.4196   -22965.495    -24844.86    1879.3651    1.1578834    31.015963       31.016       31.016    29837.116 
 3938000    293.90493   -2726.5352   -23120.169   -24966.059    1845.8895    1.1578834    31.015963       31.016       31.016    29837.116 
 3939000    299.17886   -3387.0098   -22976.112   -24855.125    1879.0128    1.1578834    31.015963       31.016       31.016    29837.116 
 3940000    299.43058   -2886.1798   -22997.076    -24877.67    1880.5937    1.1578834    31.015963       31.016       31.016    29837.116 
 3941000    301.17192    -3153.713   -22987.538   -24879.068    1891.5303    1.1578834    31.015963       31.016       31.016    29837.116 
 3942000    299.62684   -2954.8251   -23048.049   -24929.875    1881.8264    1.1578834    31.015963       31.016       31.016    29837.116 
 3943000    288.91429   -2375.9278    -23118.18   -24932.726    1814.5455    1.1578834    31.015963       31.016       31.016    29837.116 
 3944000    294.29875   -3145.5976   -23018.074   -24866.437    1848.3629    1.1578834    31.015963       31.016       31.016    29837.116 
 3945000    291.05021   -3193.2762   -23080.367   -24908.327    1827.9603    1.1578834    31.015963       31.016       31.016    29837.116 
 3946000     297.7758   -3009.9765   -22978.963   -24849.164    1870.2008    1.1578834    31.015963       31.016       31.016    29837.116 
 3947000    285.40316   -3242.0048   -23094.256    -24886.75    1792.4936    1.1578834    31.015963       31.016       31.016    29837.116 
 3948000    302.52238   -2909.7738   -22994.344   -24894.356     1900.012    1.1578834    31.015963       31.016       31.016    29837.116 
 3949000    300.42215   -2407.8011   -22997.727   -24884.548    1886.8214    1.1578834    31.015963       31.016       31.016    29837.116 
 3950000    297.31415   -2867.8565   -22962.378    -24829.68    1867.3014    1.1578834    31.015963       31.016       31.016    29837.116 
 3951000    295.18355   -2361.4997   -23069.503   -24923.423      1853.92    1.1578834    31.015963       31.016       31.016    29837.116 
 3952000    307.27637   -2088.2288   -22994.699   -24924.569    1929.8698    1.1578834    31.015963       31.016       31.016    29837.116 
 3953000    293.27551    -2623.035   -23016.143   -24858.079    1841.9364    1.1578834    31.015963       31.016       31.016    29837.116 
 3954000    293.98103   -4069.7591   -23059.558   -24905.926    1846.3675    1.1578834    31.015963       31.016       31.016    29837.116 
 3955000    296.60427    -3113.906   -23116.878   -24979.721    1862.8429    1.1578834    31.015963       31.016       31.016    29837.116 
 3956000    300.36643   -2802.0426   -23069.128     -24955.6    1886.4714    1.1578834    31.015963       31.016       31.016    29837.116 
 3957000    297.38552    -3503.614   -23030.489   -24898.238    1867.7496    1.1578834    31.015963       31.016       31.016    29837.116 
 3958000    301.83631   -2012.8165    -23065.53   -24961.233    1895.7031    1.1578834    31.015963       31.016       31.016    29837.116 
 3959000    297.15288   -2976.3044   -23062.043   -24928.331    1866.2885    1.1578834    31.015963       31.016       31.016    29837.116 
 3960000    293.43317   -2132.3945    -23035.72   -24878.647    1842.9266    1.1578834    31.015963       31.016       31.016    29837.116 
 3961000    297.62863   -2996.3431   -22987.438   -24856.715    1869.2765    1.1578834    31.015963       31.016       31.016    29837.116 
 3962000    289.46167   -2738.2889   -23113.091   -24931.074    1817.9833    1.1578834    31.015963       31.016       31.016    29837.116 
 3963000    298.50337   -3252.1173   -23049.968   -24924.738    1874.7703    1.1578834    31.015963       31.016       31.016    29837.116 
 3964000    302.87444   -2322.9647   -22993.629   -24895.852    1902.2232    1.1578834    31.015963       31.016       31.016    29837.116 
 3965000    296.75343   -3731.6117   -22981.476   -24845.256    1863.7797    1.1578834    31.015963       31.016       31.016    29837.116 
 3966000    293.86004   -2562.6451   -22982.057   -24827.665    1845.6076    1.1578834    31.015963       31.016       31.016    29837.116 
 3967000    298.06296   -2420.9934   -23007.164   -24879.168    1872.0043    1.1578834    31.015963       31.016       31.016    29837.116 
 3968000    299.72237   -2017.8556   -22942.504    -24824.93    1882.4264    1.1578834    31.015963       31.016       31.016    29837.116 
 3969000    288.32605   -3322.0009   -23046.903   -24857.754     1810.851    1.1578834    31.015963       31.016       31.016    29837.116 
 3970000    299.17998   -3135.5286   -23033.645   -24912.665    1879.0198    1.1578834    31.015963       31.016       31.016    29837.116 
 3971000    296.59994   -3081.1815   -22939.635   -24802.451    1862.8157    1.1578834    31.015963       31.016       31.016    29837.116 
 3972000    290.13629   -1979.5409   -23040.704   -24862.925    1822.2203    1.1578834    31.015963       31.016       31.016    29837.116 
 3973000    300.83897   -2814.6901   -22958.086   -24847.525    1889.4392    1.1578834    31.015963       31.016       31.016    29837.116 
 3974000    301.33867   -2037.6905   -23019.618   -24912.196    1892.5777    1.1578834    31.015963       31.016       31.016    29837.116 
 3975000    302.67291   -3228.8206   -22930.115   -24831.072    1900.9574    1.1578834    31.015963       31.016       31.016    29837.116 
 3976000    298.49832   -1995.4398   -22922.861     -24797.6    1874.7386    1.1578834    31.015963       31.016       31.016    29837.116 
 3977000    297.15863   -3042.7905   -22996.776   -24863.101    1866.3246    1.1578834    31.015963       31.016       31.016    29837.116 
 3978000    285.51872   -2980.9131   -23135.911    -24929.13    1793.2194    1.1578834    31.015963       31.016       31.016    29837.116 
 3979000    291.58797   -2378.0417   -23084.053   -24915.391    1831.3377    1.1578834    31.015963       31.016       31.016    29837.116 
 3980000    298.70783   -3017.1793   -23056.474   -24932.529    1876.0545    1.1578834    31.015963       31.016       31.016    29837.116 
 3981000    298.82843   -4321.6698    -23004.95   -24881.762    1876.8119    1.1578834    31.015963       31.016       31.016    29837.116 
 3982000    302.51845   -3073.7064   -22950.623    -24850.61    1899.9873    1.1578834    31.015963       31.016       31.016    29837.116 
 3983000    293.65087   -2369.8493   -23114.915   -24959.209    1844.2939    1.1578834    31.015963       31.016       31.016    29837.116 
 3984000    303.04608   -3149.3753   -23116.347   -25019.648    1903.3011    1.1578834    31.015963       31.016       31.016    29837.116 
 3985000    298.60613   -2736.3414   -23108.094    -24983.51    1875.4157    1.1578834    31.015963       31.016       31.016    29837.116 
 3986000    297.48034   -2774.7592   -23113.691   -24982.036    1868.3451    1.1578834    31.015963       31.016       31.016    29837.116 
 3987000    293.62345   -2264.6658    -23084.86   -24928.982    1844.1217    1.1578834    31.015963       31.016       31.016    29837.116 
 3988000    301.28213   -3187.7331   -23022.576   -24914.799    1892.2225    1.1578834    31.015963       31.016       31.016    29837.116 
 3989000     292.7799    -2292.036   -23083.803   -24922.627    1838.8237    1.1578834    31.015963       31.016       31.016    29837.116 
 3990000    291.64962   -2786.0215   -23093.277   -24925.001    1831.7249    1.1578834    31.015963       31.016       31.016    29837.116 
 3991000    292.69397   -3273.4338   -23160.949   -24999.233     1838.284    1.1578834    31.015963       31.016       31.016    29837.116 
 3992000    289.20252   -2427.6032   -23124.018   -24940.374    1816.3558    1.1578834    31.015963       31.016       31.016    29837.116 
 3993000    303.07132   -2705.9187   -22906.969   -24810.429    1903.4597    1.1578834    31.015963       31.016       31.016    29837.116 
 3994000    297.24512   -2844.7135   -23000.309   -24867.177    1866.8678    1.1578834    31.015963       31.016       31.016    29837.116 
 3995000    292.58092   -3153.6988   -23011.538   -24849.112     1837.574    1.1578834    31.015963       31.016       31.016    29837.116 
 3996000    301.38774   -2795.0975   -23073.903   -24966.789    1892.8859    1.1578834    31.015963       31.016       31.016    29837.116 
 3997000    294.33381   -2815.6203   -23011.701   -24860.284    1848.5832    1.1578834    31.015963       31.016       31.016    29837.116 
 3998000    292.83323   -2960.1689   -23067.968   -24907.127    1839.1587    1.1578834    31.015963       31.016       31.016    29837.116 
 3999000    298.25873   -3477.7474   -23109.035   -24982.269    1873.2339    1.1578834    31.015963       31.016       31.016    29837.116 
 4000000    295.03574   -2115.2599   -23068.664   -24921.655    1852.9917    1.1578834    31.015963       31.016       31.016    29837.116 
 4001000    301.61723   -2643.5845   -23036.251   -24930.579    1894.3271    1.1578834    31.015963       31.016       31.016    29837.116 
 4002000    297.60418   -3063.6364    -23137.56   -25006.683    1869.1229    1.1578834    31.015963       31.016       31.016    29837.116 
 4003000    300.61993   -2498.9455   -23066.258   -24954.322    1888.0635    1.1578834    31.015963       31.016       31.016    29837.116 
 4004000    294.99765   -2355.4822   -23010.653   -24863.406    1852.7524    1.1578834    31.015963       31.016       31.016    29837.116 
 4005000    293.10781   -2983.9084   -23067.311   -24908.194    1840.8832    1.1578834    31.015963       31.016       31.016    29837.116 
 4006000    298.12413   -2111.8627     -23055.3   -24927.688    1872.3885    1.1578834    31.015963       31.016       31.016    29837.116 
 4007000    293.38774   -3259.9581   -23058.581   -24901.223    1842.6413    1.1578834    31.015963       31.016       31.016    29837.116 
 4008000    287.85224   -2624.8285   -23123.727   -24931.602    1807.8752    1.1578834    31.015963       31.016       31.016    29837.116 
 4009000    290.27408   -3160.0849   -23178.798   -25001.884    1823.0857    1.1578834    31.015963       31.016       31.016    29837.116 
 4010000    300.41966   -2469.2611   -23085.653   -24972.459    1886.8057    1.1578834    31.015963       31.016       31.016    29837.116 
 4011000    284.67743   -3493.7617   -23153.353   -24941.289    1787.9356    1.1578834    31.015963       31.016       31.016    29837.116 
 4012000    309.82232   -2852.1286    -22939.47    -24885.33    1945.8597    1.1578834    31.015963       31.016       31.016    29837.116 
 4013000    298.87936   -2753.4836     -22919.1   -24796.232    1877.1318    1.1578834    31.015963       31.016       31.016    29837.116 
 4014000    297.77988   -2247.8101   -23029.009   -24899.235    1870.2264    1.1578834    31.015963       31.016       31.016    29837.116 
 4015000     306.5682   -2968.8677   -22950.404   -24875.826    1925.4221    1.1578834    31.015963       31.016       31.016    29837.116 
 4016000    297.87005   -2456.4773   -23019.139   -24889.931    1870.7928    1.1578834    31.015963       31.016       31.016    29837.116 
 4017000    298.74713   -2657.5419   -23100.123   -24976.425    1876.3013    1.1578834    31.015963       31.016       31.016    29837.116 
 4018000    300.75282   -3569.6264   -22927.714   -24816.612    1888.8981    1.1578834    31.015963       31.016       31.016    29837.116 
 4019000    296.13476   -1588.0755    -23005.02   -24864.914    1859.8941    1.1578834    31.015963       31.016       31.016    29837.116 
 4020000    302.59067   -2335.2879   -22948.347   -24848.788    1900.4409    1.1578834    31.015963       31.016       31.016    29837.116 
 4021000    305.53105   -2650.8689   -23013.259   -24932.167    1918.9082    1.1578834    31.015963       31.016       31.016    29837.116 
 4022000    300.18133   -2689.8975    -22991.73   -24877.039    1885.3089    1.1578834    31.015963       31.016       31.016    29837.116 
 4023000     298.3677   -3116.1571   -22993.791    -24867.71    1873.9183    1.1578834    31.015963       31.016       31.016    29837.116 
 4024000    295.55337   -2286.8553   -22961.567    -24817.81    1856.2427    1.1578834    31.015963       31.016       31.016    29837.116 
 4025000    302.55402   -2416.7746   -22979.843   -24880.053    1900.2107    1.1578834    31.015963       31.016       31.016    29837.116 
 4026000    293.90917   -2730.8545    -22988.59   -24834.506    1845.9162    1.1578834    31.015963       31.016       31.016    29837.116 
 4027000    293.66427   -2133.3911   -23071.655   -24916.033     1844.378    1.1578834    31.015963       31.016       31.016    29837.116 
 4028000      296.167   -2344.1937    -22954.81   -24814.907    1860.0966    1.1578834    31.015963       31.016       31.016    29837.116 
 4029000    294.62083   -1554.8281   -23002.177   -24852.562    1850.3858    1.1578834    31.015963       31.016       31.016    29837.116 
 4030000    293.60492      -2629.7   -22969.054    -24813.06    1844.0053    1.1578834    31.015963       31.016       31.016    29837.116 
 4031000    290.57974   -2858.6604   -22993.627   -24818.633    1825.0054    1.1578834    31.015963       31.016       31.016    29837.116 
 4032000    308.38534   -2916.0238   -22794.494   -24731.328    1936.8347    1.1578834    31.015963       31.016       31.016    29837.116 
 4033000    308.88167    -2492.356   -22901.844   -24841.796    1939.9519    1.1578834    31.015963       31.016       31.016    29837.116 
 4034000    291.05228   -2750.2937   -23044.125   -24872.098    1827.9733    1.1578834    31.015963       31.016       31.016    29837.116 
 4035000    306.83806   -2639.6878    -22956.15   -24883.267    1927.1169    1.1578834    31.015963       31.016       31.016    29837.116 
 4036000    290.81644   -2299.3093   -23066.075   -24892.567     1826.492    1.1578834    31.015963       31.016       31.016    29837.116 
 4037000    302.61602   -3174.8005   -22980.785   -24881.385    1900.6001    1.1578834    31.015963       31.016       31.016    29837.116 
 4038000    298.63902   -2964.3542   -22966.927   -24842.549    1875.6223    1.1578834    31.015963       31.016       31.016    29837.116 
 4039000    303.32487   -2832.0257   -22921.503   -24826.555    1905.0521    1.1578834    31.015963       31.016       31.016    29837.116 
 4040000    302.84155   -2316.4831   -22911.126   -24813.143    1902.0166    1.1578834    31.015963       31.016       31.016    29837.116 
 4041000    299.95904   -3298.1651   -22959.835   -24843.748    1883.9128    1.1578834    31.015963       31.016       31.016    29837.116 
 4042000    295.25503   -2502.4346   -22980.902   -24835.271     1854.369    1.1578834    31.015963       31.016       31.016    29837.116 
 4043000    296.04096   -3072.0317   -23131.024   -24990.329     1859.305    1.1578834    31.015963       31.016       31.016    29837.116 
 4044000    305.89736    -3051.228   -23001.652   -24922.861    1921.2088    1.1578834    31.015963       31.016       31.016    29837.116 
 4045000    300.34542   -2830.5144   -23015.982   -24902.321    1886.3395    1.1578834    31.015963       31.016       31.016    29837.116 
 4046000    292.29907   -2554.1452   -23056.688   -24892.492    1835.8039    1.1578834    31.015963       31.016       31.016    29837.116 
 4047000    294.92136   -3135.4169   -23032.503   -24884.776    1852.2733    1.1578834    31.015963       31.016       31.016    29837.116 
 4048000    288.83728   -2296.4896   -23095.991   -24910.052    1814.0618    1.1578834    31.015963       31.016       31.016    29837.116 
 4049000    294.29597   -3064.7418   -23034.282   -24882.627    1848.3455    1.1578834    31.015963       31.016       31.016    29837.116 
 4050000    306.00211   -2734.0626    -22966.71   -24888.576    1921.8667    1.1578834    31.015963       31.016       31.016    29837.116 
 4051000    301.43361   -2173.9645    -23015.99   -24909.164    1893.1739    1.1578834    31.015963       31.016       31.016    29837.116 
 4052000    294.44962   -3367.2034   -23062.467   -24911.777    1849.3105    1.1578834    31.015963       31.016       31.016    29837.116 
 4053000     299.5985   -2624.2391   -22968.028   -24849.676    1881.6484    1.1578834    31.015963       31.016       31.016    29837.116 
 4054000     290.8968   -1895.2544   -23099.824   -24926.821    1826.9968    1.1578834    31.015963       31.016       31.016    29837.116 
 4055000    300.77623   -2533.8988   -22995.081   -24884.127    1889.0452    1.1578834    31.015963       31.016       31.016    29837.116 
 4056000    302.43661   -3974.7354    -22933.73   -24833.203    1899.4733    1.1578834    31.015963       31.016       31.016    29837.116 
 4057000    296.84673   -3581.5247   -22957.476   -24821.842    1864.3657    1.1578834    31.015963       31.016       31.016    29837.116 
 4058000    297.85786   -2034.6803   -22968.454   -24839.171    1870.7162    1.1578834    31.015963       31.016       31.016    29837.116 
 4059000    291.47621   -2351.1112   -23077.749   -24908.384    1830.6358    1.1578834    31.015963       31.016       31.016    29837.116 
 4060000     298.7856   -3340.5719   -23020.101   -24896.644    1876.5429    1.1578834    31.015963       31.016       31.016    29837.116 
 4061000    309.00505   -2903.3644   -22940.241   -24880.968    1940.7269    1.1578834    31.015963       31.016       31.016    29837.116 
 4062000    301.47238   -2708.5461   -23007.805   -24901.223    1893.4174    1.1578834    31.015963       31.016       31.016    29837.116 
 4063000    288.40882   -3152.4432   -23118.716   -24930.087    1811.3708    1.1578834    31.015963       31.016       31.016    29837.116 
 4064000    293.23937   -3331.1786   -23104.923   -24946.632    1841.7095    1.1578834    31.015963       31.016       31.016    29837.116 
 4065000    297.10157   -2799.7219   -23066.346   -24932.312    1865.9662    1.1578834    31.015963       31.016       31.016    29837.116 
 4066000    295.93104    -3150.504   -23040.024   -24898.638    1858.6146    1.1578834    31.015963       31.016       31.016    29837.116 
 4067000    290.83911   -2790.0315   -23022.681   -24849.315    1826.6345    1.1578834    31.015963       31.016       31.016    29837.116 
 4068000    306.98145   -1975.5283   -22871.905   -24799.923    1928.0175    1.1578834    31.015963       31.016       31.016    29837.116 
 4069000    304.33684   -2808.8719    -23051.05   -24962.458    1911.4078    1.1578834    31.015963       31.016       31.016    29837.116 
 4070000    302.67057   -3756.5175   -23028.423   -24929.366    1900.9427    1.1578834    31.015963       31.016       31.016    29837.116 
 4071000    310.84506   -2630.3885   -22939.825   -24892.108    1952.2831    1.1578834    31.015963       31.016       31.016    29837.116 
 4072000    296.40501   -2663.5721    -23060.13   -24921.721    1861.5915    1.1578834    31.015963       31.016       31.016    29837.116 
 4073000     303.7269   -2817.8144   -22895.608   -24803.185    1907.5771    1.1578834    31.015963       31.016       31.016    29837.116 
 4074000    298.68905   -2307.2482   -22966.624    -24842.56    1875.9365    1.1578834    31.015963       31.016       31.016    29837.116 
 4075000    301.26549   -2321.6889   -23012.061   -24904.179     1892.118    1.1578834    31.015963       31.016       31.016    29837.116 
 4076000    302.80247   -3569.5597    -22980.39   -24882.161    1901.7711    1.1578834    31.015963       31.016       31.016    29837.116 
 4077000    295.69556   -3350.6194   -23007.502   -24864.637    1857.1357    1.1578834    31.015963       31.016       31.016    29837.116 
 4078000    300.23081   -2126.0682   -22895.866   -24781.486    1885.6197    1.1578834    31.015963       31.016       31.016    29837.116 
 4079000    296.07605   -2683.2066   -22977.577   -24837.103    1859.5254    1.1578834    31.015963       31.016       31.016    29837.116 
 4080000     301.9463   -1978.7336   -22837.111   -24733.505    1896.3939    1.1578834    31.015963       31.016       31.016    29837.116 
 4081000     296.0418   -2421.7876   -23024.424   -24883.734    1859.3103    1.1578834    31.015963       31.016       31.016    29837.116 
 4082000    293.32094    -3133.872   -23035.196   -24877.417    1842.2218    1.1578834    31.015963       31.016       31.016    29837.116 
 4083000    301.08691   -1867.2201   -22957.902   -24848.899    1890.9964    1.1578834    31.015963       31.016       31.016    29837.116 
 4084000    293.62388   -2425.9737   -23117.075     -24961.2    1844.1244    1.1578834    31.015963       31.016       31.016    29837.116 
 4085000    300.94799   -2986.7133   -23053.495   -24943.619    1890.1239    1.1578834    31.015963       31.016       31.016    29837.116 
 4086000    293.50142   -2348.9932   -22948.589   -24791.945    1843.3553    1.1578834    31.015963       31.016       31.016    29837.116 
 4087000    299.17998   -3272.0949   -22971.668   -24850.688    1879.0198    1.1578834    31.015963       31.016       31.016    29837.116 
 4088000    292.19979   -3381.3806   -23067.387   -24902.567    1835.1803    1.1578834    31.015963       31.016       31.016    29837.116 
 4089000    286.11251    -2827.089   -23029.082   -24826.031    1796.9487    1.1578834    31.015963       31.016       31.016    29837.116 
 4090000    302.63202   -2523.9371   -22965.575   -24866.275    1900.7006    1.1578834    31.015963       31.016       31.016    29837.116 
 4091000    304.15508   -3203.4637   -22996.811   -24907.078    1910.2663    1.1578834    31.015963       31.016       31.016    29837.116 
 4092000    290.58994   -2962.9564   -23068.694   -24893.763    1825.0695    1.1578834    31.015963       31.016       31.016    29837.116 
 4093000    289.61828   -3858.4724   -23124.696   -24943.663     1818.967    1.1578834    31.015963       31.016       31.016    29837.116 
 4094000    306.57425   -2557.7155   -22920.046   -24845.506    1925.4601    1.1578834    31.015963       31.016       31.016    29837.116 
 4095000    297.20248   -3070.8413   -23039.957   -24906.557       1866.6    1.1578834    31.015963       31.016       31.016    29837.116 
 4096000    296.15284   -3532.4255   -22940.404   -24800.411    1860.0077    1.1578834    31.015963       31.016       31.016    29837.116 
 4097000    301.83864   -2869.7615   -22935.954   -24831.672    1895.7178    1.1578834    31.015963       31.016       31.016    29837.116 
 4098000    289.59361    -3758.478   -22960.481   -24779.293     1818.812    1.1578834    31.015963       31.016       31.016    29837.116 
 4099000     290.1289   -2365.2358   -23026.796    -24848.97    1822.1739    1.1578834    31.015963       31.016       31.016    29837.116 
 4100000    302.62035   -2959.2574   -22891.808   -24792.435    1900.6273    1.1578834    31.015963       31.016       31.016    29837.116 
 4101000    303.05103   -3239.6449   -22957.329   -24860.661    1903.3323    1.1578834    31.015963       31.016       31.016    29837.116 
 4102000    290.78923   -3371.4138   -22973.483   -24799.804    1826.3212    1.1578834    31.015963       31.016       31.016    29837.116 
 4103000    305.18832   -3138.3967   -22953.402   -24870.158    1916.7556    1.1578834    31.015963       31.016       31.016    29837.116 
 4104000    301.21233   -3224.1367   -23043.721   -24935.505    1891.7842    1.1578834    31.015963       31.016       31.016    29837.116 
 4105000    295.36161   -2952.9711   -23058.627   -24913.665    1855.0383    1.1578834    31.015963       31.016       31.016    29837.116 
 4106000    298.38193   -2190.8469   -22938.483   -24812.491    1874.0076    1.1578834    31.015963       31.016       31.016    29837.116 
 4107000    289.57534   -3435.5795   -23070.692   -24889.389    1818.6973    1.1578834    31.015963       31.016       31.016    29837.116 
 4108000    297.06001    -2137.612   -22945.774    -24811.48    1865.7052    1.1578834    31.015963       31.016       31.016    29837.116 
 4109000    292.28146   -2332.6261   -23017.209   -24852.902    1835.6932    1.1578834    31.015963       31.016       31.016    29837.116 
 4110000    294.92373   -3106.0272   -23064.802    -24917.09    1852.2882    1.1578834    31.015963       31.016       31.016    29837.116 
 4111000    286.69707   -3143.2599   -23025.637   -24826.257    1800.6201    1.1578834    31.015963       31.016       31.016    29837.116 
 4112000    287.65158   -3026.8212   -23028.463   -24835.078    1806.6149    1.1578834    31.015963       31.016       31.016    29837.116 
 4113000    301.08018   -2455.9736   -22986.448   -24877.402    1890.9542    1.1578834    31.015963       31.016       31.016    29837.116 
 4114000    301.35178   -3000.4942   -22958.021   -24850.681      1892.66    1.1578834    31.015963       31.016       31.016    29837.116 
 4115000    291.98826   -2461.6791   -23031.308    -24865.16    1833.8518    1.1578834    31.015963       31.016       31.016    29837.116 
 4116000    298.34079   -2973.6162   -22974.689   -24848.438    1873.7493    1.1578834    31.015963       31.016       31.016    29837.116 
 4117000    301.86284   -2510.4108   -22951.774   -24847.644    1895.8698    1.1578834    31.015963       31.016       31.016    29837.116 
 4118000    286.16284    -3677.062   -23084.343   -24881.608    1797.2648    1.1578834    31.015963       31.016       31.016    29837.116 
 4119000    301.50815    -2630.761   -22959.115   -24852.757    1893.6421    1.1578834    31.015963       31.016       31.016    29837.116 
 4120000    294.52108   -3440.2335   -23016.969   -24866.728    1849.7593    1.1578834    31.015963       31.016       31.016    29837.116 
 4121000    304.46745   -2223.2773   -22886.432    -24798.66    1912.2281    1.1578834    31.015963       31.016       31.016    29837.116 
 4122000    296.39199   -2590.5784   -23009.804   -24871.314    1861.5097    1.1578834    31.015963       31.016       31.016    29837.116 
 4123000     298.2424   -3297.8395   -22986.522   -24859.653    1873.1313    1.1578834    31.015963       31.016       31.016    29837.116 
 4124000    304.21853   -2654.6174   -22915.003   -24825.668    1910.6648    1.1578834    31.015963       31.016       31.016    29837.116 
 4125000    309.07807   -2773.3559   -22949.935   -24891.121    1941.1854    1.1578834    31.015963       31.016       31.016    29837.116 
 4126000    291.19394   -3398.4588   -23060.243   -24889.106     1828.863    1.1578834    31.015963       31.016       31.016    29837.116 
 4127000    299.55258   -2920.8212   -22959.942   -24841.302      1881.36    1.1578834    31.015963       31.016       31.016    29837.116 
 4128000    305.18117   -2648.2124   -22912.676   -24829.387    1916.7107    1.1578834    31.015963       31.016       31.016    29837.116 
 4129000    294.52148   -3363.1351   -22982.873   -24832.635    1849.7618    1.1578834    31.015963       31.016       31.016    29837.116 
 4130000    302.27149   -3099.9811   -22880.763   -24779.199    1898.4363    1.1578834    31.015963       31.016       31.016    29837.116 
 4131000    299.72893   -2797.4836   -23008.183    -24890.65    1882.4676    1.1578834    31.015963       31.016       31.016    29837.116 
 4132000     309.3778   -2657.1341   -22842.647   -24785.715    1943.0679    1.1578834    31.015963       31.016       31.016    29837.116 
 4133000    293.22768   -2244.3703   -22975.346   -24816.982     1841.636    1.1578834    31.015963       31.016       31.016    29837.116 
 4134000    297.72254   -2993.7079   -22885.126   -24754.992    1869.8663    1.1578834    31.015963       31.016       31.016    29837.116 
 4135000    292.86442   -3120.6125   -23058.746   -24898.101    1839.3545    1.1578834    31.015963       31.016       31.016    29837.116 
 4136000     296.0117    -2852.418   -22956.329    -24815.45    1859.1213    1.1578834    31.015963       31.016       31.016    29837.116 
 4137000     302.3382    -2037.888   -22944.926   -24843.782    1898.8553    1.1578834    31.015963       31.016       31.016    29837.116 
 4138000    297.20391   -2686.5764   -22956.799   -24823.408     1866.609    1.1578834    31.015963       31.016       31.016    29837.116 
 4139000    303.42097   -3191.1199   -22917.094    -24822.75    1905.6557    1.1578834    31.015963       31.016       31.016    29837.116 
 4140000    296.59316   -2045.1021   -23021.455   -24884.228    1862.7732    1.1578834    31.015963       31.016       31.016    29837.116 
 4141000    288.11825   -2678.0577   -23031.324    -24840.87    1809.5459    1.1578834    31.015963       31.016       31.016    29837.116 
 4142000    299.74266   -2133.6951   -22959.194   -24841.748    1882.5538    1.1578834    31.015963       31.016       31.016    29837.116 
 4143000    302.01608   -2248.9193   -23024.317   -24921.149    1896.8322    1.1578834    31.015963       31.016       31.016    29837.116 
 4144000    289.16166   -2118.6398   -23036.083   -24852.182    1816.0991    1.1578834    31.015963       31.016       31.016    29837.116 
 4145000     305.1363   -2564.8269   -22883.065   -24799.494    1916.4289    1.1578834    31.015963       31.016       31.016    29837.116 
 4146000     292.2769   -2901.9557   -22992.337   -24828.002    1835.6646    1.1578834    31.015963       31.016       31.016    29837.116 
 4147000    292.15088   -2694.7423   -23072.737    -24907.61    1834.8731    1.1578834    31.015963       31.016       31.016    29837.116 
 4148000    299.25547   -2471.5645   -22932.338   -24811.832     1879.494    1.1578834    31.015963       31.016       31.016    29837.116 
 4149000    293.68375   -3432.6263    -23038.94    -24883.44    1844.5004    1.1578834    31.015963       31.016       31.016    29837.116 
 4150000    301.10175   -2804.9429   -22918.006   -24809.096    1891.0896    1.1578834    31.015963       31.016       31.016    29837.116 
 4151000    298.83438    -3069.843   -23004.307   -24881.157    1876.8493    1.1578834    31.015963       31.016       31.016    29837.116 
 4152000    300.51984   -3471.8464   -22960.456   -24847.891    1887.4349    1.1578834    31.015963       31.016       31.016    29837.116 
 4153000    298.24114    -2586.057   -22971.591   -24844.714    1873.1234    1.1578834    31.015963       31.016       31.016    29837.116 
 4154000    294.63889   -3708.9783   -22958.807   -24809.307    1850.4992    1.1578834    31.015963       31.016       31.016    29837.116 
 4155000    303.91488   -3059.4571   -22989.566   -24898.323    1908.7577    1.1578834    31.015963       31.016       31.016    29837.116 
 4156000     301.3913   -2599.9561   -22905.687   -24798.595    1892.9082    1.1578834    31.015963       31.016       31.016    29837.116 
 4157000    299.50229   -2698.0039   -22936.276    -24817.32    1881.0442    1.1578834    31.015963       31.016       31.016    29837.116 
 4158000     302.7683   -2556.5068   -22918.775   -24820.331    1901.5565    1.1578834    31.015963       31.016       31.016    29837.116 
 4159000    289.55285   -3057.9657   -23025.324    -24843.88     1818.556    1.1578834    31.015963       31.016       31.016    29837.116 
 4160000     297.3036   -3149.7392   -23002.023   -24869.258    1867.2351    1.1578834    31.015963       31.016       31.016    29837.116 
 4161000    298.98773   -2788.0821   -22984.217    -24862.03    1877.8124    1.1578834    31.015963       31.016       31.016    29837.116 
 4162000    309.84125   -2842.1469   -22894.555   -24840.533    1945.9786    1.1578834    31.015963       31.016       31.016    29837.116 
 4163000    301.64525   -2295.3841   -22955.396     -24849.9    1894.5032    1.1578834    31.015963       31.016       31.016    29837.116 
 4164000    298.09915   -2603.7806   -23028.659    -24900.89    1872.2316    1.1578834    31.015963       31.016       31.016    29837.116 
 4165000     304.1085   -2283.9443   -22919.321   -24829.295    1909.9737    1.1578834    31.015963       31.016       31.016    29837.116 
 4166000    299.20024   -2733.4092   -22978.693    -24857.84    1879.1471    1.1578834    31.015963       31.016       31.016    29837.116 
 4167000     302.6216   -2816.1535    -22948.43   -24849.065    1900.6351    1.1578834    31.015963       31.016       31.016    29837.116 
 4168000    300.93281   -2421.0559   -23013.927   -24903.956    1890.0286    1.1578834    31.015963       31.016       31.016    29837.116 
 4169000    296.84942   -2422.3907   -23022.199   -24886.582    1864.3826    1.1578834    31.015963       31.016       31.016    29837.116 
 4170000    295.77592   -3788.4914   -22930.096   -24787.736    1857.6404    1.1578834    31.015963       31.016       31.016    29837.116 
 4171000     305.0397   -2694.2008   -22973.557   -24889.379    1915.8222    1.1578834    31.015963       31.016       31.016    29837.116 
 4172000     295.4613   -2630.1854   -22990.445   -24846.109    1855.6644    1.1578834    31.015963       31.016       31.016    29837.116 
 4173000    286.17877   -3337.5486   -23089.353   -24886.718    1797.3649    1.1578834    31.015963       31.016       31.016    29837.116 
 4174000     306.9175   -2663.3973   -23002.421   -24930.037    1927.6159    1.1578834    31.015963       31.016       31.016    29837.116 
 4175000    296.11088   -2828.5576   -23020.733   -24880.477    1859.7442    1.1578834    31.015963       31.016       31.016    29837.116 
 4176000    288.45424    -2801.099   -23096.085   -24907.741    1811.6561    1.1578834    31.015963       31.016       31.016    29837.116 
 4177000    295.06373   -2878.1478   -23036.342    -24889.51    1853.1674    1.1578834    31.015963       31.016       31.016    29837.116 
 4178000    302.99585   -2974.0041   -22972.603   -24875.589    1902.9857    1.1578834    31.015963       31.016       31.016    29837.116 
 4179000    307.47685   -3491.4852   -22904.859   -24835.988    1931.1289    1.1578834    31.015963       31.016       31.016    29837.116 
 4180000    291.49905    -3188.954   -22988.473   -24819.252    1830.7793    1.1578834    31.015963       31.016       31.016    29837.116 
 4181000    302.19754   -2419.2597   -22945.661   -24843.633    1897.9718    1.1578834    31.015963       31.016       31.016    29837.116 
 4182000    289.95622   -4223.7378   -23090.526   -24911.615    1821.0894    1.1578834    31.015963       31.016       31.016    29837.116 
 4183000    296.13687   -2651.2805   -22990.604   -24850.511    1859.9074    1.1578834    31.015963       31.016       31.016    29837.116 
 4184000    285.56407   -3382.2878   -23082.118   -24875.622    1793.5042    1.1578834    31.015963       31.016       31.016    29837.116 
 4185000    288.14089   -1413.5596   -23066.693   -24876.381    1809.6881    1.1578834    31.015963       31.016       31.016    29837.116 
 4186000    296.91737   -2623.9988   -22910.644   -24775.453    1864.8094    1.1578834    31.015963       31.016       31.016    29837.116 
 4187000    300.25607   -2986.1757   -23013.204   -24898.982    1885.7783    1.1578834    31.015963       31.016       31.016    29837.116 
 4188000    298.33239   -3398.1297   -22987.308   -24861.004    1873.6965    1.1578834    31.015963       31.016       31.016    29837.116 
 4189000    303.05195   -2663.6641   -22889.437   -24792.775     1903.338    1.1578834    31.015963       31.016       31.016    29837.116 
 4190000    296.04497   -2410.6531   -23020.815   -24880.145    1859.3302    1.1578834    31.015963       31.016       31.016    29837.116 
 4191000    289.45585    -3100.027   -23072.752   -24890.699    1817.9468    1.1578834    31.015963       31.016       31.016    29837.116 
 4192000    295.12456   -3908.6077   -22964.208   -24817.758    1853.5495    1.1578834    31.015963       31.016       31.016    29837.116 
 4193000    299.33295   -2776.4094   -22885.762   -24765.743    1879.9806    1.1578834    31.015963       31.016       31.016    29837.116 
 4194000     304.9461   -2324.6936   -22870.063   -24785.297    1915.2343    1.1578834    31.015963       31.016       31.016    29837.116 
 4195000    299.63065   -2261.0714   -22896.846   -24778.696    1881.8503    1.1578834    31.015963       31.016       31.016    29837.116 
 4196000    299.98288   -3334.3876   -22984.511   -24868.574    1884.0625    1.1578834    31.015963       31.016       31.016    29837.116 
 4197000     307.0523   -3565.4283   -22928.092   -24856.555    1928.4625    1.1578834    31.015963       31.016       31.016    29837.116 
 4198000     294.2341   -3541.7464   -23024.393    -24872.35    1847.9569    1.1578834    31.015963       31.016       31.016    29837.116 
 4199000    292.53619    -2536.866   -23126.559   -24963.852    1837.2931    1.1578834    31.015963       31.016       31.016    29837.116 
 4200000    298.76069   -3350.8026   -23002.279   -24878.665    1876.3865    1.1578834    31.015963       31.016       31.016    29837.116 
 4201000    298.94869   -3119.4203   -23065.763    -24943.33    1877.5672    1.1578834    31.015963       31.016       31.016    29837.116 
 4202000    299.80491   -2846.4255   -22981.704   -24864.649    1882.9448    1.1578834    31.015963       31.016       31.016    29837.116 
 4203000    292.74423   -2066.1473   -23062.826   -24901.425    1838.5997    1.1578834    31.015963       31.016       31.016    29837.116 
 4204000     306.7356   -3247.7743   -22915.699   -24842.172    1926.4734    1.1578834    31.015963       31.016       31.016    29837.116 
 4205000    302.01943   -2732.4879   -23031.716   -24928.569    1896.8532    1.1578834    31.015963       31.016       31.016    29837.116 
 4206000    294.14305   -2438.4606   -23061.973   -24909.358    1847.3851    1.1578834    31.015963       31.016       31.016    29837.116 
 4207000     293.4826   -2626.0315   -23008.934   -24852.171    1843.2371    1.1578834    31.015963       31.016       31.016    29837.116 
 4208000    297.16194   -2474.7791   -23089.232   -24955.578    1866.3454    1.1578834    31.015963       31.016       31.016    29837.116 
 4209000      308.167    -3281.351   -22915.042   -24850.505    1935.4634    1.1578834    31.015963       31.016       31.016    29837.116 
 4210000    291.79845   -2537.3919   -23003.801   -24836.461    1832.6597    1.1578834    31.015963       31.016       31.016    29837.116 
 4211000    301.11196   -3063.4842   -23013.802   -24904.956    1891.1538    1.1578834    31.015963       31.016       31.016    29837.116 
 4212000    302.53248   -2790.3419   -22935.724     -24835.8    1900.0754    1.1578834    31.015963       31.016       31.016    29837.116 
 4213000    299.06811   -2991.8357   -23000.606   -24878.923    1878.3172    1.1578834    31.015963       31.016       31.016    29837.116 
 4214000    301.02901   -3052.3746   -22914.633   -24805.266    1890.6328    1.1578834    31.015963       31.016       31.016    29837.116 
 4215000    298.43383    -3127.039   -22948.491   -24822.824    1874.3336    1.1578834    31.015963       31.016       31.016    29837.116 
 4216000    297.64821   -2401.7955   -23027.252   -24896.651    1869.3995    1.1578834    31.015963       31.016       31.016    29837.116 
 4217000    301.88972   -2428.3058   -22957.847   -24853.886    1896.0386    1.1578834    31.015963       31.016       31.016    29837.116 
 4218000    299.88313   -3180.3609    -23014.42   -24897.856     1883.436    1.1578834    31.015963       31.016       31.016    29837.116 
 4219000    304.01287   -3178.1606   -23044.775   -24954.149    1909.3731    1.1578834    31.015963       31.016       31.016    29837.116 
 4220000    295.66823   -3131.7898   -23059.717   -24916.681    1856.9641    1.1578834    31.015963       31.016       31.016    29837.116 
 4221000    301.66557   -2902.4112   -23061.585   -24956.216    1894.6308    1.1578834    31.015963       31.016       31.016    29837.116 
 4222000    302.15008   -2695.4482   -22961.866    -24859.54    1897.6737    1.1578834    31.015963       31.016       31.016    29837.116 
 4223000    291.94819   -2681.6484   -23043.234   -24876.834    1833.6001    1.1578834    31.015963       31.016       31.016    29837.116 
 4224000    296.26812   -2898.4578   -23001.102   -24861.833    1860.7317    1.1578834    31.015963       31.016       31.016    29837.116 
 4225000    303.45187   -2639.6261   -22901.921    -24807.77    1905.8498    1.1578834    31.015963       31.016       31.016    29837.116 
 4226000    297.97285   -2963.9847   -22988.194   -24859.632    1871.4384    1.1578834    31.015963       31.016       31.016    29837.116 
 4227000    302.46799   -2691.2489   -22978.186   -24877.857    1899.6704    1.1578834    31.015963       31.016       31.016    29837.116 
 4228000    293.12827   -2417.9487    -22923.34   -24764.351    1841.0117    1.1578834    31.015963       31.016       31.016    29837.116 
 4229000    296.03697   -2744.1642   -22997.698   -24856.978      1859.28    1.1578834    31.015963       31.016       31.016    29837.116 
 4230000    306.57487   -2637.4415   -23048.053   -24973.517     1925.464    1.1578834    31.015963       31.016       31.016    29837.116 
 4231000    286.78943   -2814.4644   -23067.016   -24868.216    1801.2002    1.1578834    31.015963       31.016       31.016    29837.116 
 4232000    301.10309   -2677.3831   -22955.214   -24846.312    1891.0981    1.1578834    31.015963       31.016       31.016    29837.116 
 4233000    296.42142   -2706.7345   -22979.807   -24841.501    1861.6945    1.1578834    31.015963       31.016       31.016    29837.116 
 4234000     295.5489   -3537.3264   -22955.337   -24811.552    1856.2146    1.1578834    31.015963       31.016       31.016    29837.116 
 4235000    299.85216   -2746.6631   -23055.445   -24938.687    1883.2415    1.1578834    31.015963       31.016       31.016    29837.116 
 4236000    294.20487   -1876.6416    -23059.44   -24907.213    1847.7733    1.1578834    31.015963       31.016       31.016    29837.116 
 4237000    305.53963   -2701.5977   -22958.779   -24877.741     1918.962    1.1578834    31.015963       31.016       31.016    29837.116 
 4238000    302.16963    -2295.468   -23004.737   -24902.533    1897.7965    1.1578834    31.015963       31.016       31.016    29837.116 
 4239000    301.24043   -1642.8737   -22955.422   -24847.383    1891.9607    1.1578834    31.015963       31.016       31.016    29837.116 
 4240000    300.07522   -2426.3043   -22952.974   -24837.617    1884.6425    1.1578834    31.015963       31.016       31.016    29837.116 
 4241000    299.21596   -3022.6996    -22991.92   -24871.166    1879.2458    1.1578834    31.015963       31.016       31.016    29837.116 
 4242000    296.66259   -2506.6665   -23048.501   -24911.711    1863.2092    1.1578834    31.015963       31.016       31.016    29837.116 
 4243000    290.68227    -3188.185   -23055.867   -24881.516    1825.6494    1.1578834    31.015963       31.016       31.016    29837.116 
 4244000     292.3298   -3287.0081   -22971.032   -24807.029    1835.9969    1.1578834    31.015963       31.016       31.016    29837.116 
 4245000    296.13081   -2589.8886    -22981.66   -24841.529    1859.8693    1.1578834    31.015963       31.016       31.016    29837.116 
 4246000    295.13718   -2808.9002   -22983.421    -24837.05    1853.6288    1.1578834    31.015963       31.016       31.016    29837.116 
 4247000    306.06998   -1936.7883   -22895.449   -24817.742     1922.293    1.1578834    31.015963       31.016       31.016    29837.116 
 4248000    297.68701   -2875.8779   -23020.826   -24890.469    1869.6431    1.1578834    31.015963       31.016       31.016    29837.116 
 4249000    297.61156   -2647.2464   -22993.547   -24862.716    1869.1693    1.1578834    31.015963       31.016       31.016    29837.116 
 4250000    297.68417   -2192.8648   -23039.829   -24909.454    1869.6253    1.1578834    31.015963       31.016       31.016    29837.116 
 4251000    300.53537   -3139.1476   -22908.214   -24795.747    1887.5325    1.1578834    31.015963       31.016       31.016    29837.116 
 4252000    297.34268   -2879.3591   -22970.019     -24837.5    1867.4805    1.1578834    31.015963       31.016       31.016    29837.116 
 4253000    302.15492   -2822.2918     -22968.9   -24866.604    1897.7042    1.1578834    31.015963       31.016       31.016    29837.116 
 4254000    294.72477   -2940.7151    -23079.68   -24930.719    1851.0386    1.1578834    31.015963       31.016       31.016    29837.116 
 4255000     298.8289   -3001.0122    -22993.41   -24870.225    1876.8148    1.1578834    31.015963       31.016       31.016    29837.116 
 4256000    296.53417    -3248.623   -22985.368   -24847.771    1862.4026    1.1578834    31.015963       31.016       31.016    29837.116 
 4257000    300.56713    -2576.981   -22903.456   -24791.188    1887.7319    1.1578834    31.015963       31.016       31.016    29837.116 
 4258000    307.16145   -2385.3562   -22946.681   -24875.829     1929.148    1.1578834    31.015963       31.016       31.016    29837.116 
 4259000    299.36733    -2555.083   -22978.552   -24858.749    1880.1965    1.1578834    31.015963       31.016       31.016    29837.116 
 4260000    304.66025   -2164.2859   -23043.911    -24957.35     1913.439    1.1578834    31.015963       31.016       31.016    29837.116 
 4261000    299.08892   -1961.9176    -23040.54   -24918.988    1878.4479    1.1578834    31.015963       31.016       31.016    29837.116 
 4262000    290.77503   -2883.2854   -22974.476   -24800.708     1826.232    1.1578834    31.015963       31.016       31.016    29837.116 
 4263000    295.54337   -3231.4973   -23018.309   -24874.489    1856.1798    1.1578834    31.015963       31.016       31.016    29837.116 
 4264000    306.33001   -2791.0275   -22991.623    -24915.55    1923.9261    1.1578834    31.015963       31.016       31.016    29837.116 
 4265000     302.1541   -2992.4639    -22974.49   -24872.189     1897.699    1.1578834    31.015963       31.016       31.016    29837.116 
 4266000    303.84832   -3131.2844   -22939.735   -24848.074    1908.3396    1.1578834    31.015963       31.016       31.016    29837.116 
 4267000     299.1212   -2947.0266    -22990.72   -24869.371    1878.6506    1.1578834    31.015963       31.016       31.016    29837.116 
 4268000    293.48718   -3883.1274   -23056.434     -24899.7    1843.2658    1.1578834    31.015963       31.016       31.016    29837.116 
 4269000    289.97237   -2185.3955   -23023.283   -24844.473    1821.1909    1.1578834    31.015963       31.016       31.016    29837.116 
 4270000    305.97637   -3039.9286   -22876.069   -24797.775     1921.705    1.1578834    31.015963       31.016       31.016    29837.116 
 4271000    305.93219    -3235.453   -22833.964   -24755.392    1921.4276    1.1578834    31.015963       31.016       31.016    29837.116 
 4272000    298.27364   -2761.3325   -22965.414   -24838.741    1873.3275    1.1578834    31.015963       31.016       31.016    29837.116 
 4273000    309.51118   -1413.1271   -22913.482   -24857.387    1943.9056    1.1578834    31.015963       31.016       31.016    29837.116 
 4274000    296.93629   -2176.7178   -22975.885   -24840.813    1864.9282    1.1578834    31.015963       31.016       31.016    29837.116 
 4275000    305.78182   -2135.8645   -22995.243   -24915.726    1920.4831    1.1578834    31.015963       31.016       31.016    29837.116 
 4276000    300.43541   -2549.3883   -22965.133   -24852.038    1886.9046    1.1578834    31.015963       31.016       31.016    29837.116 
 4277000    282.97948    -3036.304   -23120.309   -24897.581    1777.2715    1.1578834    31.015963       31.016       31.016    29837.116 
 4278000    291.06118   -3386.2142   -23127.554   -24955.584    1828.0292    1.1578834    31.015963       31.016       31.016    29837.116 
 4279000    294.88347   -3081.8386   -23013.836   -24865.871    1852.0353    1.1578834    31.015963       31.016       31.016    29837.116 
 4280000    294.30661   -3168.0813   -23064.945   -24913.358    1848.4123    1.1578834    31.015963       31.016       31.016    29837.116 
 4281000     305.9207   -3539.7396   -23082.139   -25003.495    1921.3554    1.1578834    31.015963       31.016       31.016    29837.116 
 4282000    296.19342   -3675.5875   -23110.801   -24971.064    1860.2625    1.1578834    31.015963       31.016       31.016    29837.116 
 4283000    296.32481   -3216.0836   -23043.759   -24904.847    1861.0877    1.1578834    31.015963       31.016       31.016    29837.116 
 4284000    298.66595   -2296.5724   -23042.163   -24917.955    1875.7915    1.1578834    31.015963       31.016       31.016    29837.116 
 4285000    301.53492   -2438.1067   -22953.499   -24847.309    1893.8102    1.1578834    31.015963       31.016       31.016    29837.116 
 4286000     294.1365   -2727.3213   -22996.165   -24843.509     1847.344    1.1578834    31.015963       31.016       31.016    29837.116 
 4287000    300.45324   -3352.6461   -22953.513   -24840.529    1887.0166    1.1578834    31.015963       31.016       31.016    29837.116 
 4288000    303.72581   -3080.0586   -22993.984   -24901.555    1907.5703    1.1578834    31.015963       31.016       31.016    29837.116 
 4289000    297.48569   -3290.2864   -23016.591   -24884.969    1868.3787    1.1578834    31.015963       31.016       31.016    29837.116 
 4290000    302.76248   -3070.5577   -23028.182   -24929.702      1901.52    1.1578834    31.015963       31.016       31.016    29837.116 
 4291000    303.64182   -3095.0099   -22953.952   -24860.995    1907.0427    1.1578834    31.015963       31.016       31.016    29837.116 
 4292000    300.09052   -3369.5704   -23070.096   -24954.834    1884.7385    1.1578834    31.015963       31.016       31.016    29837.116 
 4293000    292.17769   -2881.6799   -23160.104   -24995.146    1835.0415    1.1578834    31.015963       31.016       31.016    29837.116 
 4294000    304.70343   -2387.5238   -22934.405   -24848.115    1913.7102    1.1578834    31.015963       31.016       31.016    29837.116 
 4295000    299.84213   -3137.9472   -23005.417   -24888.596    1883.1785    1.1578834    31.015963       31.016       31.016    29837.116 
 4296000    303.86908   -3102.2102   -22987.013   -24895.483      1908.47    1.1578834    31.015963       31.016       31.016    29837.116 
 4297000    296.25527   -4061.8096   -22996.276   -24856.927     1860.651    1.1578834    31.015963       31.016       31.016    29837.116 
 4298000    294.05137   -3041.7925   -23071.241    -24918.05    1846.8093    1.1578834    31.015963       31.016       31.016    29837.116 
 4299000    300.59374   -2055.2718   -22993.067   -24880.966     1887.899    1.1578834    31.015963       31.016       31.016    29837.116 
 4300000    303.19234   -3015.1452   -23006.907   -24911.127    1904.2198    1.1578834    31.015963       31.016       31.016    29837.116 
 4301000    299.40171   -3097.3691   -22990.286   -24870.699    1880.4124    1.1578834    31.015963       31.016       31.016    29837.116 
 4302000     300.2068   -3525.7064   -22951.103   -24836.571    1885.4688    1.1578834    31.015963       31.016       31.016    29837.116 
 4303000    302.71063    -2287.443   -22988.616    -24889.81    1901.1943    1.1578834    31.015963       31.016       31.016    29837.116 
 4304000    292.88876   -2604.2478    -23017.88   -24857.387    1839.5074    1.1578834    31.015963       31.016       31.016    29837.116 
 4305000     305.1198   -2763.9201   -23034.774   -24951.099    1916.3253    1.1578834    31.015963       31.016       31.016    29837.116 
 4306000    296.59251   -2255.7382   -23007.897   -24870.666    1862.7691    1.1578834    31.015963       31.016       31.016    29837.116 
 4307000    301.12454   -2147.7998   -22864.826   -24756.059    1891.2328    1.1578834    31.015963       31.016       31.016    29837.116 
 4308000    295.45254   -3087.4175   -22939.703   -24795.313    1855.6094    1.1578834    31.015963       31.016       31.016    29837.116 
 4309000    292.22469   -2777.7373   -22994.141   -24829.478    1835.3367    1.1578834    31.015963       31.016       31.016    29837.116 
 4310000     298.7967    -1984.139   -23016.021   -24892.633    1876.6126    1.1578834    31.015963       31.016       31.016    29837.116 
 4311000    300.77233   -3667.1171   -22988.576   -24877.597    1889.0207    1.1578834    31.015963       31.016       31.016    29837.116 
 4312000    300.55927   -3038.6229   -22947.153   -24834.835    1887.6826    1.1578834    31.015963       31.016       31.016    29837.116 
 4313000    300.81638    -3364.047   -22936.241   -24825.538    1889.2974    1.1578834    31.015963       31.016       31.016    29837.116 
 4314000    302.35683   -3231.2036    -23042.49   -24941.462    1898.9722    1.1578834    31.015963       31.016       31.016    29837.116 
 4315000    297.18727   -3130.8895   -22995.932   -24862.436    1866.5045    1.1578834    31.015963       31.016       31.016    29837.116 
 4316000    296.02467   -3335.7661   -22911.938   -24771.141    1859.2027    1.1578834    31.015963       31.016       31.016    29837.116 
 4317000    298.27402   -3008.0379   -22969.331   -24842.661    1873.3299    1.1578834    31.015963       31.016       31.016    29837.116 
 4318000    299.19662   -1953.6083   -22964.069   -24843.193    1879.1243    1.1578834    31.015963       31.016       31.016    29837.116 
 4319000    307.69072     -2238.06    -22938.84   -24871.312    1932.4721    1.1578834    31.015963       31.016       31.016    29837.116 
 4320000    288.87472   -3832.3204   -22960.077   -24774.374     1814.297    1.1578834    31.015963       31.016       31.016    29837.116 
 4321000    296.33218   -3410.7157   -22946.225   -24807.359    1861.1341    1.1578834    31.015963       31.016       31.016    29837.116 
 4322000    296.87153   -2030.3154   -22886.641   -24751.162    1864.5215    1.1578834    31.015963       31.016       31.016    29837.116 
 4323000    284.38014   -3311.0928   -22998.853   -24784.921    1786.0685    1.1578834    31.015963       31.016       31.016    29837.116 
 4324000     297.6228      -2728.1    -22926.57    -24795.81    1869.2399    1.1578834    31.015963       31.016       31.016    29837.116 
 4325000    299.65151   -2357.5305   -22913.186   -24795.167    1881.9813    1.1578834    31.015963       31.016       31.016    29837.116 
 4326000    299.20431   -2556.6751   -22939.622   -24818.794    1879.1727    1.1578834    31.015963       31.016       31.016    29837.116 
 4327000    293.61996   -1649.0247   -22968.597   -24812.696    1844.0998    1.1578834    31.015963       31.016       31.016    29837.116 
 4328000    306.06268   -2861.0179   -22900.745   -24822.992    1922.2471    1.1578834    31.015963       31.016       31.016    29837.116 
 4329000    297.17184     -3257.09   -22964.175   -24830.583    1866.4076    1.1578834    31.015963       31.016       31.016    29837.116 
 4330000    293.35496   -3911.1824   -22987.039   -24829.475    1842.4354    1.1578834    31.015963       31.016       31.016    29837.116 
 4331000    296.06889   -3698.6367   -22992.046   -24851.527    1859.4804    1.1578834    31.015963       31.016       31.016    29837.116 
 4332000    298.89535   -2658.3667    -22929.61   -24806.843    1877.2322    1.1578834    31.015963       31.016       31.016    29837.116 
 4333000    303.50285   -2662.0921   -23012.299   -24918.469    1906.1699    1.1578834    31.015963       31.016       31.016    29837.116 
 4334000    302.47873   -2510.4307   -22967.602   -24867.339    1899.7379    1.1578834    31.015963       31.016       31.016    29837.116 
 4335000    297.02091   -3547.2852   -22944.309   -24809.769    1865.4596    1.1578834    31.015963       31.016       31.016    29837.116 
 4336000     293.1977   -3279.2879    -23065.93   -24907.377    1841.4477    1.1578834    31.015963       31.016       31.016    29837.116 
 4337000    298.33885   -3001.8046   -23032.673    -24906.41    1873.7371    1.1578834    31.015963       31.016       31.016    29837.116 
 4338000     299.2332   -3372.7004   -22930.408   -24809.762    1879.3541    1.1578834    31.015963       31.016       31.016    29837.116 
 4339000    297.63185    -3020.438   -22968.604   -24837.901    1869.2967    1.1578834    31.015963       31.016       31.016    29837.116 
 4340000    297.01079   -3213.3652   -22965.098   -24830.494    1865.3961    1.1578834    31.015963       31.016       31.016    29837.116 
 4341000    293.94942    -3293.351   -23062.684   -24908.853    1846.1689    1.1578834    31.015963       31.016       31.016    29837.116 
 4342000    290.93769   -2801.8915   -23009.433   -24836.686    1827.2536    1.1578834    31.015963       31.016       31.016    29837.116 
 4343000    291.68258   -1826.9415   -23060.045   -24891.977    1831.9319    1.1578834    31.015963       31.016       31.016    29837.116 
 4344000    296.36243   -2328.4054   -22940.278   -24801.602     1861.324    1.1578834    31.015963       31.016       31.016    29837.116 
 4345000     285.7207    -3096.032   -23061.112     -24855.6     1794.488    1.1578834    31.015963       31.016       31.016    29837.116 
 4346000     294.1386   -2726.7923   -22946.155   -24793.512    1847.3571    1.1578834    31.015963       31.016       31.016    29837.116 
 4347000     300.4364   -3001.1633   -22970.192   -24857.103    1886.9109    1.1578834    31.015963       31.016       31.016    29837.116 
 4348000     296.5346   -3025.8133   -23000.974    -24863.38    1862.4054    1.1578834    31.015963       31.016       31.016    29837.116 
 4349000    302.67572   -2124.7902   -23022.133   -24923.108     1900.975    1.1578834    31.015963       31.016       31.016    29837.116 
 4350000    306.52058   -2649.6229   -22968.683   -24893.806     1925.123    1.1578834    31.015963       31.016       31.016    29837.116 
 4351000    299.38672    -2409.263   -22940.746   -24821.064    1880.3183    1.1578834    31.015963       31.016       31.016    29837.116 
 4352000    304.85819   -2891.3995   -23023.932   -24938.614    1914.6822    1.1578834    31.015963       31.016       31.016    29837.116 
 4353000    291.83975    -2961.952   -23042.985   -24875.904    1832.9191    1.1578834    31.015963       31.016       31.016    29837.116 
 4354000    303.04465   -2860.0103    -22995.43   -24898.722    1903.2921    1.1578834    31.015963       31.016       31.016    29837.116 
 4355000    307.19405   -3520.3565   -22929.457    -24858.81    1929.3528    1.1578834    31.015963       31.016       31.016    29837.116 
 4356000    305.42317   -3348.5991   -22927.872   -24846.103    1918.2306    1.1578834    31.015963       31.016       31.016    29837.116 
 4357000     296.8977   -2983.0303   -22965.699   -24830.385    1864.6858    1.1578834    31.015963       31.016       31.016    29837.116 
 4358000    288.84799    -2985.219   -22999.365   -24813.494    1814.1291    1.1578834    31.015963       31.016       31.016    29837.116 
 4359000     303.7355   -2611.1174   -22906.656   -24814.287    1907.6311    1.1578834    31.015963       31.016       31.016    29837.116 
 4360000    298.26525   -2321.5396   -22975.517   -24848.791    1873.2748    1.1578834    31.015963       31.016       31.016    29837.116 
 4361000    293.61015   -3207.2488   -22993.743   -24837.781    1844.0381    1.1578834    31.015963       31.016       31.016    29837.116 
 4362000    298.61516   -2832.5414   -22976.265   -24851.737    1875.4724    1.1578834    31.015963       31.016       31.016    29837.116 
 4363000    298.39644   -3535.1116   -23058.649   -24932.748    1874.0988    1.1578834    31.015963       31.016       31.016    29837.116 
 4364000    292.54499    -2836.161   -23116.574   -24953.922    1837.3483    1.1578834    31.015963       31.016       31.016    29837.116 
 4365000    302.75681   -1986.0942   -23006.607   -24908.091    1901.4844    1.1578834    31.015963       31.016       31.016    29837.116 
 4366000    296.94829   -2346.1843   -23051.609   -24916.612    1865.0036    1.1578834    31.015963       31.016       31.016    29837.116 
 4367000    302.61862    -3676.203    -23018.31   -24918.926    1900.6165    1.1578834    31.015963       31.016       31.016    29837.116 
 4368000    289.82419   -2833.2963   -23050.174   -24870.435    1820.2602    1.1578834    31.015963       31.016       31.016    29837.116 
 4369000    310.55574   -3042.5844   -22840.501   -24790.967     1950.466    1.1578834    31.015963       31.016       31.016    29837.116 
 4370000    292.12859   -3154.2082   -22969.736   -24804.469    1834.7331    1.1578834    31.015963       31.016       31.016    29837.116 
 4371000    305.35526    -2802.831    -22915.69   -24833.494    1917.8041    1.1578834    31.015963       31.016       31.016    29837.116 
 4372000    295.44246   -3326.1103   -23045.062   -24900.608    1855.5461    1.1578834    31.015963       31.016       31.016    29837.116 
 4373000    297.11902    -2442.724   -23060.532   -24926.608    1866.0758    1.1578834    31.015963       31.016       31.016    29837.116 
 4374000    295.32888   -3142.9607   -22908.842   -24763.675    1854.8327    1.1578834    31.015963       31.016       31.016    29837.116 
 4375000    295.86422   -2579.5573   -23033.681   -24891.876     1858.195    1.1578834    31.015963       31.016       31.016    29837.116 
 4376000    306.51117   -2449.4119   -22894.779   -24819.843    1925.0639    1.1578834    31.015963       31.016       31.016    29837.116 
 4377000     303.1681   -1820.0753    -23000.16   -24904.227    1904.0675    1.1578834    31.015963       31.016       31.016    29837.116 
 4378000    303.31276   -2541.6211   -22899.251   -24804.228     1904.976    1.1578834    31.015963       31.016       31.016    29837.116 
 4379000    294.83416   -2457.9826   -23017.733   -24869.458    1851.7256    1.1578834    31.015963       31.016       31.016    29837.116 
 4380000    291.25462   -3169.9073   -22962.892   -24792.136    1829.2441    1.1578834    31.015963       31.016       31.016    29837.116 
 4381000     296.2403   -2793.8316   -22938.485   -24799.042     1860.557    1.1578834    31.015963       31.016       31.016    29837.116 
 4382000    294.64109    -1824.066   -22929.861   -24780.374     1850.513    1.1578834    31.015963       31.016       31.016    29837.116 
 4383000    304.65368   -2419.0297   -22938.015   -24851.412    1913.3978    1.1578834    31.015963       31.016       31.016    29837.116 
 4384000    297.18708    -3732.886    -23022.66   -24889.163    1866.5033    1.1578834    31.015963       31.016       31.016    29837.116 
 4385000     305.9831   -3409.6236   -22928.997   -24850.744    1921.7473    1.1578834    31.015963       31.016       31.016    29837.116 
 4386000     287.5519   -3144.6313   -23029.223   -24835.212    1805.9889    1.1578834    31.015963       31.016       31.016    29837.116 
 4387000    299.58563   -3151.0006   -22962.901   -24844.468    1881.5676    1.1578834    31.015963       31.016       31.016    29837.116 
 4388000    296.55314   -2836.4905   -23066.787   -24929.309    1862.5218    1.1578834    31.015963       31.016       31.016    29837.116 
 4389000    299.40663   -2692.3608   -23003.111   -24883.555    1880.4434    1.1578834    31.015963       31.016       31.016    29837.116 
 4390000     290.2964   -2530.3092   -23048.875     -24872.1    1823.2259    1.1578834    31.015963       31.016       31.016    29837.116 
 4391000    295.10009   -2768.8897   -23037.094    -24890.49    1853.3958    1.1578834    31.015963       31.016       31.016    29837.116 
 4392000    296.08681   -3113.7877   -23024.205   -24883.798     1859.593    1.1578834    31.015963       31.016       31.016    29837.116 
 4393000    303.35181   -2601.1763   -22969.479   -24874.701    1905.2213    1.1578834    31.015963       31.016       31.016    29837.116 
 4394000    294.41006   -3241.0664   -23030.127   -24879.189     1849.062    1.1578834    31.015963       31.016       31.016    29837.116 
 4395000    301.92824   -2559.5742   -22940.265   -24836.546    1896.2805    1.1578834    31.015963       31.016       31.016    29837.116 
 4396000    290.67393   -2543.3101   -23022.717   -24848.314     1825.597    1.1578834    31.015963       31.016       31.016    29837.116 
 4397000    295.08819   -2903.1327   -23040.463   -24893.784    1853.3211    1.1578834    31.015963       31.016       31.016    29837.116 
 4398000    292.02291   -2982.3719   -23061.115   -24895.185    1834.0694    1.1578834    31.015963       31.016       31.016    29837.116 
 4399000    304.38838   -3044.8201   -22877.464   -24789.196    1911.7315    1.1578834    31.015963       31.016       31.016    29837.116 
 4400000    299.02732   -3198.4659    -22990.86   -24868.921    1878.0611    1.1578834    31.015963       31.016       31.016    29837.116 
 4401000    299.12486   -2463.0253   -23043.528   -24922.202    1878.6737    1.1578834    31.015963       31.016       31.016    29837.116 
 4402000    300.41171   -2059.2672   -22952.744     -24839.5    1886.7558    1.1578834    31.015963       31.016       31.016    29837.116 
 4403000    297.48775   -3201.9447   -22947.101   -24815.493    1868.3917    1.1578834    31.015963       31.016       31.016    29837.116 
 4404000    295.05883   -2348.3363   -23018.124   -24871.261    1853.1367    1.1578834    31.015963       31.016       31.016    29837.116 
 4405000    297.23315   -3287.8787   -22916.925   -24783.718    1866.7927    1.1578834    31.015963       31.016       31.016    29837.116 
 4406000    293.15603   -2593.5899   -23024.567   -24865.753     1841.186    1.1578834    31.015963       31.016       31.016    29837.116 
 4407000    298.77756   -2499.5675   -22991.058    -24867.55    1876.4924    1.1578834    31.015963       31.016       31.016    29837.116 
 4408000       297.46   -3109.8312   -22963.784   -24832.002    1868.2174    1.1578834    31.015963       31.016       31.016    29837.116 
 4409000    305.01276   -2773.4841   -22981.241   -24896.894     1915.653    1.1578834    31.015963       31.016       31.016    29837.116 
 4410000    303.40832   -3053.1847   -23022.574    -24928.15    1905.5762    1.1578834    31.015963       31.016       31.016    29837.116 
 4411000    293.01746   -2815.0772   -23022.052   -24862.367    1840.3157    1.1578834    31.015963       31.016       31.016    29837.116 
 4412000     295.3511   -3157.7549   -23006.285   -24861.257    1854.9723    1.1578834    31.015963       31.016       31.016    29837.116 
 4413000    290.26349    -3329.537   -22983.229   -24806.248    1823.0192    1.1578834    31.015963       31.016       31.016    29837.116 
 4414000    291.56322   -3002.9069   -22987.316   -24818.498    1831.1823    1.1578834    31.015963       31.016       31.016    29837.116 
 4415000    299.54438   -2807.5733    -22928.01   -24809.319    1881.3085    1.1578834    31.015963       31.016       31.016    29837.116 
 4416000    299.46089    -2893.764   -22996.058   -24876.842    1880.7841    1.1578834    31.015963       31.016       31.016    29837.116 
 4417000    297.20409   -3050.5595   -23001.671   -24868.281    1866.6101    1.1578834    31.015963       31.016       31.016    29837.116 
 4418000    293.30291   -2907.3632   -23073.955   -24916.063    1842.1085    1.1578834    31.015963       31.016       31.016    29837.116 
 4419000      294.039   -2155.7615   -23066.633   -24913.365    1846.7316    1.1578834    31.015963       31.016       31.016    29837.116 
 4420000     292.8093   -3464.7493   -23087.923   -24926.932    1839.0083    1.1578834    31.015963       31.016       31.016    29837.116 
 4421000    297.36923   -3345.9756   -22958.455   -24826.103    1867.6473    1.1578834    31.015963       31.016       31.016    29837.116 
 4422000    307.53525   -2944.4795   -22956.791   -24888.286    1931.4956    1.1578834    31.015963       31.016       31.016    29837.116 
 4423000    291.60728   -2792.2699   -23023.008   -24854.467     1831.459    1.1578834    31.015963       31.016       31.016    29837.116 
 4424000    299.13792   -1971.6734   -22985.822   -24864.578    1878.7557    1.1578834    31.015963       31.016       31.016    29837.116 
 4425000    304.97094   -2664.1509   -22916.348   -24831.738    1915.3904    1.1578834    31.015963       31.016       31.016    29837.116 
 4426000    301.15834   -2474.2654   -23045.204   -24936.649    1891.4451    1.1578834    31.015963       31.016       31.016    29837.116 
 4427000    305.49716   -2253.2822   -22897.312   -24816.007    1918.6953    1.1578834    31.015963       31.016       31.016    29837.116 
 4428000    294.81491   -2805.5711   -22993.042   -24844.647    1851.6048    1.1578834    31.015963       31.016       31.016    29837.116 
 4429000    295.77064   -2691.4343   -23056.891   -24914.498    1857.6072    1.1578834    31.015963       31.016       31.016    29837.116 
 4430000    297.44663   -1950.0436   -22987.182   -24855.316    1868.1334    1.1578834    31.015963       31.016       31.016    29837.116 
 4431000    301.61776   -2467.8165   -22932.785   -24827.116    1894.3305    1.1578834    31.015963       31.016       31.016    29837.116 
 4432000    298.93442   -3321.2712   -23013.386   -24890.864    1877.4776    1.1578834    31.015963       31.016       31.016    29837.116 
 4433000       296.86    -3084.404   -23001.006   -24865.455     1864.449    1.1578834    31.015963       31.016       31.016    29837.116 
 4434000    304.12082   -2646.0178   -23055.777   -24965.828    1910.0511    1.1578834    31.015963       31.016       31.016    29837.116 
 4435000    300.53875   -2702.6511   -22980.053   -24867.607    1887.5537    1.1578834    31.015963       31.016       31.016    29837.116 
 4436000    299.45349   -2291.5988   -22894.284   -24775.022    1880.7376    1.1578834    31.015963       31.016       31.016    29837.116 
 4437000    294.63928   -2914.0427   -22902.351   -24752.853    1850.5017    1.1578834    31.015963       31.016       31.016    29837.116 
 4438000     296.5895   -2617.9379   -23042.058   -24904.808    1862.7502    1.1578834    31.015963       31.016       31.016    29837.116 
 4439000    289.49233    -2730.174   -23068.271   -24886.447    1818.1759    1.1578834    31.015963       31.016       31.016    29837.116 
 4440000    300.41348   -3038.6464   -22961.527   -24848.294    1886.7669    1.1578834    31.015963       31.016       31.016    29837.116 
 4441000    301.06864   -2967.0288   -23087.285   -24978.167    1890.8817    1.1578834    31.015963       31.016       31.016    29837.116 
 4442000    300.98496   -2760.1895    -23040.33   -24930.686    1890.3561    1.1578834    31.015963       31.016       31.016    29837.116 
 4443000    300.36251   -2924.2915   -23018.833    -24905.28    1886.4468    1.1578834    31.015963       31.016       31.016    29837.116 
 4444000    304.72138   -3186.1061   -23017.678   -24931.501     1913.823    1.1578834    31.015963       31.016       31.016    29837.116 
 4445000    292.32101   -3252.5336   -23020.192   -24856.133    1835.9416    1.1578834    31.015963       31.016       31.016    29837.116 
 4446000    296.89475   -3137.7299    -23087.91   -24952.577    1864.6673    1.1578834    31.015963       31.016       31.016    29837.116 
 4447000    301.66288   -1656.2163    -22995.63   -24890.244    1894.6138    1.1578834    31.015963       31.016       31.016    29837.116 
 4448000    294.89208     -3192.44   -23039.036   -24891.125    1852.0894    1.1578834    31.015963       31.016       31.016    29837.116 
 4449000    300.13762   -2775.0309   -23038.864   -24923.899    1885.0344    1.1578834    31.015963       31.016       31.016    29837.116 
 4450000    306.45355   -2372.9324    -23010.88   -24935.582     1924.702    1.1578834    31.015963       31.016       31.016    29837.116 
 4451000    299.09417   -2442.6752   -23102.339    -24980.82    1878.4809    1.1578834    31.015963       31.016       31.016    29837.116 
 4452000    291.88649   -3465.3655   -23109.428    -24942.64    1833.2126    1.1578834    31.015963       31.016       31.016    29837.116 
 4453000    291.66563    -3118.576   -23099.023   -24930.848    1831.8254    1.1578834    31.015963       31.016       31.016    29837.116 
 4454000     306.1136   -3544.0717   -22992.629   -24915.196    1922.5669    1.1578834    31.015963       31.016       31.016    29837.116 
 4455000    291.49198   -2197.5004   -23088.821   -24919.556    1830.7349    1.1578834    31.015963       31.016       31.016    29837.116 
 4456000    300.26471   -3076.0764   -22973.829   -24859.662    1885.8326    1.1578834    31.015963       31.016       31.016    29837.116 
 4457000    301.47099   -3159.9805   -23084.115   -24977.524    1893.4087    1.1578834    31.015963       31.016       31.016    29837.116 
 4458000    303.48878    -2987.199   -22922.619     -24828.7    1906.0815    1.1578834    31.015963       31.016       31.016    29837.116 
 4459000    305.23857   -2920.4958   -22945.941   -24863.012    1917.0713    1.1578834    31.015963       31.016       31.016    29837.116 
 4460000    299.81616   -2367.0118   -23001.014   -24884.029    1883.0154    1.1578834    31.015963       31.016       31.016    29837.116 
 4461000    299.69469     -1984.88   -22949.056   -24831.308    1882.2525    1.1578834    31.015963       31.016       31.016    29837.116 
 4462000    299.28432   -3062.6085   -23000.457   -24880.132    1879.6752    1.1578834    31.015963       31.016       31.016    29837.116 
 4463000    298.21866   -2929.1673   -23096.564   -24969.547    1872.9822    1.1578834    31.015963       31.016       31.016    29837.116 
 4464000    297.92207   -3687.4329   -23013.324   -24884.443    1871.1195    1.1578834    31.015963       31.016       31.016    29837.116 
 4465000    300.01261   -2614.7463   -23028.166   -24912.415    1884.2492    1.1578834    31.015963       31.016       31.016    29837.116 
 4466000    301.06344   -2580.1521   -22890.667   -24781.516     1890.849    1.1578834    31.015963       31.016       31.016    29837.116 
 4467000    295.82393   -2251.4341   -23043.362   -24901.304    1857.9419    1.1578834    31.015963       31.016       31.016    29837.116 
 4468000    303.85721   -3319.1243   -23009.526   -24917.921    1908.3955    1.1578834    31.015963       31.016       31.016    29837.116 
 4469000    303.32335   -3212.4877   -22995.942   -24900.985    1905.0426    1.1578834    31.015963       31.016       31.016    29837.116 
 4470000    297.30627   -3389.9735   -23053.313   -24920.565    1867.2519    1.1578834    31.015963       31.016       31.016    29837.116 
 4471000     283.2763   -2741.4529   -23042.799   -24821.935    1779.1357    1.1578834    31.015963       31.016       31.016    29837.116 
 4472000    295.66121   -2499.2429   -22939.519   -24796.439      1856.92    1.1578834    31.015963       31.016       31.016    29837.116 
 4473000     301.9985   -3069.0317   -22889.516   -24786.237    1896.7218    1.1578834    31.015963       31.016       31.016    29837.116 
 4474000    296.65145   -3385.7438   -22986.569   -24849.708    1863.1393    1.1578834    31.015963       31.016       31.016    29837.116 
 4475000    294.86167   -2595.7265   -23071.676   -24923.574    1851.8984    1.1578834    31.015963       31.016       31.016    29837.116 
 4476000    301.59054   -2646.6319   -22903.905   -24798.064    1894.1595    1.1578834    31.015963       31.016       31.016    29837.116 
 4477000    290.74261   -3302.0082   -22999.911   -24825.939    1826.0284    1.1578834    31.015963       31.016       31.016    29837.116 
 4478000    296.74944   -3460.7625   -22990.682   -24854.437    1863.7547    1.1578834    31.015963       31.016       31.016    29837.116 
 4479000    294.73368    -2508.715    -23082.63   -24933.725    1851.0946    1.1578834    31.015963       31.016       31.016    29837.116 
 4480000    293.50227   -1928.0767   -23047.763   -24891.123    1843.3606    1.1578834    31.015963       31.016       31.016    29837.116 
 4481000    299.75902   -3088.4093   -22984.162   -24866.819    1882.6566    1.1578834    31.015963       31.016       31.016    29837.116 
 4482000    314.89265    -2460.626   -22866.856    -24844.56    1977.7043    1.1578834    31.015963       31.016       31.016    29837.116 
 4483000    301.80697   -2133.7257   -23012.223   -24907.742    1895.5189    1.1578834    31.015963       31.016       31.016    29837.116 
 4484000    296.51408    -2750.377   -22927.381   -24789.657    1862.2765    1.1578834    31.015963       31.016       31.016    29837.116 
 4485000    302.69131   -2785.1543   -23061.565   -24962.638     1901.073    1.1578834    31.015963       31.016       31.016    29837.116 
 4486000    289.85409   -2001.7644   -23068.735   -24889.183     1820.448    1.1578834    31.015963       31.016       31.016    29837.116 
 4487000    293.79461    -2047.612   -22978.331   -24823.528    1845.1967    1.1578834    31.015963       31.016       31.016    29837.116 
 4488000    296.31647   -3475.0234   -23019.338   -24880.373    1861.0354    1.1578834    31.015963       31.016       31.016    29837.116 
 4489000    296.85105   -3000.0392   -23024.705   -24889.098    1864.3929    1.1578834    31.015963       31.016       31.016    29837.116 
 4490000    295.10953   -2459.5655   -23042.371   -24895.826    1853.4551    1.1578834    31.015963       31.016       31.016    29837.116 
 4491000    294.63955   -2855.9265   -23004.669   -24855.173    1850.5034    1.1578834    31.015963       31.016       31.016    29837.116 
 4492000    300.18361   -2752.1222   -23036.921   -24922.244    1885.3232    1.1578834    31.015963       31.016       31.016    29837.116 
 4493000    299.36417   -2558.2811   -22925.934   -24806.111    1880.1767    1.1578834    31.015963       31.016       31.016    29837.116 
 4494000    301.33855   -2539.4764   -22955.189   -24847.765    1892.5769    1.1578834    31.015963       31.016       31.016    29837.116 
 4495000    291.45659   -2962.4013   -22988.703   -24819.216    1830.5126    1.1578834    31.015963       31.016       31.016    29837.116 
 4496000    304.67547   -2963.1029   -23014.146   -24927.681    1913.5346    1.1578834    31.015963       31.016       31.016    29837.116 
 4497000    287.93341   -2459.5237   -23103.239   -24911.624     1808.385    1.1578834    31.015963       31.016       31.016    29837.116 
 4498000    293.39723    -3310.898   -23043.998   -24886.699    1842.7009    1.1578834    31.015963       31.016       31.016    29837.116 
 4499000    291.82718   -2884.6866   -23064.427   -24897.267    1832.8401    1.1578834    31.015963       31.016       31.016    29837.116 
 4500000    290.86093   -3126.8089   -23116.464   -24943.235    1826.7715    1.1578834    31.015963       31.016       31.016    29837.116 
 4501000     299.1709   -2022.9584   -22919.042   -24798.005    1878.9628    1.1578834    31.015963       31.016       31.016    29837.116 
 4502000    297.31514    -3496.937   -23046.695   -24914.002    1867.3076    1.1578834    31.015963       31.016       31.016    29837.116 
 4503000     302.8291   -3010.1702   -23056.006   -24957.944    1901.9384    1.1578834    31.015963       31.016       31.016    29837.116 
 4504000    296.23068   -3220.4097   -23149.988   -25010.485    1860.4966    1.1578834    31.015963       31.016       31.016    29837.116 
 4505000    294.95614   -2679.5911   -23056.478    -24908.97    1852.4917    1.1578834    31.015963       31.016       31.016    29837.116 
 4506000    303.94649    -2764.426   -23020.688   -24929.644    1908.9563    1.1578834    31.015963       31.016       31.016    29837.116 
 4507000    303.14548   -3167.0127    -22968.67   -24872.595    1903.9255    1.1578834    31.015963       31.016       31.016    29837.116 
 4508000    302.08381   -2707.0353   -22916.492    -24813.75    1897.2575    1.1578834    31.015963       31.016       31.016    29837.116 
 4509000    286.51263   -3505.2419   -23068.457   -24867.919    1799.4617    1.1578834    31.015963       31.016       31.016    29837.116 
 4510000    291.71196    -2528.686   -22982.172   -24814.288    1832.1164    1.1578834    31.015963       31.016       31.016    29837.116 
 4511000    301.55891   -2615.8874   -22908.561   -24802.522    1893.9609    1.1578834    31.015963       31.016       31.016    29837.116 
 4512000    300.85917   -3690.4975   -22984.683    -24874.25    1889.5661    1.1578834    31.015963       31.016       31.016    29837.116 
 4513000    305.17755   -2721.9593   -22944.445   -24861.133     1916.688    1.1578834    31.015963       31.016       31.016    29837.116 
 4514000    299.93148   -2694.6646   -22982.463   -24866.203    1883.7397    1.1578834    31.015963       31.016       31.016    29837.116 
 4515000    300.58074   -3009.8012   -22945.961   -24833.778    1887.8174    1.1578834    31.015963       31.016       31.016    29837.116 
 4516000    298.69632   -2385.0197   -22978.213   -24854.195    1875.9822    1.1578834    31.015963       31.016       31.016    29837.116 
 4517000    297.38004   -3021.5808   -23007.052   -24874.768    1867.7152    1.1578834    31.015963       31.016       31.016    29837.116 
 4518000    313.43318   -2485.9204   -22845.196   -24813.734     1968.538    1.1578834    31.015963       31.016       31.016    29837.116 
 4519000    293.33532   -3040.2427   -22999.862   -24842.174    1842.3121    1.1578834    31.015963       31.016       31.016    29837.116 
 4520000    295.96863   -3328.1317   -23005.432   -24864.283    1858.8507    1.1578834    31.015963       31.016       31.016    29837.116 
 4521000    300.94009   -2855.7857   -23041.355    -24931.43    1890.0743    1.1578834    31.015963       31.016       31.016    29837.116 
 4522000    300.25187   -3804.6835   -22963.131   -24848.883    1885.7519    1.1578834    31.015963       31.016       31.016    29837.116 
 4523000    287.09479   -2762.6916   -23117.719   -24920.837     1803.118    1.1578834    31.015963       31.016       31.016    29837.116 
 4524000    298.50252   -3293.1009   -23043.096   -24917.861     1874.765    1.1578834    31.015963       31.016       31.016    29837.116 
 4525000    306.75104   -3296.0541   -22943.566   -24870.136    1926.5704    1.1578834    31.015963       31.016       31.016    29837.116 
 4526000    287.82086   -3957.8667   -22992.046   -24799.724    1807.6781    1.1578834    31.015963       31.016       31.016    29837.116 
 4527000    294.75668   -2954.7287   -22982.186   -24833.425     1851.239    1.1578834    31.015963       31.016       31.016    29837.116 
 4528000     301.0705   -3571.3313   -22971.316   -24862.209    1890.8934    1.1578834    31.015963       31.016       31.016    29837.116 
 4529000     302.7611   -2555.7648   -22926.102   -24827.613    1901.5113    1.1578834    31.015963       31.016       31.016    29837.116 
 4530000    285.36126   -1947.4743   -23098.651   -24890.881    1792.2305    1.1578834    31.015963       31.016       31.016    29837.116 
 4531000    301.59272   -2705.0102   -22939.747    -24833.92    1894.1732    1.1578834    31.015963       31.016       31.016    29837.116 
 4532000    293.81854   -2456.6526   -22999.882   -24845.229     1845.347    1.1578834    31.015963       31.016       31.016    29837.116 
 4533000    302.56259   -3766.1365   -22956.789   -24857.054    1900.2646    1.1578834    31.015963       31.016       31.016    29837.116 
 4534000    308.93182   -3608.8065   -22954.143    -24894.41    1940.2669    1.1578834    31.015963       31.016       31.016    29837.116 
 4535000    295.91719   -3084.3347   -23019.932   -24878.459    1858.5276    1.1578834    31.015963       31.016       31.016    29837.116 
 4536000    311.55297     -3440.05    -22848.99   -24805.719    1956.7293    1.1578834    31.015963       31.016       31.016    29837.116 
 4537000    292.65613   -3313.9896   -23071.218   -24909.264    1838.0464    1.1578834    31.015963       31.016       31.016    29837.116 
 4538000    293.50837   -3650.9268   -22991.682   -24835.081    1843.3989    1.1578834    31.015963       31.016       31.016    29837.116 
 4539000    301.18891   -3054.8365   -22961.053    -24852.69    1891.6371    1.1578834    31.015963       31.016       31.016    29837.116 
 4540000    299.87149   -2231.8656   -23064.583   -24947.946    1883.3629    1.1578834    31.015963       31.016       31.016    29837.116 
 4541000    295.50279   -2761.0255   -23046.818   -24902.743     1855.925    1.1578834    31.015963       31.016       31.016    29837.116 
 4542000     298.5276   -3517.0989   -23093.297    -24968.22    1874.9225    1.1578834    31.015963       31.016       31.016    29837.116 
 4543000    298.02976   -2674.7063   -23056.927   -24928.722    1871.7958    1.1578834    31.015963       31.016       31.016    29837.116 
 4544000    296.23869   -3073.6633   -23095.233    -24955.78    1860.5469    1.1578834    31.015963       31.016       31.016    29837.116 
 4545000    305.72723    -3009.674   -23036.376   -24956.516    1920.1403    1.1578834    31.015963       31.016       31.016    29837.116 
 4546000    294.03988   -2897.6564   -23009.229   -24855.966    1846.7371    1.1578834    31.015963       31.016       31.016    29837.116 
 4547000    290.91928   -2988.9311   -23146.596   -24973.734    1827.1379    1.1578834    31.015963       31.016       31.016    29837.116 
 4548000    299.52356   -2762.2206   -23109.674   -24990.852    1881.1777    1.1578834    31.015963       31.016       31.016    29837.116 
 4549000    299.00121   -2752.4934   -23030.275   -24908.172    1877.8971    1.1578834    31.015963       31.016       31.016    29837.116 
 4550000    301.92996   -2828.9323   -22953.006   -24849.298    1896.2913    1.1578834    31.015963       31.016       31.016    29837.116 
 4551000    290.34759   -3126.2602   -23047.535   -24871.083    1823.5474    1.1578834    31.015963       31.016       31.016    29837.116 
 4552000     302.7435   -2988.3297   -22926.779   -24828.179    1901.4008    1.1578834    31.015963       31.016       31.016    29837.116 
 4553000     293.1728   -2618.3364   -22974.529    -24815.82    1841.2913    1.1578834    31.015963       31.016       31.016    29837.116 
 4554000    297.27373   -2536.9678   -22974.506   -24841.554    1867.0475    1.1578834    31.015963       31.016       31.016    29837.116 
 4555000    299.80183   -2836.9852   -22968.584   -24851.509    1882.9254    1.1578834    31.015963       31.016       31.016    29837.116 
 4556000    292.83561   -2958.9834   -23077.706    -24916.88    1839.1736    1.1578834    31.015963       31.016       31.016    29837.116 
 4557000    296.77848   -2278.6278   -23024.623    -24888.56    1863.9371    1.1578834    31.015963       31.016       31.016    29837.116 
 4558000    285.75792   -3150.4798   -23034.088    -24828.81    1794.7217    1.1578834    31.015963       31.016       31.016    29837.116 
 4559000    295.41114   -3405.4293   -23061.494   -24916.843    1855.3494    1.1578834    31.015963       31.016       31.016    29837.116 
 4560000    304.49477   -2914.1859   -23035.116   -24947.515    1912.3997    1.1578834    31.015963       31.016       31.016    29837.116 
 4561000    297.56973   -2642.0914   -22997.449   -24866.355    1868.9066    1.1578834    31.015963       31.016       31.016    29837.116 
 4562000    306.30358   -2822.8078   -22891.676   -24815.436    1923.7601    1.1578834    31.015963       31.016       31.016    29837.116 
 4563000    291.38967    -3191.147   -22971.643   -24801.735    1830.0923    1.1578834    31.015963       31.016       31.016    29837.116 
 4564000     292.0351   -3092.0434   -23030.501   -24864.647     1834.146    1.1578834    31.015963       31.016       31.016    29837.116 
 4565000     303.7227   -3329.2254   -22985.188   -24892.739    1907.5507    1.1578834    31.015963       31.016       31.016    29837.116 
 4566000    302.14095   -2591.7365   -22925.141   -24822.758    1897.6164    1.1578834    31.015963       31.016       31.016    29837.116 
 4567000     305.4202   -3100.5426   -22887.115   -24805.327     1918.212    1.1578834    31.015963       31.016       31.016    29837.116 
 4568000    295.14767   -2663.4237   -23045.596   -24899.291    1853.6946    1.1578834    31.015963       31.016       31.016    29837.116 
 4569000    295.01506    -2706.475   -22909.609   -24762.471    1852.8618    1.1578834    31.015963       31.016       31.016    29837.116 
 4570000    301.10622    -3067.112   -22976.749   -24867.867    1891.1177    1.1578834    31.015963       31.016       31.016    29837.116 
 4571000    302.61338   -3428.7947   -22980.018   -24880.601    1900.5835    1.1578834    31.015963       31.016       31.016    29837.116 
 4572000    300.04382   -2201.1021   -22901.917   -24786.363    1884.4453    1.1578834    31.015963       31.016       31.016    29837.116 
 4573000    292.86874   -2089.5302   -23046.057   -24885.439    1839.3817    1.1578834    31.015963       31.016       31.016    29837.116 
 4574000    307.36209   -1909.6104   -22939.696   -24870.104    1930.4081    1.1578834    31.015963       31.016       31.016    29837.116 
 4575000    298.59245   -3609.5318   -23008.149   -24883.479    1875.3298    1.1578834    31.015963       31.016       31.016    29837.116 
 4576000    285.88128   -2438.3835   -22989.109   -24784.605    1795.4965    1.1578834    31.015963       31.016       31.016    29837.116 
 4577000    297.16666   -3690.6678   -22925.582   -24791.957     1866.375    1.1578834    31.015963       31.016       31.016    29837.116 
 4578000    303.63034   -3021.3618   -23020.552   -24927.522    1906.9706    1.1578834    31.015963       31.016       31.016    29837.116 
 4579000    295.13355   -3208.7685   -22986.643   -24840.249     1853.606    1.1578834    31.015963       31.016       31.016    29837.116 
 4580000    295.03345   -2715.0986   -22983.135   -24836.112    1852.9773    1.1578834    31.015963       31.016       31.016    29837.116 
 4581000    302.80783   -2231.9288   -22946.099   -24847.904    1901.8048    1.1578834    31.015963       31.016       31.016    29837.116 
 4582000    293.35914   -2560.2257   -23063.789    -24906.25    1842.4617    1.1578834    31.015963       31.016       31.016    29837.116 
 4583000    288.79153   -3136.6585   -23064.359   -24878.134    1813.7745    1.1578834    31.015963       31.016       31.016    29837.116 
 4584000    303.42944   -3219.6361   -23067.632   -24973.341    1905.7089    1.1578834    31.015963       31.016       31.016    29837.116 
 4585000    286.69962   -3360.2626   -22983.325   -24783.961    1800.6361    1.1578834    31.015963       31.016       31.016    29837.116 
 4586000    294.11854   -3241.9634   -23008.423   -24855.654    1847.2311    1.1578834    31.015963       31.016       31.016    29837.116 
 4587000    302.66032    -3175.918   -23043.425   -24944.303    1900.8784    1.1578834    31.015963       31.016       31.016    29837.116 
 4588000    291.64713   -3294.5092   -23045.809   -24877.519    1831.7093    1.1578834    31.015963       31.016       31.016    29837.116 
 4589000    296.03546   -2918.1541   -23047.313   -24906.584    1859.2705    1.1578834    31.015963       31.016       31.016    29837.116 
 4590000    302.23418   -2740.7547   -22951.355   -24849.557     1898.202    1.1578834    31.015963       31.016       31.016    29837.116 
 4591000    289.52701   -3060.4384   -23009.487    -24827.88    1818.3937    1.1578834    31.015963       31.016       31.016    29837.116 
 4592000    300.98147    -2757.913   -23068.875   -24959.209    1890.3342    1.1578834    31.015963       31.016       31.016    29837.116 
 4593000      302.095   -2812.2025   -23027.001   -24924.329    1897.3278    1.1578834    31.015963       31.016       31.016    29837.116 
 4594000    299.96798   -3180.8592   -23068.579   -24952.548    1883.9689    1.1578834    31.015963       31.016       31.016    29837.116 
 4595000    291.21376   -3071.5616   -23107.682   -24936.669    1828.9875    1.1578834    31.015963       31.016       31.016    29837.116 
 4596000    302.26672   -2405.5172   -22963.577   -24861.983    1898.4063    1.1578834    31.015963       31.016       31.016    29837.116 
 4597000    298.39657   -2530.2205   -23044.773   -24918.873    1874.0996    1.1578834    31.015963       31.016       31.016    29837.116 
 4598000    292.71498   -2488.9092   -22930.978   -24769.394     1838.416    1.1578834    31.015963       31.016       31.016    29837.116 
 4599000    292.09556   -2452.7176   -22993.779   -24828.304    1834.5257    1.1578834    31.015963       31.016       31.016    29837.116 
 4600000    296.55683   -3253.2112   -22992.019   -24854.564     1862.545    1.1578834    31.015963       31.016       31.016    29837.116 
 4601000    290.87292   -2644.9226   -23076.619   -24903.466    1826.8468    1.1578834    31.015963       31.016       31.016    29837.116 
 4602000     304.5614    -2428.767   -23004.459   -24917.278    1912.8182    1.1578834    31.015963       31.016       31.016    29837.116 
 4603000     302.7056   -2869.6697   -22912.349   -24813.511    1901.1628    1.1578834    31.015963       31.016       31.016    29837.116 
 4604000    293.93638    -2980.531   -22986.171   -24832.258     1846.087    1.1578834    31.015963       31.016       31.016    29837.116 
 4605000     298.2147   -2836.7742   -23006.694   -24879.652    1872.9574    1.1578834    31.015963       31.016       31.016    29837.116 
 4606000    295.97344   -3374.1496   -22979.433   -24838.314    1858.8809    1.1578834    31.015963       31.016       31.016    29837.116 
 4607000    294.79885   -2880.2935   -23040.932   -24892.435    1851.5039    1.1578834    31.015963       31.016       31.016    29837.116 
 4608000    299.37056   -2717.8041   -22944.137   -24824.353    1880.2168    1.1578834    31.015963       31.016       31.016    29837.116 
 4609000    300.03016   -2207.7342   -23018.613   -24902.972    1884.3594    1.1578834    31.015963       31.016       31.016    29837.116 
 4610000    304.23872   -3199.4317   -22933.655   -24844.447    1910.7916    1.1578834    31.015963       31.016       31.016    29837.116 
 4611000    305.03596   -2721.8827   -23074.774   -24990.573    1915.7987    1.1578834    31.015963       31.016       31.016    29837.116 
 4612000    297.19024   -2417.8426   -23069.668   -24936.191    1866.5231    1.1578834    31.015963       31.016       31.016    29837.116 
 4613000    311.21095   -3379.9143   -22953.849    -24908.43    1954.5812    1.1578834    31.015963       31.016       31.016    29837.116 
 4614000     298.9593   -3941.0549   -23065.129   -24942.763    1877.6338    1.1578834    31.015963       31.016       31.016    29837.116 
 4615000    296.62635   -2932.4914   -23012.194   -24875.176    1862.9816    1.1578834    31.015963       31.016       31.016    29837.116 
 4616000    296.53941   -3143.5879    -22981.26   -24843.696    1862.4356    1.1578834    31.015963       31.016       31.016    29837.116 
 4617000     300.9244   -2230.2595   -23051.603   -24941.579    1889.9758    1.1578834    31.015963       31.016       31.016    29837.116 
 4618000    300.16573   -1963.5115   -22964.951   -24850.161    1885.2109    1.1578834    31.015963       31.016       31.016    29837.116 
 4619000    296.36606   -1839.8424   -23083.568   -24944.915    1861.3468    1.1578834    31.015963       31.016       31.016    29837.116 
 4620000    299.36283   -3138.5255   -23024.865   -24905.034    1880.1683    1.1578834    31.015963       31.016       31.016    29837.116 
 4621000    293.96844   -3166.3349    -23055.22   -24901.508    1846.2884    1.1578834    31.015963       31.016       31.016    29837.116 
 4622000    291.03027   -2842.6786   -23040.198   -24868.033    1827.8351    1.1578834    31.015963       31.016       31.016    29837.116 
 4623000    297.79909    -2518.352    -23030.51   -24900.857    1870.3471    1.1578834    31.015963       31.016       31.016    29837.116 
 4624000     302.7226   -2947.2068   -22946.318   -24847.587    1901.2695    1.1578834    31.015963       31.016       31.016    29837.116 
 4625000    294.25636   -3274.8799   -23034.903   -24882.999    1848.0967    1.1578834    31.015963       31.016       31.016    29837.116 
 4626000    303.41111   -3556.9721   -22951.939   -24857.533    1905.5938    1.1578834    31.015963       31.016       31.016    29837.116 
 4627000    304.15619   -2730.3279   -23005.522   -24915.796    1910.2732    1.1578834    31.015963       31.016       31.016    29837.116 
 4628000    294.10915    -2551.387   -23055.371   -24902.544    1847.1722    1.1578834    31.015963       31.016       31.016    29837.116 
 4629000    298.69429    -2849.361   -22958.876   -24834.845    1875.9695    1.1578834    31.015963       31.016       31.016    29837.116 
 4630000    299.37449   -2804.8541   -22969.637   -24849.878    1880.2415    1.1578834    31.015963       31.016       31.016    29837.116 
 4631000    300.40342   -2721.8693   -23005.845   -24892.548    1886.7037    1.1578834    31.015963       31.016       31.016    29837.116 
 4632000    297.76671   -3233.4172   -23045.772   -24915.916    1870.1437    1.1578834    31.015963       31.016       31.016    29837.116 
 4633000    299.83813   -2640.3311   -23072.903   -24956.057    1883.1534    1.1578834    31.015963       31.016       31.016    29837.116 
 4634000    298.37925   -2674.1431   -23096.214   -24970.205    1873.9908    1.1578834    31.015963       31.016       31.016    29837.116 
 4635000     295.9944   -3350.3439   -23068.309   -24927.322    1859.0126    1.1578834    31.015963       31.016       31.016    29837.116 
 4636000    303.47835   -1536.6136   -22945.545   -24851.561    1906.0161    1.1578834    31.015963       31.016       31.016    29837.116 
 4637000    295.10055   -2678.8973   -23064.237   -24917.636    1853.3987    1.1578834    31.015963       31.016       31.016    29837.116 
 4638000     301.4054   -2716.9122   -23023.077   -24916.074    1892.9968    1.1578834    31.015963       31.016       31.016    29837.116 
 4639000    284.34103   -2573.5479   -23079.096   -24864.919    1785.8228    1.1578834    31.015963       31.016       31.016    29837.116 
 4640000    292.04691   -2536.0661   -23038.233   -24872.453    1834.2201    1.1578834    31.015963       31.016       31.016    29837.116 
 4641000    302.24571   -3151.2248   -22960.907   -24859.181    1898.2743    1.1578834    31.015963       31.016       31.016    29837.116 
 4642000    290.05313   -2256.5966   -23022.611   -24844.309     1821.698    1.1578834    31.015963       31.016       31.016    29837.116 
 4643000    299.06513    -3040.553   -22962.676   -24840.974    1878.2985    1.1578834    31.015963       31.016       31.016    29837.116 
 4644000    294.77497   -2624.3023   -23007.842   -24859.196    1851.3539    1.1578834    31.015963       31.016       31.016    29837.116 
 4645000    298.77579   -2807.0456   -23057.856   -24934.337    1876.4813    1.1578834    31.015963       31.016       31.016    29837.116 
 4646000    302.03402   -3213.6983   -22947.901   -24844.846    1896.9448    1.1578834    31.015963       31.016       31.016    29837.116 
 4647000    288.37856   -3250.4126   -23088.603   -24899.784    1811.1808    1.1578834    31.015963       31.016       31.016    29837.116 
 4648000    304.64553    -3185.477   -23055.012   -24968.358    1913.3466    1.1578834    31.015963       31.016       31.016    29837.116 
 4649000    295.08905   -3734.6605   -23003.411   -24856.737    1853.3265    1.1578834    31.015963       31.016       31.016    29837.116 
 4650000     294.3466    -2970.809   -23028.208   -24876.872    1848.6634    1.1578834    31.015963       31.016       31.016    29837.116 
 4651000    300.61283   -2703.6565   -22956.062   -24844.081     1888.019    1.1578834    31.015963       31.016       31.016    29837.116 
 4652000    293.81816   -3240.3591   -23049.391   -24894.736    1845.3446    1.1578834    31.015963       31.016       31.016    29837.116 
 4653000      297.067   -2151.5911   -22990.109   -24855.858    1865.7491    1.1578834    31.015963       31.016       31.016    29837.116 
 4654000    299.40857   -2518.7011   -23027.493   -24907.948    1880.4555    1.1578834    31.015963       31.016       31.016    29837.116 
 4655000    300.52153   -3163.6834   -23084.921   -24972.367    1887.4455    1.1578834    31.015963       31.016       31.016    29837.116 
 4656000    302.82031   -2698.6893   -23044.561   -24946.444    1901.8832    1.1578834    31.015963       31.016       31.016    29837.116 
 4657000     290.9086   -3282.5332   -22946.818   -24773.888    1827.0709    1.1578834    31.015963       31.016       31.016    29837.116 
 4658000    303.68697   -2641.1441   -22889.468   -24796.794    1907.3263    1.1578834    31.015963       31.016       31.016    29837.116 
 4659000    294.41398   -2687.7353    -23020.74   -24869.826    1849.0866    1.1578834    31.015963       31.016       31.016    29837.116 
 4660000    294.51266   -2073.4477    -23067.23   -24916.937    1849.7064    1.1578834    31.015963       31.016       31.016    29837.116 
 4661000    304.84325   -3214.2565   -22990.192    -24904.78    1914.5884    1.1578834    31.015963       31.016       31.016    29837.116 
 4662000    303.99118   -1890.3505   -22972.258   -24881.495    1909.2369    1.1578834    31.015963       31.016       31.016    29837.116 
 4663000    305.69253   -2998.5201   -22915.047    -24834.97    1919.9224    1.1578834    31.015963       31.016       31.016    29837.116 
 4664000    299.79149    -1924.557   -22947.437   -24830.298    1882.8605    1.1578834    31.015963       31.016       31.016    29837.116 
 4665000     292.2334    -3695.141     -22935.8   -24771.191    1835.3914    1.1578834    31.015963       31.016       31.016    29837.116 
 4666000     299.0353   -1928.0729   -22994.773   -24872.885    1878.1112    1.1578834    31.015963       31.016       31.016    29837.116 
 4667000    296.83462   -3226.3513   -22984.889   -24849.179    1864.2897    1.1578834    31.015963       31.016       31.016    29837.116 
 4668000     299.5704   -2807.5964   -23005.549    -24887.02    1881.4719    1.1578834    31.015963       31.016       31.016    29837.116 
 4669000    302.89076   -2790.5971   -22955.347   -24857.673    1902.3256    1.1578834    31.015963       31.016       31.016    29837.116 
 4670000    293.45499   -2917.2651   -23017.209   -24860.272    1843.0636    1.1578834    31.015963       31.016       31.016    29837.116 
 4671000    293.60303   -3420.2487    -23047.75   -24891.743    1843.9934    1.1578834    31.015963       31.016       31.016    29837.116 
 4672000    307.96915    -2829.592   -22942.275   -24876.496    1934.2208    1.1578834    31.015963       31.016       31.016    29837.116 
 4673000    290.95244   -3020.2009   -23055.552   -24882.898    1827.3462    1.1578834    31.015963       31.016       31.016    29837.116 
 4674000    295.77845   -2910.2502   -23005.374    -24863.03    1857.6563    1.1578834    31.015963       31.016       31.016    29837.116 
 4675000    301.44341   -2821.3573   -23047.402   -24940.638    1893.2355    1.1578834    31.015963       31.016       31.016    29837.116 
 4676000    295.10004   -2814.6591   -23024.901   -24878.297    1853.3955    1.1578834    31.015963       31.016       31.016    29837.116 
 4677000     297.2836   -3050.4171   -23031.284   -24898.393    1867.1095    1.1578834    31.015963       31.016       31.016    29837.116 
 4678000     296.4106   -3478.0476   -23047.687   -24909.313    1861.6266    1.1578834    31.015963       31.016       31.016    29837.116 
 4679000    292.13094   -2217.4807   -23078.412    -24913.16    1834.7478    1.1578834    31.015963       31.016       31.016    29837.116 
 4680000    295.91176   -2619.9235   -23084.077    -24942.57    1858.4936    1.1578834    31.015963       31.016       31.016    29837.116 
 4681000    296.12408   -2992.5384   -23044.232   -24904.059    1859.8271    1.1578834    31.015963       31.016       31.016    29837.116 
 4682000    291.92758   -3339.8368   -23079.385   -24912.856    1833.4707    1.1578834    31.015963       31.016       31.016    29837.116 
 4683000     301.0808    -2757.013   -22980.844   -24871.802    1890.9581    1.1578834    31.015963       31.016       31.016    29837.116 
 4684000    285.82312   -2929.9571   -23079.249    -24874.38    1795.1312    1.1578834    31.015963       31.016       31.016    29837.116 
 4685000    298.66628   -2367.6026   -22883.356   -24759.149    1875.7935    1.1578834    31.015963       31.016       31.016    29837.116 
 4686000    302.62414   -2047.2292   -22904.791   -24805.442    1900.6511    1.1578834    31.015963       31.016       31.016    29837.116 
 4687000     304.2013   -2634.2373   -22989.669   -24900.226    1910.5566    1.1578834    31.015963       31.016       31.016    29837.116 
 4688000    298.63356   -2827.7724    -22951.68   -24827.268     1875.588    1.1578834    31.015963       31.016       31.016    29837.116 
 4689000    293.04795   -2136.4541   -22915.804   -24756.312    1840.5072    1.1578834    31.015963       31.016       31.016    29837.116 
 4690000    291.16558   -2222.2422   -22891.095    -24719.78    1828.6849    1.1578834    31.015963       31.016       31.016    29837.116 
 4691000    297.86665   -1819.7492   -22876.987   -24747.758    1870.7714    1.1578834    31.015963       31.016       31.016    29837.116 
 4692000    296.18454   -4689.6796   -22968.379   -24828.586    1860.2068    1.1578834    31.015963       31.016       31.016    29837.116 
 4693000    300.62566   -3798.8013   -22908.838   -24796.937    1888.0995    1.1578834    31.015963       31.016       31.016    29837.116 
 4694000    292.21948   -2654.9362   -23067.785   -24903.089     1835.304    1.1578834    31.015963       31.016       31.016    29837.116 
 4695000     307.3292   -3048.0643   -22894.366   -24824.568    1930.2016    1.1578834    31.015963       31.016       31.016    29837.116 
 4696000    304.47265   -2259.1204   -22953.629    -24865.89    1912.2608    1.1578834    31.015963       31.016       31.016    29837.116 
 4697000    290.63626   -1877.1515   -23049.172   -24874.533    1825.3605    1.1578834    31.015963       31.016       31.016    29837.116 
 4698000    311.65014   -1843.9777   -22974.199   -24931.539    1957.3395    1.1578834    31.015963       31.016       31.016    29837.116 
 4699000    294.47704   -3181.1266   -23106.963   -24956.446    1849.4827    1.1578834    31.015963       31.016       31.016    29837.116 
 4700000    308.63011   -3548.5662   -22966.409   -24904.781     1938.372    1.1578834    31.015963       31.016       31.016    29837.116 
 4701000    287.47389   -2214.4991   -23067.535   -24873.034     1805.499    1.1578834    31.015963       31.016       31.016    29837.116 
 4702000    304.99292   -2597.4858    -22933.49   -24849.018    1915.5284    1.1578834    31.015963       31.016       31.016    29837.116 
 4703000    307.16374   -2991.9464    -22983.21   -24912.372    1929.1624    1.1578834    31.015963       31.016       31.016    29837.116 
 4704000     302.9974   -1704.9182   -23049.937   -24952.932    1902.9954    1.1578834    31.015963       31.016       31.016    29837.116 
 4705000    294.74568   -2956.7109   -23028.223   -24879.393    1851.1699    1.1578834    31.015963       31.016       31.016    29837.116 
 4706000    301.58841   -2536.6052    -23016.13   -24910.276    1894.1462    1.1578834    31.015963       31.016       31.016    29837.116 
 4707000      297.476   -2510.3779   -22976.671   -24844.989    1868.3179    1.1578834    31.015963       31.016       31.016    29837.116 
 4708000    292.08599   -2791.5417   -23050.655    -24885.12    1834.4655    1.1578834    31.015963       31.016       31.016    29837.116 
 4709000     287.8344   -2454.9606    -23057.32   -24865.083    1807.7632    1.1578834    31.015963       31.016       31.016    29837.116 
 4710000    289.77662   -3336.2392   -23095.075   -24915.036    1819.9614    1.1578834    31.015963       31.016       31.016    29837.116 
 4711000    296.76235   -3003.1674    -22919.32   -24783.156    1863.8358    1.1578834    31.015963       31.016       31.016    29837.116 
 4712000    295.18881   -2803.5105    -22957.53   -24811.483     1853.953    1.1578834    31.015963       31.016       31.016    29837.116 
 4713000    301.09579   -2738.0695   -22972.236   -24863.289    1891.0522    1.1578834    31.015963       31.016       31.016    29837.116 
 4714000    301.62422   -3208.5756    -22888.47   -24782.841    1894.3711    1.1578834    31.015963       31.016       31.016    29837.116 
 4715000    293.74747   -3316.7345   -22881.368   -24726.268    1844.9006    1.1578834    31.015963       31.016       31.016    29837.116 
 4716000    295.60052   -2857.8289   -22989.253   -24845.792    1856.5388    1.1578834    31.015963       31.016       31.016    29837.116 
 4717000    298.82393   -2587.1474   -23018.524   -24895.308    1876.7836    1.1578834    31.015963       31.016       31.016    29837.116 
 4718000    302.59446   -3124.4894   -22955.239   -24855.703    1900.4647    1.1578834    31.015963       31.016       31.016    29837.116 
 4719000    292.81399   -3364.2365   -23008.153   -24847.191    1839.0378    1.1578834    31.015963       31.016       31.016    29837.116 
 4720000    288.31676   -3101.4102   -23143.445   -24954.237    1810.7927    1.1578834    31.015963       31.016       31.016    29837.116 
 4721000    293.54923   -3573.0522    -23064.76   -24908.415    1843.6555    1.1578834    31.015963       31.016       31.016    29837.116 
 4722000    296.94551   -2100.1427   -23011.192   -24876.178    1864.9861    1.1578834    31.015963       31.016       31.016    29837.116 
 4723000    295.54558   -2276.1317   -23055.842   -24912.036    1856.1938    1.1578834    31.015963       31.016       31.016    29837.116 
 4724000    305.35652   -2792.5307    -23056.98   -24974.792     1917.812    1.1578834    31.015963       31.016       31.016    29837.116 
 4725000    302.75654   -2840.1861   -23008.424   -24909.907    1901.4827    1.1578834    31.015963       31.016       31.016    29837.116 
 4726000    297.15529    -2734.304   -22996.198   -24862.501    1866.3036    1.1578834    31.015963       31.016       31.016    29837.116 
 4727000    302.48687   -2608.9368   -23059.601    -24959.39     1899.789    1.1578834    31.015963       31.016       31.016    29837.116 
 4728000    295.44175   -2677.6039   -23069.823   -24925.364    1855.5416    1.1578834    31.015963       31.016       31.016    29837.116 
 4729000    295.71093   -3043.2456    -23050.58   -24907.812    1857.2323    1.1578834    31.015963       31.016       31.016    29837.116 
 4730000    286.39622   -1840.5606   -23066.503   -24865.234    1798.7306    1.1578834    31.015963       31.016       31.016    29837.116 
 4731000    301.29301   -2543.8788   -22942.404   -24834.694    1892.2909    1.1578834    31.015963       31.016       31.016    29837.116 
 4732000    291.97885   -2836.3051   -23076.264   -24910.056    1833.7927    1.1578834    31.015963       31.016       31.016    29837.116 
 4733000     297.8211   -3054.3672    -23017.04   -24887.525    1870.4853    1.1578834    31.015963       31.016       31.016    29837.116 
 4734000    300.07842   -2186.0069   -22886.079   -24770.742    1884.6626    1.1578834    31.015963       31.016       31.016    29837.116 
 4735000    309.31918   -2804.5765   -22946.956   -24889.656    1942.6998    1.1578834    31.015963       31.016       31.016    29837.116 
 4736000    305.25483   -2180.2418   -22990.494   -24907.668    1917.1733    1.1578834    31.015963       31.016       31.016    29837.116 
 4737000    311.80388   -2441.6892   -22938.645    -24896.95    1958.3051    1.1578834    31.015963       31.016       31.016    29837.116 
 4738000    292.88333   -3427.9263   -23046.346   -24885.819    1839.4733    1.1578834    31.015963       31.016       31.016    29837.116 
 4739000    296.51441   -2937.3644   -23080.555   -24942.833    1862.2785    1.1578834    31.015963       31.016       31.016    29837.116 
 4740000    305.11767   -2832.8133   -22974.349   -24890.661    1916.3119    1.1578834    31.015963       31.016       31.016    29837.116 
 4741000    288.78112   -2200.8534   -23119.888   -24933.597    1813.7091    1.1578834    31.015963       31.016       31.016    29837.116 
 4742000    297.29624   -2864.7703   -23077.664   -24944.852    1867.1889    1.1578834    31.015963       31.016       31.016    29837.116 
 4743000     300.3931   -2578.2535   -23071.938   -24958.577    1886.6389    1.1578834    31.015963       31.016       31.016    29837.116 
 4744000    301.62135    -3294.433   -23084.618   -24978.971     1894.353    1.1578834    31.015963       31.016       31.016    29837.116 
 4745000    294.46601   -2583.7969   -23047.209   -24896.623    1849.4134    1.1578834    31.015963       31.016       31.016    29837.116 
 4746000    306.54159    -2672.036   -22990.545     -24915.8    1925.2549    1.1578834    31.015963       31.016       31.016    29837.116 
 4747000    298.37748   -2230.9698   -22984.587   -24858.567    1873.9797    1.1578834    31.015963       31.016       31.016    29837.116 
 4748000    297.43737    -2659.796   -23044.509   -24912.585    1868.0752    1.1578834    31.015963       31.016       31.016    29837.116 
 4749000     296.5148   -2642.3115   -23035.162   -24897.443     1862.281    1.1578834    31.015963       31.016       31.016    29837.116 
 4750000     311.1523   -2778.5923   -22914.077    -24868.29    1954.2128    1.1578834    31.015963       31.016       31.016    29837.116 
 4751000    296.66411   -2027.3196   -22988.604   -24851.823    1863.2187    1.1578834    31.015963       31.016       31.016    29837.116 
 4752000    293.53039   -2868.0143   -22980.304   -24823.841    1843.5372    1.1578834    31.015963       31.016       31.016    29837.116 
 4753000    299.82537   -2462.4372    -22950.06   -24833.133    1883.0732    1.1578834    31.015963       31.016       31.016    29837.116 
 4754000    300.98557   -3307.8786   -23015.147   -24905.507      1890.36    1.1578834    31.015963       31.016       31.016    29837.116 
 4755000    303.31777   -2692.2869   -22931.441   -24836.449    1905.0075    1.1578834    31.015963       31.016       31.016    29837.116 
 4756000    305.07073   -3767.5947   -22941.639   -24857.656    1916.0171    1.1578834    31.015963       31.016       31.016    29837.116 
 4757000    295.94856   -2264.1628   -23056.337   -24915.062    1858.7247    1.1578834    31.015963       31.016       31.016    29837.116 
 4758000    304.12028   -3018.3743   -22956.006   -24866.054    1910.0477    1.1578834    31.015963       31.016       31.016    29837.116 
 4759000     299.5371   -2969.6641   -23059.986   -24941.249    1881.2627    1.1578834    31.015963       31.016       31.016    29837.116 
 4760000     308.3073    -3006.612   -22908.458   -24844.803    1936.3446    1.1578834    31.015963       31.016       31.016    29837.116 
 4761000    299.50765   -2946.9836   -23020.157   -24901.235    1881.0778    1.1578834    31.015963       31.016       31.016    29837.116 
 4762000     296.0309    -2306.374   -23038.936   -24898.178    1859.2418    1.1578834    31.015963       31.016       31.016    29837.116 
 4763000    303.48949   -2477.6924   -22975.512   -24881.598     1906.086    1.1578834    31.015963       31.016       31.016    29837.116 
 4764000     288.5813   -2837.7779   -23090.109   -24902.563    1812.4541    1.1578834    31.015963       31.016       31.016    29837.116 
 4765000    299.03511   -2718.3232   -22981.915   -24860.025      1878.11    1.1578834    31.015963       31.016       31.016    29837.116 
 4766000    306.06287    -2665.015   -22960.256   -24882.504    1922.2483    1.1578834    31.015963       31.016       31.016    29837.116 
 4767000    294.73077   -2729.2652   -22999.546   -24850.622    1851.0763    1.1578834    31.015963       31.016       31.016    29837.116 
 4768000    304.16289   -3403.8973   -22982.766   -24893.081    1910.3153    1.1578834    31.015963       31.016       31.016    29837.116 
 4769000    296.27603   -2665.8202   -23016.702   -24877.484    1860.7814    1.1578834    31.015963       31.016       31.016    29837.116 
 4770000    304.72925   -3425.9141    -22931.39   -24845.263    1913.8724    1.1578834    31.015963       31.016       31.016    29837.116 
 4771000    294.82555    -2620.741   -23070.656   -24922.328    1851.6716    1.1578834    31.015963       31.016       31.016    29837.116 
 4772000    303.21873    -1987.226   -22946.586   -24850.971    1904.3855    1.1578834    31.015963       31.016       31.016    29837.116 
 4773000    292.84487   -3190.6746    -23117.84   -24957.072    1839.2318    1.1578834    31.015963       31.016       31.016    29837.116 
 4774000    291.28735   -2831.4387   -23084.035   -24913.485    1829.4497    1.1578834    31.015963       31.016       31.016    29837.116 
 4775000    290.14797    -2579.396   -23094.061   -24916.355    1822.2937    1.1578834    31.015963       31.016       31.016    29837.116 
 4776000    294.68579   -3575.1742   -23028.335   -24879.128    1850.7938    1.1578834    31.015963       31.016       31.016    29837.116 
 4777000     296.9726   -3435.2085   -23021.085   -24886.241    1865.1563    1.1578834    31.015963       31.016       31.016    29837.116 
 4778000    302.05936   -2194.8328   -22979.642   -24876.746     1897.104    1.1578834    31.015963       31.016       31.016    29837.116 
 4779000    298.75419   -2937.4722       -23032   -24908.346    1876.3456    1.1578834    31.015963       31.016       31.016    29837.116 
 4780000    296.05264    -1954.458    -23037.81   -24897.188    1859.3784    1.1578834    31.015963       31.016       31.016    29837.116 
 4781000    296.74934   -3652.7675   -23111.009   -24974.763    1863.7541    1.1578834    31.015963       31.016       31.016    29837.116 
 4782000    294.86523    -4279.555   -23126.558   -24978.478    1851.9208    1.1578834    31.015963       31.016       31.016    29837.116 
 4783000    304.45757   -3172.2895    -23015.64   -24927.806    1912.1661    1.1578834    31.015963       31.016       31.016    29837.116 
 4784000    309.21049   -2820.8288    -22924.23   -24866.247    1942.0172    1.1578834    31.015963       31.016       31.016    29837.116 
 4785000    301.20066    -2668.465   -22928.182   -24819.892    1891.7108    1.1578834    31.015963       31.016       31.016    29837.116 
 4786000    307.29091   -2797.5669   -23015.665   -24945.626    1929.9611    1.1578834    31.015963       31.016       31.016    29837.116 
 4787000    303.88237   -2690.7692   -22900.462   -24809.016    1908.5535    1.1578834    31.015963       31.016       31.016    29837.116 
 4788000    295.23884   -2389.2686    -23006.07   -24860.337    1854.2672    1.1578834    31.015963       31.016       31.016    29837.116 
 4789000     292.0564   -2943.2798   -23046.574   -24880.854    1834.2797    1.1578834    31.015963       31.016       31.016    29837.116 
 4790000    297.46308   -2991.8924   -22992.795   -24861.032    1868.2367    1.1578834    31.015963       31.016       31.016    29837.116 
 4791000    288.24379   -3385.7368   -23081.437   -24891.772    1810.3343    1.1578834    31.015963       31.016       31.016    29837.116 
 4792000    300.12294    -3335.433    -22960.18   -24845.122    1884.9422    1.1578834    31.015963       31.016       31.016    29837.116 
 4793000    297.77312   -3044.9712   -23089.756   -24959.939    1870.1839    1.1578834    31.015963       31.016       31.016    29837.116 
 4794000    290.42298   -2280.7585   -23083.253   -24907.274    1824.0209    1.1578834    31.015963       31.016       31.016    29837.116 
 4795000    297.02517   -2237.3489   -23079.221   -24944.707    1865.4864    1.1578834    31.015963       31.016       31.016    29837.116 
 4796000    295.64637   -2232.8557    -22961.83   -24818.657    1856.8268    1.1578834    31.015963       31.016       31.016    29837.116 
 4797000    294.15742   -3743.4141   -23032.067   -24879.542    1847.4753    1.1578834    31.015963       31.016       31.016    29837.116 
 4798000    305.21915   -2484.7734   -22972.512   -24889.461    1916.9493    1.1578834    31.015963       31.016       31.016    29837.116 
 4799000    290.78421    -1683.533    -23033.41   -24859.699    1826.2896    1.1578834    31.015963       31.016       31.016    29837.116 
 4800000    298.99327   -2335.5897    -23075.98   -24953.827    1877.8472    1.1578834    31.015963       31.016       31.016    29837.116 
 4801000    300.86029   -2636.2673   -22970.645   -24860.218    1889.5731    1.1578834    31.015963       31.016       31.016    29837.116 
 4802000    288.98967   -2898.3502   -23021.628   -24836.647    1815.0189    1.1578834    31.015963       31.016       31.016    29837.116 
 4803000    297.16551    -1847.102   -22873.856   -24740.224    1866.3678    1.1578834    31.015963       31.016       31.016    29837.116 
 4804000    289.94616   -2232.9127   -23056.697   -24877.723    1821.0262    1.1578834    31.015963       31.016       31.016    29837.116 
 4805000    296.59366   -1591.0624   -22962.474    -24825.25    1862.7763    1.1578834    31.015963       31.016       31.016    29837.116 
 4806000    294.01586   -2489.1922   -23029.036   -24875.622    1846.5863    1.1578834    31.015963       31.016       31.016    29837.116 
 4807000     294.0333   -2505.9562   -23071.289   -24917.985    1846.6958    1.1578834    31.015963       31.016       31.016    29837.116 
 4808000    301.54907   -2796.7005   -23031.491    -24925.39    1893.8991    1.1578834    31.015963       31.016       31.016    29837.116 
 4809000    294.04813   -2711.4571   -23063.497   -24910.286    1846.7889    1.1578834    31.015963       31.016       31.016    29837.116 
 4810000    292.36458   -2442.5287   -23094.231   -24930.446    1836.2152    1.1578834    31.015963       31.016       31.016    29837.116 
 4811000    302.31627   -2557.3049   -22971.393   -24870.111    1898.7175    1.1578834    31.015963       31.016       31.016    29837.116 
 4812000    302.15016   -2108.9885   -22980.727   -24878.401    1897.6743    1.1578834    31.015963       31.016       31.016    29837.116 
 4813000    294.94632   -2680.3719   -23049.847   -24902.277    1852.4301    1.1578834    31.015963       31.016       31.016    29837.116 
 4814000    300.55623   -2324.6686   -22985.388   -24873.052    1887.6635    1.1578834    31.015963       31.016       31.016    29837.116 
 4815000    299.35866   -3042.2589    -23000.55   -24880.692     1880.142    1.1578834    31.015963       31.016       31.016    29837.116 
 4816000    309.18894   -2266.0606   -22958.246   -24900.128    1941.8818    1.1578834    31.015963       31.016       31.016    29837.116 
 4817000    296.16103   -3147.7248   -23009.556   -24869.615    1860.0591    1.1578834    31.015963       31.016       31.016    29837.116 
 4818000     299.0982   -3322.9346   -23012.112   -24890.618    1878.5062    1.1578834    31.015963       31.016       31.016    29837.116 
 4819000    295.34908   -3242.2229   -23060.512   -24915.472    1854.9596    1.1578834    31.015963       31.016       31.016    29837.116 
 4820000    299.82659   -2988.8062   -22963.684   -24846.765    1883.0809    1.1578834    31.015963       31.016       31.016    29837.116 
 4821000    296.55187   -2408.5051   -22927.037   -24789.551    1862.5138    1.1578834    31.015963       31.016       31.016    29837.116 
 4822000    295.53933    -2965.183   -22966.645     -24822.8    1856.1545    1.1578834    31.015963       31.016       31.016    29837.116 
 4823000    297.59152   -3288.2299   -23005.578   -24874.621    1869.0434    1.1578834    31.015963       31.016       31.016    29837.116 
 4824000    299.90462     -2795.72   -22944.667   -24828.238     1883.571    1.1578834    31.015963       31.016       31.016    29837.116 
 4825000    302.93391   -3380.1711   -22940.786   -24843.383    1902.5967    1.1578834    31.015963       31.016       31.016    29837.116 
 4826000    296.94884   -3843.0357    -23001.85   -24866.857     1865.007    1.1578834    31.015963       31.016       31.016    29837.116 
 4827000    296.29724   -1899.8717   -22994.462   -24855.376    1860.9146    1.1578834    31.015963       31.016       31.016    29837.116 
 4828000    302.82781    -2190.165    -23051.09    -24953.02    1901.9303    1.1578834    31.015963       31.016       31.016    29837.116 
 4829000     299.0704   -3259.5508   -22961.448   -24839.779    1878.3316    1.1578834    31.015963       31.016       31.016    29837.116 
 4830000    300.28744   -2308.6172   -23002.677   -24888.652    1885.9753    1.1578834    31.015963       31.016       31.016    29837.116 
 4831000    302.71361   -1912.1829   -22977.053   -24878.266    1901.2131    1.1578834    31.015963       31.016       31.016    29837.116 
 4832000    300.69417   -1951.3782   -22966.975   -24855.505    1888.5298    1.1578834    31.015963       31.016       31.016    29837.116 
 4833000     290.0585    -2724.152   -23016.739    -24838.47    1821.7318    1.1578834    31.015963       31.016       31.016    29837.116 
 4834000    298.45474   -3470.3827    -22928.46   -24802.924    1874.4649    1.1578834    31.015963       31.016       31.016    29837.116 
 4835000    286.91514   -1890.0145   -23027.587   -24829.577    1801.9897    1.1578834    31.015963       31.016       31.016    29837.116 
 4836000    298.68428   -2386.1561   -22954.002   -24829.908    1875.9066    1.1578834    31.015963       31.016       31.016    29837.116 
 4837000    296.24058   -2498.1513   -22980.526   -24841.085    1860.5587    1.1578834    31.015963       31.016       31.016    29837.116 
 4838000    294.76644   -2367.8544   -23046.699   -24897.999    1851.3003    1.1578834    31.015963       31.016       31.016    29837.116 
 4839000    298.92869   -2150.6302   -23074.618   -24952.059    1877.4416    1.1578834    31.015963       31.016       31.016    29837.116 
 4840000    299.54394   -3022.3576   -22992.091   -24873.397    1881.3057    1.1578834    31.015963       31.016       31.016    29837.116 
 4841000    304.98536   -2224.7998   -22999.813   -24915.294    1915.4809    1.1578834    31.015963       31.016       31.016    29837.116 
 4842000    304.94911   -2083.5267   -22978.587   -24893.841    1915.2532    1.1578834    31.015963       31.016       31.016    29837.116 
 4843000    301.49064    -2089.485   -22999.011   -24892.543    1893.5321    1.1578834    31.015963       31.016       31.016    29837.116 
 4844000    297.86024   -1729.3519   -23113.911   -24984.642    1870.7312    1.1578834    31.015963       31.016       31.016    29837.116 
 4845000    292.75964    -2624.865   -23104.594    -24943.29    1838.6964    1.1578834    31.015963       31.016       31.016    29837.116 
 4846000    306.82863    -2747.575   -23043.737   -24970.794    1927.0577    1.1578834    31.015963       31.016       31.016    29837.116 
 4847000    300.03329   -2576.6218   -23089.917   -24974.296    1884.3791    1.1578834    31.015963       31.016       31.016    29837.116 
 4848000    297.92778   -2860.7334   -22980.954   -24852.109    1871.1553    1.1578834    31.015963       31.016       31.016    29837.116 
 4849000    299.44745   -3312.3634   -22978.119   -24858.819    1880.6997    1.1578834    31.015963       31.016       31.016    29837.116 
 4850000    309.17478   -3865.7931   -22975.464   -24917.257    1941.7929    1.1578834    31.015963       31.016       31.016    29837.116 
 4851000    288.83893   -3696.2211   -23075.639   -24889.712    1814.0722    1.1578834    31.015963       31.016       31.016    29837.116 
 4852000    293.18631   -2453.4376   -23133.546   -24974.923    1841.3762    1.1578834    31.015963       31.016       31.016    29837.116 
 4853000    297.24036   -2758.8684   -23061.007   -24927.845    1866.8379    1.1578834    31.015963       31.016       31.016    29837.116 
 4854000    303.48578   -2948.8046   -23070.548   -24976.611    1906.0627    1.1578834    31.015963       31.016       31.016    29837.116 
 4855000     293.8836   -3038.3646   -22977.488   -24823.244    1845.7556    1.1578834    31.015963       31.016       31.016    29837.116 
 4856000     303.7323   -2765.5528   -23097.846   -25005.457     1907.611    1.1578834    31.015963       31.016       31.016    29837.116 
 4857000    293.91437   -3698.1303   -23108.828   -24954.777    1845.9488    1.1578834    31.015963       31.016       31.016    29837.116 
 4858000    290.37201      -1820.1   -23025.263   -24848.964    1823.7008    1.1578834    31.015963       31.016       31.016    29837.116 
 4859000    290.28938   -2887.3906   -23028.294   -24851.476    1823.1818    1.1578834    31.015963       31.016       31.016    29837.116 
 4860000    295.29414   -2484.5502   -22999.432   -24854.046    1854.6146    1.1578834    31.015963       31.016       31.016    29837.116 
 4861000     298.9983   -2722.9644   -23085.112   -24962.991    1877.8788    1.1578834    31.015963       31.016       31.016    29837.116 
 4862000    297.47837   -2290.9935   -23018.019   -24886.352    1868.3328    1.1578834    31.015963       31.016       31.016    29837.116 
 4863000     306.4392   -3025.8239   -23062.293   -24986.905    1924.6118    1.1578834    31.015963       31.016       31.016    29837.116 
 4864000    292.01548    -2585.679   -23064.759   -24898.781    1834.0227    1.1578834    31.015963       31.016       31.016    29837.116 
 4865000    300.89562   -1911.8086   -23022.731   -24912.526     1889.795    1.1578834    31.015963       31.016       31.016    29837.116 
 4866000    303.46985   -2476.1963   -22993.569   -24899.532    1905.9627    1.1578834    31.015963       31.016       31.016    29837.116 
 4867000    305.24049   -2208.4696   -22979.233   -24896.316    1917.0833    1.1578834    31.015963       31.016       31.016    29837.116 
 4868000    301.25777   -2956.1188   -22937.505   -24829.574    1892.0695    1.1578834    31.015963       31.016       31.016    29837.116 
 4869000    299.25587   -2684.8396   -23033.857   -24913.353    1879.4965    1.1578834    31.015963       31.016       31.016    29837.116 
 4870000     292.4536   -2714.6841   -22981.337   -24818.111    1836.7744    1.1578834    31.015963       31.016       31.016    29837.116 
 4871000     290.0339   -2377.4902    -22965.47   -24787.047    1821.5773    1.1578834    31.015963       31.016       31.016    29837.116 
 4872000    297.20527   -2912.4674    -22971.07   -24837.688    1866.6176    1.1578834    31.015963       31.016       31.016    29837.116 
 4873000     303.3957    -2700.947   -22978.632   -24884.129    1905.4969    1.1578834    31.015963       31.016       31.016    29837.116 
 4874000    302.27775   -2477.5729   -22944.469   -24842.944    1898.4756    1.1578834    31.015963       31.016       31.016    29837.116 
 4875000    298.97713   -2328.7517   -22892.562   -24770.308    1877.7458    1.1578834    31.015963       31.016       31.016    29837.116 
 4876000    297.74692   -2549.6383   -23027.793   -24897.812    1870.0194    1.1578834    31.015963       31.016       31.016    29837.116 
 4877000    285.16812   -2818.8571   -23075.883     -24866.9    1791.0174    1.1578834    31.015963       31.016       31.016    29837.116 
 4878000    305.06321   -2695.7979   -22944.185   -24860.155    1915.9699    1.1578834    31.015963       31.016       31.016    29837.116 
 4879000    298.69984   -3455.3067   -23053.501   -24929.505    1876.0043    1.1578834    31.015963       31.016       31.016    29837.116 
 4880000    292.93075   -2175.1996   -23041.542   -24881.313    1839.7711    1.1578834    31.015963       31.016       31.016    29837.116 
 4881000    301.88897   -2768.6339   -23070.038   -24966.072    1896.0338    1.1578834    31.015963       31.016       31.016    29837.116 
 4882000    296.18888   -3101.2994   -23061.873   -24922.107    1860.2341    1.1578834    31.015963       31.016       31.016    29837.116 
 4883000    288.58928   -3026.9302   -23094.828   -24907.332    1812.5043    1.1578834    31.015963       31.016       31.016    29837.116 
 4884000    293.03453   -3327.6239   -22992.044   -24832.467     1840.423    1.1578834    31.015963       31.016       31.016    29837.116 
 4885000    293.71949   -2522.3811   -23056.726   -24901.451    1844.7249    1.1578834    31.015963       31.016       31.016    29837.116 
 4886000    286.84163   -3083.1787   -23056.401   -24857.929     1801.528    1.1578834    31.015963       31.016       31.016    29837.116 
 4887000     297.9186   -2386.7117   -22955.607   -24826.705    1871.0977    1.1578834    31.015963       31.016       31.016    29837.116 
 4888000    305.60775   -2139.5244   -23003.932   -24923.322    1919.3899    1.1578834    31.015963       31.016       31.016    29837.116 
 4889000    302.49908   -2512.5701   -23049.984    -24949.85    1899.8657    1.1578834    31.015963       31.016       31.016    29837.116 
 4890000    294.82375   -3726.6808   -23089.847   -24941.507    1851.6603    1.1578834    31.015963       31.016       31.016    29837.116 
 4891000    288.83653   -3194.8947   -23093.295   -24907.352    1814.0571    1.1578834    31.015963       31.016       31.016    29837.116 
 4892000     299.3843   -3692.8087    -23019.86   -24900.163    1880.3031    1.1578834    31.015963       31.016       31.016    29837.116 
 4893000    296.54983   -3411.3371   -23069.515   -24932.016     1862.501    1.1578834    31.015963       31.016       31.016    29837.116 
 4894000    292.62225   -2926.3637   -23091.622   -24929.455    1837.8336    1.1578834    31.015963       31.016       31.016    29837.116 
 4895000    296.92959   -2735.1278   -23047.124    -24912.01    1864.8861    1.1578834    31.015963       31.016       31.016    29837.116 
 4896000    302.75991   -2092.3662   -22957.214   -24858.717    1901.5038    1.1578834    31.015963       31.016       31.016    29837.116 
 4897000    295.96938   -2107.1378   -23137.911   -24996.766    1858.8554    1.1578834    31.015963       31.016       31.016    29837.116 
 4898000    306.78423   -2196.2572   -22954.127   -24880.906    1926.7788    1.1578834    31.015963       31.016       31.016    29837.116 
 4899000    298.77384   -3382.1214   -23009.585   -24886.054    1876.4691    1.1578834    31.015963       31.016       31.016    29837.116 
 4900000    291.49376   -2288.9495   -23085.594    -24916.34     1830.746    1.1578834    31.015963       31.016       31.016    29837.116 
 4901000    302.14904   -2495.4129   -23091.639   -24989.306    1897.6672    1.1578834    31.015963       31.016       31.016    29837.116 
 4902000    304.26981   -2690.5231   -22988.834   -24899.821    1910.9869    1.1578834    31.015963       31.016       31.016    29837.116 
 4903000    307.54492   -2475.4418   -23033.025   -24964.581    1931.5564    1.1578834    31.015963       31.016       31.016    29837.116 
 4904000    296.15117   -2996.3134   -23072.661   -24932.658    1859.9972    1.1578834    31.015963       31.016       31.016    29837.116 
 4905000    304.41701   -3097.8166   -22971.402   -24883.313    1911.9114    1.1578834    31.015963       31.016       31.016    29837.116 
 4906000    305.49475   -2370.7621   -22935.955   -24854.636    1918.6802    1.1578834    31.015963       31.016       31.016    29837.116 
 4907000    302.14441   -3606.1372   -23050.392    -24948.03    1897.6381    1.1578834    31.015963       31.016       31.016    29837.116 
 4908000    303.65975   -2395.6538   -22953.179   -24860.335    1907.1553    1.1578834    31.015963       31.016       31.016    29837.116 
 4909000     290.1693   -2797.3069   -23037.771   -24860.199    1822.4277    1.1578834    31.015963       31.016       31.016    29837.116 
 4910000    302.07596   -2194.8859   -22984.927   -24882.136    1897.2083    1.1578834    31.015963       31.016       31.016    29837.116 
 4911000    296.73069   -2474.8196   -23002.342   -24865.979    1863.6369    1.1578834    31.015963       31.016       31.016    29837.116 
 4912000    293.71644   -3230.6412   -23047.059   -24891.765    1844.7057    1.1578834    31.015963       31.016       31.016    29837.116 
 4913000    295.03663   -2074.7218    -23008.91   -24861.907    1852.9972    1.1578834    31.015963       31.016       31.016    29837.116 
 4914000    297.67958   -2667.1393   -22984.745   -24854.342    1869.5965    1.1578834    31.015963       31.016       31.016    29837.116 
 4915000    298.09717   -3403.9629   -23055.172   -24927.391    1872.2192    1.1578834    31.015963       31.016       31.016    29837.116 
 4916000    293.22248   -2315.6341   -22999.452   -24841.056    1841.6034    1.1578834    31.015963       31.016       31.016    29837.116 
 4917000    303.05835   -3102.2399     -22958.7   -24862.079    1903.3782    1.1578834    31.015963       31.016       31.016    29837.116 
 4918000     299.9647   -3439.3918   -23012.942   -24896.891    1883.9483    1.1578834    31.015963       31.016       31.016    29837.116 
 4919000    290.28727    -2748.147   -23033.065   -24856.234    1823.1686    1.1578834    31.015963       31.016       31.016    29837.116 
 4920000    304.92655   -2371.8658   -22864.994   -24780.105    1915.1116    1.1578834    31.015963       31.016       31.016    29837.116 
 4921000    303.95716   -3361.5552   -22961.437    -24870.46    1909.0232    1.1578834    31.015963       31.016       31.016    29837.116 
 4922000    294.89162   -2239.6231   -22998.657   -24850.743    1852.0865    1.1578834    31.015963       31.016       31.016    29837.116 
 4923000    296.09507   -3345.2992   -23007.129   -24866.774    1859.6449    1.1578834    31.015963       31.016       31.016    29837.116 
 4924000    299.84034   -3017.8581   -23021.218   -24904.385    1883.1673    1.1578834    31.015963       31.016       31.016    29837.116 
 4925000    296.79875   -2503.1016   -22977.959   -24842.023    1864.0644    1.1578834    31.015963       31.016       31.016    29837.116 
 4926000    295.47148   -2166.8317   -22951.892   -24807.621    1855.7284    1.1578834    31.015963       31.016       31.016    29837.116 
 4927000     293.7687   -2038.4314   -23015.787   -24860.821    1845.0339    1.1578834    31.015963       31.016       31.016    29837.116 
 4928000    304.81058   -2094.3329   -22932.489   -24846.872    1914.3832    1.1578834    31.015963       31.016       31.016    29837.116 
 4929000    296.42532   -2748.6096   -22967.513   -24829.232     1861.719    1.1578834    31.015963       31.016       31.016    29837.116 
 4930000    295.46843   -2500.3964   -23006.511   -24862.221    1855.7092    1.1578834    31.015963       31.016       31.016    29837.116 
 4931000    298.89868   -2708.6209   -22944.316   -24821.569    1877.2531    1.1578834    31.015963       31.016       31.016    29837.116 
 4932000    299.93991   -2913.0668   -23054.772   -24938.565    1883.7926    1.1578834    31.015963       31.016       31.016    29837.116 
 4933000    285.74928   -3476.2391   -23078.316   -24872.984    1794.6674    1.1578834    31.015963       31.016       31.016    29837.116 
 4934000    295.43273   -2369.2979   -22965.422   -24820.907     1855.485    1.1578834    31.015963       31.016       31.016    29837.116 
 4935000     298.8619   -3589.5096   -22864.569   -24741.591    1877.0221    1.1578834    31.015963       31.016       31.016    29837.116 
 4936000    289.37997   -2149.8181   -23094.827   -24912.297    1817.4702    1.1578834    31.015963       31.016       31.016    29837.116 
 4937000    303.71642   -2468.6479    -22915.65   -24823.161    1907.5112    1.1578834    31.015963       31.016       31.016    29837.116 
 4938000    304.30316   -3043.4856    -23003.59   -24914.787    1911.1963    1.1578834    31.015963       31.016       31.016    29837.116 
 4939000    291.54989   -2401.6439   -23048.192    -24879.29    1831.0986    1.1578834    31.015963       31.016       31.016    29837.116 
 4940000    296.70622   -2581.0506   -23092.461   -24955.944    1863.4832    1.1578834    31.015963       31.016       31.016    29837.116 
 4941000    306.12268   -3060.4904   -22941.956    -24864.58    1922.6239    1.1578834    31.015963       31.016       31.016    29837.116 
 4942000    299.31889   -3266.3024   -23024.433   -24904.325    1879.8923    1.1578834    31.015963       31.016       31.016    29837.116 
 4943000    306.22551    -2624.514   -22869.044   -24792.313    1923.2698    1.1578834    31.015963       31.016       31.016    29837.116 
 4944000    295.95836   -2984.2125   -23053.997   -24912.783    1858.7862    1.1578834    31.015963       31.016       31.016    29837.116 
 4945000    298.02169   -2705.6256   -23022.573   -24894.318    1871.7451    1.1578834    31.015963       31.016       31.016    29837.116 
 4946000    292.47605   -1952.7733   -23038.695   -24875.611    1836.9154    1.1578834    31.015963       31.016       31.016    29837.116 
 4947000    303.61668   -2650.8321     -23102.3   -25009.184    1906.8848    1.1578834    31.015963       31.016       31.016    29837.116 
 4948000     304.1801   -2336.3373    -23016.69   -24927.114    1910.4234    1.1578834    31.015963       31.016       31.016    29837.116 
 4949000    298.28133   -2646.5859   -23033.303   -24906.679    1873.3758    1.1578834    31.015963       31.016       31.016    29837.116 
 4950000    307.38423   -3581.9478   -22968.606   -24899.153    1930.5472    1.1578834    31.015963       31.016       31.016    29837.116 
 4951000    298.47493   -2522.7913   -23040.709   -24915.301    1874.5917    1.1578834    31.015963       31.016       31.016    29837.116 
 4952000    304.63073   -2588.3262    -22850.77   -24764.024    1913.2536    1.1578834    31.015963       31.016       31.016    29837.116 
 4953000    292.69043   -2407.8984   -23001.308    -24839.57    1838.2618    1.1578834    31.015963       31.016       31.016    29837.116 
 4954000    296.17974   -2541.4025   -23138.537   -24998.713    1860.1767    1.1578834    31.015963       31.016       31.016    29837.116 
 4955000    295.15204   -2949.4142   -23057.731   -24911.453    1853.7221    1.1578834    31.015963       31.016       31.016    29837.116 
 4956000    289.11006   -2889.6499   -23049.108   -24864.884     1815.775    1.1578834    31.015963       31.016       31.016    29837.116 
 4957000    301.55354   -3420.2476   -22940.337   -24834.264    1893.9271    1.1578834    31.015963       31.016       31.016    29837.116 
 4958000    297.04527   -2243.2113   -22940.129   -24805.741    1865.6127    1.1578834    31.015963       31.016       31.016    29837.116 
 4959000    313.33863    -2074.807   -22872.059   -24840.003    1967.9442    1.1578834    31.015963       31.016       31.016    29837.116 
 4960000    295.72742     -3120.94   -22909.975   -24767.311    1857.3358    1.1578834    31.015963       31.016       31.016    29837.116 
 4961000     309.7566    -3356.432   -22986.564   -24932.011     1945.447    1.1578834    31.015963       31.016       31.016    29837.116 
 4962000     299.9437   -3472.4887   -23106.346   -24990.162    1883.8165    1.1578834    31.015963       31.016       31.016    29837.116 
 4963000    296.33494   -2572.4938   -23185.594   -25046.745    1861.1513    1.1578834    31.015963       31.016       31.016    29837.116 
 4964000    296.26047   -2506.3578   -23085.541   -24946.225    1860.6837    1.1578834    31.015963       31.016       31.016    29837.116 
 4965000    297.62529   -2290.7967   -23027.035    -24896.29    1869.2555    1.1578834    31.015963       31.016       31.016    29837.116 
 4966000    301.16139   -2398.3282   -22962.066   -24853.531    1891.4642    1.1578834    31.015963       31.016       31.016    29837.116 
 4967000    300.46449   -3080.4405   -22949.465   -24836.552    1887.0873    1.1578834    31.015963       31.016       31.016    29837.116 
 4968000    296.33214   -2322.4629   -22971.622   -24832.756    1861.1338    1.1578834    31.015963       31.016       31.016    29837.116 
 4969000    296.22294   -1840.0204   -22995.713   -24856.161     1860.448    1.1578834    31.015963       31.016       31.016    29837.116 
 4970000    305.10867   -2654.3687   -22986.298   -24902.554    1916.2554    1.1578834    31.015963       31.016       31.016    29837.116 
 4971000    287.76933   -1666.6735   -22970.069   -24777.424    1807.3545    1.1578834    31.015963       31.016       31.016    29837.116 
 4972000    290.26479   -2883.7358   -23048.246   -24871.273    1823.0274    1.1578834    31.015963       31.016       31.016    29837.116 
 4973000    294.98866   -2827.2371   -22970.186   -24822.882     1852.696    1.1578834    31.015963       31.016       31.016    29837.116 
 4974000    302.07247   -2077.6638   -22966.429   -24863.616    1897.1863    1.1578834    31.015963       31.016       31.016    29837.116 
 4975000     293.7204   -3355.9265   -22990.347   -24835.078    1844.7306    1.1578834    31.015963       31.016       31.016    29837.116 
 4976000    301.29151   -3858.6906   -22916.991   -24809.273    1892.2814    1.1578834    31.015963       31.016       31.016    29837.116 
 4977000    300.52386   -2660.0073   -22991.531   -24878.991    1887.4602    1.1578834    31.015963       31.016       31.016    29837.116 
 4978000    292.26345   -2449.9859   -22985.528   -24821.108    1835.5801    1.1578834    31.015963       31.016       31.016    29837.116 
 4979000    302.46948   -2805.3762   -23035.306   -24934.986    1899.6798    1.1578834    31.015963       31.016       31.016    29837.116 
 4980000    297.55526   -2141.5887   -23022.644    -24891.46    1868.8157    1.1578834    31.015963       31.016       31.016    29837.116 
 4981000    293.16861   -2476.1488   -23039.501   -24880.766     1841.265    1.1578834    31.015963       31.016       31.016    29837.116 
 4982000      295.139   -2922.6683   -23088.233   -24941.873    1853.6402    1.1578834    31.015963       31.016       31.016    29837.116 
 4983000    303.59771   -2464.4865   -22987.628   -24894.393    1906.7657    1.1578834    31.015963       31.016       31.016    29837.116 
 4984000    295.88533   -2074.8326   -23057.517   -24915.844    1858.3276    1.1578834    31.015963       31.016       31.016    29837.116 
 4985000    301.79271   -4034.8802   -22994.585   -24890.015    1895.4293    1.1578834    31.015963       31.016       31.016    29837.116 
 4986000     299.0241   -3075.2917   -22970.749    -24848.79    1878.0408    1.1578834    31.015963       31.016       31.016    29837.116 
 4987000    303.07987   -2544.6616   -22819.436   -24722.949    1903.5134    1.1578834    31.015963       31.016       31.016    29837.116 
 4988000    300.55747   -2257.1101   -22975.257   -24862.929    1887.6712    1.1578834    31.015963       31.016       31.016    29837.116 
 4989000     310.3044   -3443.7691   -22959.454   -24908.342    1948.8875    1.1578834    31.015963       31.016       31.016    29837.116 
 4990000    301.31552    -3012.375   -23023.481   -24915.913    1892.4323    1.1578834    31.015963       31.016       31.016    29837.116 
 4991000    291.63129   -3188.2595   -23016.537   -24848.147    1831.6098    1.1578834    31.015963       31.016       31.016    29837.116 
 4992000    305.08447   -2334.5559   -22917.878   -24833.982    1916.1034    1.1578834    31.015963       31.016       31.016    29837.116 
 4993000    294.45645   -2960.0788   -23039.223   -24888.576    1849.3534    1.1578834    31.015963       31.016       31.016    29837.116 
 4994000    302.53153   -3029.0494   -22948.416   -24848.485    1900.0695    1.1578834    31.015963       31.016       31.016    29837.116 
 4995000    290.19049   -2612.6115    -23059.32   -24881.881    1822.5607    1.1578834    31.015963       31.016       31.016    29837.116 
 4996000    300.10159   -2512.7718    -23025.98   -24910.788    1884.8081    1.1578834    31.015963       31.016       31.016    29837.116 
 4997000    303.31468   -3273.3483   -23017.738   -24922.726    1904.9881    1.1578834    31.015963       31.016       31.016    29837.116 
 4998000    305.52656   -3728.2976   -22981.051   -24899.931    1918.8799    1.1578834    31.015963       31.016       31.016    29837.116 
 4999000     311.9997   -2754.7343   -22943.984   -24903.519     1959.535    1.1578834    31.015963       31.016       31.016    29837.116 
 5000000    294.45141   -2712.5278   -23080.801   -24930.123    1849.3217    1.1578834    31.015963       31.016       31.016    29837.116 
 5001000    294.30179   -3418.5366   -23084.423   -24932.805     1848.382    1.1578834    31.015963       31.016       31.016    29837.116 
 5002000    298.24866   -2495.5431   -23026.395   -24899.565    1873.1706    1.1578834    31.015963       31.016       31.016    29837.116 
 5003000    300.33554   -3404.8865   -22996.604   -24882.882    1886.2774    1.1578834    31.015963       31.016       31.016    29837.116 
 5004000     301.1008   -3308.5353   -23079.042   -24970.126    1891.0837    1.1578834    31.015963       31.016       31.016    29837.116 
 5005000    296.91182   -3560.1953   -22928.504   -24793.278    1864.7745    1.1578834    31.015963       31.016       31.016    29837.116 
 5006000    295.10028   -3024.0602   -23004.909   -24858.306     1853.397    1.1578834    31.015963       31.016       31.016    29837.116 
 5007000    291.09243   -2824.8905   -22976.626   -24804.852    1828.2254    1.1578834    31.015963       31.016       31.016    29837.116 
 5008000    291.72121    -3336.947   -23067.482   -24899.656    1832.1745    1.1578834    31.015963       31.016       31.016    29837.116 
 5009000    299.66901    -2146.218    -22950.59   -24832.682    1882.0912    1.1578834    31.015963       31.016       31.016    29837.116 
 5010000    291.81987   -2934.6128   -23033.883   -24866.677    1832.7942    1.1578834    31.015963       31.016       31.016    29837.116 
 5011000    302.80263   -2705.6227   -23082.764   -24984.536    1901.7721    1.1578834    31.015963       31.016       31.016    29837.116 
 5012000    301.25805   -2583.1469   -22978.219    -24870.29    1892.0713    1.1578834    31.015963       31.016       31.016    29837.116 
 5013000    292.89429   -3147.8774   -23017.276   -24856.818    1839.5421    1.1578834    31.015963       31.016       31.016    29837.116 
 5014000    298.35829    -1746.174   -22936.874   -24810.733    1873.8591    1.1578834    31.015963       31.016       31.016    29837.116 
 5015000    302.32024   -2779.2449    -22920.36   -24819.103    1898.7424    1.1578834    31.015963       31.016       31.016    29837.116 
 5016000    290.81754   -3080.3391   -22969.072   -24795.571    1826.4989    1.1578834    31.015963       31.016       31.016    29837.116 
 5017000    303.52757   -2908.7688   -22881.284    -24787.61    1906.3252    1.1578834    31.015963       31.016       31.016    29837.116 
 5018000    301.54239   -3402.5681   -22986.147   -24880.004    1893.8571    1.1578834    31.015963       31.016       31.016    29837.116 
 5019000    292.29985   -3489.6138   -23086.819   -24922.628    1835.8087    1.1578834    31.015963       31.016       31.016    29837.116 
 5020000    296.64545   -2332.1881   -23072.773   -24935.874    1863.1016    1.1578834    31.015963       31.016       31.016    29837.116 
 5021000    298.91347   -3145.2945   -22996.838   -24874.184     1877.346    1.1578834    31.015963       31.016       31.016    29837.116 
 5022000    299.29368   -3629.2346   -23040.459   -24920.193     1879.734    1.1578834    31.015963       31.016       31.016    29837.116 
 5023000    299.92409   -2458.9064   -23033.059   -24916.752    1883.6933    1.1578834    31.015963       31.016       31.016    29837.116 
 5024000    301.24575    -2650.325   -23007.786    -24899.78     1891.994    1.1578834    31.015963       31.016       31.016    29837.116 
 5025000    302.06689   -2414.0342    -23022.71   -24919.862    1897.1513    1.1578834    31.015963       31.016       31.016    29837.116 
 5026000    293.97165   -2972.5896    -23032.01   -24878.319    1846.3086    1.1578834    31.015963       31.016       31.016    29837.116 
 5027000    299.56392   -2202.4246   -22987.669     -24869.1    1881.4312    1.1578834    31.015963       31.016       31.016    29837.116 
 5028000    298.21115   -2628.4513   -22955.912   -24828.847     1872.935    1.1578834    31.015963       31.016       31.016    29837.116 
 5029000    302.15862   -2393.7393   -22960.287   -24858.014    1897.7274    1.1578834    31.015963       31.016       31.016    29837.116 
 5030000    295.63238   -2366.2405   -23031.386   -24888.125    1856.7389    1.1578834    31.015963       31.016       31.016    29837.116 
 5031000    297.19105     -2197.64   -23003.432    -24869.96    1866.5282    1.1578834    31.015963       31.016       31.016    29837.116 
 5032000    293.48125   -2534.0233   -22997.448   -24840.677    1843.2286    1.1578834    31.015963       31.016       31.016    29837.116 
 5033000    292.14334   -3000.3689   -23007.401   -24842.226    1834.8258    1.1578834    31.015963       31.016       31.016    29837.116 
 5034000    304.71105   -2546.6572   -23004.624   -24918.382    1913.7581    1.1578834    31.015963       31.016       31.016    29837.116 
 5035000    297.68424   -3039.5368   -23012.338   -24881.963    1869.6257    1.1578834    31.015963       31.016       31.016    29837.116 
 5036000    291.76799   -3634.9215   -23104.566   -24937.035    1832.4684    1.1578834    31.015963       31.016       31.016    29837.116 
 5037000    291.20615   -2802.5835   -23020.574   -24849.513    1828.9396    1.1578834    31.015963       31.016       31.016    29837.116 
 5038000    295.52643    -2632.992   -22974.109   -24830.182    1856.0735    1.1578834    31.015963       31.016       31.016    29837.116 
 5039000    296.76096   -2843.3042   -22945.347   -24809.174     1863.827    1.1578834    31.015963       31.016       31.016    29837.116 
 5040000     302.4343   -2357.9464   -23023.929   -24923.388    1899.4588    1.1578834    31.015963       31.016       31.016    29837.116 
 5041000    303.64563   -3458.5768   -22989.775   -24896.841    1907.0667    1.1578834    31.015963       31.016       31.016    29837.116 
 5042000    297.47834   -2690.8101   -23158.462   -25026.795    1868.3326    1.1578834    31.015963       31.016       31.016    29837.116 
 5043000    301.00456   -2850.0382   -23067.623   -24958.103    1890.4792    1.1578834    31.015963       31.016       31.016    29837.116 
 5044000    295.31329   -3675.8915   -23128.476   -24983.211    1854.7348    1.1578834    31.015963       31.016       31.016    29837.116 
 5045000     309.2419   -2353.8904   -22967.558   -24909.773    1942.2144    1.1578834    31.015963       31.016       31.016    29837.116 
 5046000    294.90228   -1963.7383   -23105.412   -24957.566    1852.1534    1.1578834    31.015963       31.016       31.016    29837.116 
 5047000    307.15917   -1207.1738   -22985.157   -24914.291    1929.1337    1.1578834    31.015963       31.016       31.016    29837.116 
 5048000    292.21784   -2308.5404   -23083.748   -24919.041    1835.2937    1.1578834    31.015963       31.016       31.016    29837.116 
 5049000    300.40009   -1002.9894   -23029.724   -24916.407    1886.6828    1.1578834    31.015963       31.016       31.016    29837.116 
 5050000    293.45311   -2665.2374   -23039.925   -24882.977    1843.0518    1.1578834    31.015963       31.016       31.016    29837.116 
 5051000    304.12144   -2817.1701   -22904.001   -24814.056     1910.055    1.1578834    31.015963       31.016       31.016    29837.116 
 5052000    306.21069   -3895.9253   -23020.952   -24944.129    1923.1767    1.1578834    31.015963       31.016       31.016    29837.116 
 5053000    300.33982   -2633.3497   -23017.702   -24904.006    1886.3043    1.1578834    31.015963       31.016       31.016    29837.116 
 5054000    297.52553   -3435.7681   -22983.185   -24851.814     1868.629    1.1578834    31.015963       31.016       31.016    29837.116 
 5055000    308.17487   -2793.5176   -22803.895   -24739.408    1935.5128    1.1578834    31.015963       31.016       31.016    29837.116 
 5056000    299.22682   -3424.4008   -23008.207   -24887.521     1879.314    1.1578834    31.015963       31.016       31.016    29837.116 
 5057000    296.25263   -3244.0044   -23048.596   -24909.231    1860.6344    1.1578834    31.015963       31.016       31.016    29837.116 
 5058000     298.3878    -2780.913   -23138.469   -25012.513    1874.0445    1.1578834    31.015963       31.016       31.016    29837.116 
 5059000    302.43277   -2937.4416   -22956.324   -24855.773    1899.4492    1.1578834    31.015963       31.016       31.016    29837.116 
 5060000    302.44122   -3436.5726   -22927.131   -24826.634    1899.5023    1.1578834    31.015963       31.016       31.016    29837.116 
 5061000    296.08208   -2911.6069   -23016.095   -24875.658    1859.5633    1.1578834    31.015963       31.016       31.016    29837.116 
 5062000    298.05574   -2886.5442   -23072.563   -24944.522     1871.959    1.1578834    31.015963       31.016       31.016    29837.116 
 5063000    299.88347   -1872.4262   -22934.069   -24817.507    1883.4381    1.1578834    31.015963       31.016       31.016    29837.116 
 5064000    291.38189   -2673.2276   -23060.228   -24890.272    1830.0434    1.1578834    31.015963       31.016       31.016    29837.116 
 5065000    297.93613   -2509.7354   -22916.983   -24788.191    1871.2077    1.1578834    31.015963       31.016       31.016    29837.116 
 5066000     291.0321   -2356.8736   -23012.156   -24840.002    1827.8466    1.1578834    31.015963       31.016       31.016    29837.116 
 5067000    293.02725   -2466.0898     -23045.2   -24885.577    1840.3772    1.1578834    31.015963       31.016       31.016    29837.116 
 5068000     298.5018   -1340.0979   -22979.797   -24854.557    1874.7605    1.1578834    31.015963       31.016       31.016    29837.116 
 5069000    290.54235   -2046.4968   -23010.157   -24834.928    1824.7706    1.1578834    31.015963       31.016       31.016    29837.116 
 5070000    299.01852   -2775.5207   -23008.483   -24886.489    1878.0058    1.1578834    31.015963       31.016       31.016    29837.116 
 5071000    304.12081   -2339.2451   -22933.572   -24843.623     1910.051    1.1578834    31.015963       31.016       31.016    29837.116 
 5072000    293.49306   -3076.1248   -23000.387    -24843.69    1843.3027    1.1578834    31.015963       31.016       31.016    29837.116 
 5073000    297.28126   -2076.7233    -22962.66   -24829.755    1867.0948    1.1578834    31.015963       31.016       31.016    29837.116 
 5074000    300.77362   -2394.7076   -22957.975   -24847.004    1889.0288    1.1578834    31.015963       31.016       31.016    29837.116 
 5075000    295.02313   -2849.8112   -23041.246   -24894.159    1852.9125    1.1578834    31.015963       31.016       31.016    29837.116 
 5076000    298.27101   -2555.8933   -22973.981   -24847.292     1873.311    1.1578834    31.015963       31.016       31.016    29837.116 
 5077000    291.18302   -2627.8439   -23012.514   -24841.309    1828.7944    1.1578834    31.015963       31.016       31.016    29837.116 
 5078000    296.78618   -1433.8234   -22976.941   -24840.926    1863.9854    1.1578834    31.015963       31.016       31.016    29837.116 
 5079000    289.24025   -1675.7518   -23070.752   -24887.344    1816.5927    1.1578834    31.015963       31.016       31.016    29837.116 
 5080000    297.16941   -2454.8457   -22881.396   -24747.788    1866.3923    1.1578834    31.015963       31.016       31.016    29837.116 
 5081000    292.64225   -2397.6431   -23023.918   -24861.877    1837.9592    1.1578834    31.015963       31.016       31.016    29837.116 
 5082000    299.08604   -2748.1372   -22945.541   -24823.971    1878.4299    1.1578834    31.015963       31.016       31.016    29837.116 
 5083000      305.761   -2641.3895   -22915.946   -24836.298    1920.3524    1.1578834    31.015963       31.016       31.016    29837.116 
 5084000    286.74474    -3094.009   -23031.298   -24832.218    1800.9195    1.1578834    31.015963       31.016       31.016    29837.116 
 5085000    299.80917   -3091.9643   -22972.984   -24855.955    1882.9715    1.1578834    31.015963       31.016       31.016    29837.116 
 5086000    296.57038   -2602.9489   -22986.549   -24849.179    1862.6301    1.1578834    31.015963       31.016       31.016    29837.116 
 5087000    290.28922   -3614.8956    -22963.07   -24786.251    1823.1808    1.1578834    31.015963       31.016       31.016    29837.116 
 5088000    305.42486   -2561.0963   -22930.125   -24848.366    1918.2412    1.1578834    31.015963       31.016       31.016    29837.116 
 5089000    299.55024   -2688.8029   -23067.889   -24949.234    1881.3453    1.1578834    31.015963       31.016       31.016    29837.116 
 5090000    298.62742   -2351.6407   -23044.157   -24919.707    1875.5495    1.1578834    31.015963       31.016       31.016    29837.116 
 5091000    298.88887   -2524.0706   -22947.925   -24825.117    1877.1915    1.1578834    31.015963       31.016       31.016    29837.116 
 5092000    294.19398   -2907.2592   -23053.832   -24901.537    1847.7049    1.1578834    31.015963       31.016       31.016    29837.116 
 5093000    295.46556   -3094.8214   -22988.052   -24843.743    1855.6912    1.1578834    31.015963       31.016       31.016    29837.116 
 5094000    304.25413   -2464.6376    -22900.83   -24811.718    1910.8884    1.1578834    31.015963       31.016       31.016    29837.116 
 5095000    292.40863   -2520.1439   -23033.006   -24869.498    1836.4919    1.1578834    31.015963       31.016       31.016    29837.116 
 5096000    296.02833   -2881.0602    -22944.97   -24804.195    1859.2257    1.1578834    31.015963       31.016       31.016    29837.116 
 5097000    300.93636   -3028.1272   -23033.638   -24923.689    1890.0509    1.1578834    31.015963       31.016       31.016    29837.116 
 5098000    301.96055   -3207.3925   -23052.465   -24948.948    1896.4834    1.1578834    31.015963       31.016       31.016    29837.116 
 5099000    301.92997   -2422.8977   -22902.633   -24798.924    1896.2914    1.1578834    31.015963       31.016       31.016    29837.116 
 5100000    296.86402   -2512.3333   -22967.862   -24832.336    1864.4743    1.1578834    31.015963       31.016       31.016    29837.116 
 5101000    299.13654   -2465.9925   -23011.784   -24890.531     1878.747    1.1578834    31.015963       31.016       31.016    29837.116 
 5102000    296.88415   -2731.3221   -23062.655   -24927.255    1864.6007    1.1578834    31.015963       31.016       31.016    29837.116 
 5103000    301.11208   -2326.4275   -23040.182   -24931.337    1891.1546    1.1578834    31.015963       31.016       31.016    29837.116 
 5104000    287.97199   -3866.9847   -23063.213    -24871.84    1808.6273    1.1578834    31.015963       31.016       31.016    29837.116 
 5105000    300.70984   -2833.4218   -23005.052    -24893.68    1888.6282    1.1578834    31.015963       31.016       31.016    29837.116 
 5106000    307.60317   -2155.2841   -23012.606   -24944.528    1931.9223    1.1578834    31.015963       31.016       31.016    29837.116 
 5107000     302.7363   -2498.0741   -22941.422   -24842.778    1901.3555    1.1578834    31.015963       31.016       31.016    29837.116 
 5108000    293.74756   -2484.4575   -23035.261   -24880.162    1844.9012    1.1578834    31.015963       31.016       31.016    29837.116 
 5109000    305.47063   -2760.4842   -23003.708   -24922.237    1918.5287    1.1578834    31.015963       31.016       31.016    29837.116 
 5110000    294.16414   -3001.8885   -23043.798   -24891.315    1847.5175    1.1578834    31.015963       31.016       31.016    29837.116 
 5111000    301.14105   -2682.5115   -22993.069   -24884.406    1891.3365    1.1578834    31.015963       31.016       31.016    29837.116 
 5112000    293.75266   -2222.4614   -23100.035   -24944.968    1844.9332    1.1578834    31.015963       31.016       31.016    29837.116 
 5113000    295.13941   -2451.7617   -23045.438   -24899.081    1853.6428    1.1578834    31.015963       31.016       31.016    29837.116 
 5114000    292.50838   -3140.3571   -23120.656   -24957.774    1837.1184    1.1578834    31.015963       31.016       31.016    29837.116 
 5115000    299.85853   -2584.6493   -23030.639   -24913.921    1883.2815    1.1578834    31.015963       31.016       31.016    29837.116 
 5116000    299.37353   -3309.5135   -22935.424    -24815.66    1880.2355    1.1578834    31.015963       31.016       31.016    29837.116 
 5117000    298.26903   -3071.7046    -22950.88   -24824.179    1873.2986    1.1578834    31.015963       31.016       31.016    29837.116 
 5118000    294.07544   -2949.8058   -23085.679    -24932.64    1846.9605    1.1578834    31.015963       31.016       31.016    29837.116 
 5119000    300.32979   -2464.3166   -23017.149    -24903.39    1886.2413    1.1578834    31.015963       31.016       31.016    29837.116 
 5120000    296.06622   -3386.7001    -22994.14   -24853.604    1859.4637    1.1578834    31.015963       31.016       31.016    29837.116 
 5121000     293.6109   -3076.7783   -23039.472   -24883.515    1844.0429    1.1578834    31.015963       31.016       31.016    29837.116 
 5122000    300.85394   -3756.3808   -22985.813   -24875.346    1889.5332    1.1578834    31.015963       31.016       31.016    29837.116 
 5123000     301.8759   -3160.6622   -22935.601   -24831.552    1895.9517    1.1578834    31.015963       31.016       31.016    29837.116 
 5124000    300.08955    -2895.188   -23074.291   -24959.024    1884.7325    1.1578834    31.015963       31.016       31.016    29837.116 
 5125000    303.17552   -2497.8422   -23031.026    -24935.14    1904.1141    1.1578834    31.015963       31.016       31.016    29837.116 
 5126000    294.12325   -3529.9279   -23066.021   -24913.282    1847.2607    1.1578834    31.015963       31.016       31.016    29837.116 
 5127000    297.07944   -2479.9997   -23092.709   -24958.536    1865.8273    1.1578834    31.015963       31.016       31.016    29837.116 
 5128000    298.64896   -2810.0251   -23064.382   -24940.067    1875.6847    1.1578834    31.015963       31.016       31.016    29837.116 
 5129000    306.35911   -2975.0957   -22946.495   -24870.604    1924.1088    1.1578834    31.015963       31.016       31.016    29837.116 
 5130000    289.77421   -2002.8533   -23024.271   -24844.217    1819.9463    1.1578834    31.015963       31.016       31.016    29837.116 
 5131000    307.09737   -2875.5817   -23031.406   -24960.151    1928.7455    1.1578834    31.015963       31.016       31.016    29837.116 
 5132000    283.42546   -2845.2028   -23085.363   -24865.435    1780.0725    1.1578834    31.015963       31.016       31.016    29837.116 
 5133000    298.08431   -2948.5527   -23114.673   -24986.812    1872.1384    1.1578834    31.015963       31.016       31.016    29837.116 
 5134000    293.11977   -2373.5404    -23036.12   -24877.079    1840.9583    1.1578834    31.015963       31.016       31.016    29837.116 
 5135000    301.78831   -3143.9877   -23006.189   -24901.591    1895.4016    1.1578834    31.015963       31.016       31.016    29837.116 
 5136000    298.19543   -3162.2225   -23004.013    -24876.85    1872.8363    1.1578834    31.015963       31.016       31.016    29837.116 
 5137000    307.58512   -2318.6159   -23044.397   -24976.206    1931.8089    1.1578834    31.015963       31.016       31.016    29837.116 
 5138000    296.59148   -2306.1676   -22994.072   -24856.835    1862.7626    1.1578834    31.015963       31.016       31.016    29837.116 
 5139000    304.94185    -2495.117   -22860.977   -24776.185    1915.2077    1.1578834    31.015963       31.016       31.016    29837.116 
 5140000    300.65432   -2383.0156   -22991.829   -24880.109    1888.2795    1.1578834    31.015963       31.016       31.016    29837.116 
 5141000    298.58574   -2985.1773   -22931.946   -24807.234    1875.2877    1.1578834    31.015963       31.016       31.016    29837.116 
 5142000    297.55398   -2950.6798   -23066.002    -24934.81    1868.8076    1.1578834    31.015963       31.016       31.016    29837.116 
 5143000    301.30656   -1655.2297   -23078.982   -24971.358    1892.3759    1.1578834    31.015963       31.016       31.016    29837.116 
 5144000    292.98914   -2932.2987    -23056.45   -24896.588    1840.1379    1.1578834    31.015963       31.016       31.016    29837.116 
 5145000    299.02207    -3189.285   -22931.219   -24809.247    1878.0281    1.1578834    31.015963       31.016       31.016    29837.116 
 5146000    293.04861   -2423.2787   -22974.917   -24815.429    1840.5114    1.1578834    31.015963       31.016       31.016    29837.116 
 5147000    297.25164    -2111.028   -23065.118   -24932.026    1866.9087    1.1578834    31.015963       31.016       31.016    29837.116 
 5148000      295.204   -3170.5067   -23119.776   -24973.824    1854.0485    1.1578834    31.015963       31.016       31.016    29837.116 
 5149000    299.18824   -2920.2919   -23068.117   -24947.189    1879.0717    1.1578834    31.015963       31.016       31.016    29837.116 
 5150000    294.47603   -3070.2318   -23137.811   -24987.288    1849.4764    1.1578834    31.015963       31.016       31.016    29837.116 
 5151000    285.72974   -2669.8856   -23114.516   -24909.061    1794.5447    1.1578834    31.015963       31.016       31.016    29837.116 
 5152000    298.67545   -2743.7864   -23087.814   -24963.665    1875.8511    1.1578834    31.015963       31.016       31.016    29837.116 
 5153000    292.66897   -2823.9918   -23089.703    -24927.83     1838.127    1.1578834    31.015963       31.016       31.016    29837.116 
 5154000    304.55426   -3156.5053   -22974.626     -24887.4    1912.7734    1.1578834    31.015963       31.016       31.016    29837.116 
 5155000    302.42385   -2563.6668   -23002.224   -24901.617    1899.3932    1.1578834    31.015963       31.016       31.016    29837.116 
 5156000    302.89933   -3210.4095   -23021.653   -24924.032    1902.3795    1.1578834    31.015963       31.016       31.016    29837.116 
 5157000    297.41652   -2595.2636    -22985.04   -24852.985    1867.9443    1.1578834    31.015963       31.016       31.016    29837.116 
 5158000    304.59268   -2484.3313   -22975.862   -24888.877    1913.0147    1.1578834    31.015963       31.016       31.016    29837.116 
 5159000    300.74461   -3609.8935   -23003.388   -24892.234    1888.8466    1.1578834    31.015963       31.016       31.016    29837.116 
 5160000     309.3379   -4000.5732   -22968.403   -24911.221    1942.8173    1.1578834    31.015963       31.016       31.016    29837.116 
 5161000    297.32541   -2087.8386   -23009.079   -24876.451    1867.3721    1.1578834    31.015963       31.016       31.016    29837.116 
 5162000    303.08472    -3346.787   -22992.663   -24896.207    1903.5438    1.1578834    31.015963       31.016       31.016    29837.116 
 5163000    300.86318   -1873.5565   -22992.815   -24882.406    1889.5913    1.1578834    31.015963       31.016       31.016    29837.116 
 5164000    301.64931   -2606.4541   -23002.792    -24897.32    1894.5286    1.1578834    31.015963       31.016       31.016    29837.116 
 5165000    297.98268   -2762.5703   -22950.388   -24821.889    1871.5001    1.1578834    31.015963       31.016       31.016    29837.116 
 5166000    294.66749   -3067.7134   -23084.409   -24935.088    1850.6789    1.1578834    31.015963       31.016       31.016    29837.116 
 5167000    304.41386   -2635.6794   -23029.126   -24941.017    1911.8916    1.1578834    31.015963       31.016       31.016    29837.116 
 5168000    296.89199   -2481.1878   -23018.893   -24883.543      1864.65    1.1578834    31.015963       31.016       31.016    29837.116 
 5169000    300.44129   -2580.4876   -23018.025   -24904.966    1886.9416    1.1578834    31.015963       31.016       31.016    29837.116 
 5170000    297.30054   -2987.3602   -23035.213   -24902.429    1867.2159    1.1578834    31.015963       31.016       31.016    29837.116 
 5171000    305.70439   -2365.8573   -22931.911   -24851.908    1919.9968    1.1578834    31.015963       31.016       31.016    29837.116 
 5172000    298.33217   -2597.4586    -22958.22   -24831.915    1873.6951    1.1578834    31.015963       31.016       31.016    29837.116 
 5173000    291.11426   -1882.6517   -23001.758   -24830.121    1828.3626    1.1578834    31.015963       31.016       31.016    29837.116 
 5174000    302.45654   -2839.0815    -22897.82   -24797.419    1899.5985    1.1578834    31.015963       31.016       31.016    29837.116 
 5175000    295.88335   -3201.4607   -23028.543   -24886.858    1858.3151    1.1578834    31.015963       31.016       31.016    29837.116 
 5176000    295.76145   -2892.8014   -23113.538   -24971.088    1857.5496    1.1578834    31.015963       31.016       31.016    29837.116 
 5177000    295.01135    -3345.522   -22954.129   -24806.968    1852.8385    1.1578834    31.015963       31.016       31.016    29837.116 
 5178000    294.42748   -2371.6454   -23028.564   -24877.736    1849.1715    1.1578834    31.015963       31.016       31.016    29837.116 
 5179000    287.16872   -2820.7911   -23058.017   -24861.599    1803.5823    1.1578834    31.015963       31.016       31.016    29837.116 
 5180000    297.72871   -3300.2312   -23024.421   -24894.326     1869.905    1.1578834    31.015963       31.016       31.016    29837.116 
 5181000    308.91692   -2346.2832   -22930.315   -24870.489    1940.1734    1.1578834    31.015963       31.016       31.016    29837.116 
 5182000    293.22779   -3420.8165   -23038.404   -24880.041    1841.6367    1.1578834    31.015963       31.016       31.016    29837.116 
 5183000    294.84711   -2210.8043   -23037.608   -24889.415     1851.807    1.1578834    31.015963       31.016       31.016    29837.116 
 5184000    293.95532    -3004.719   -23016.362   -24862.568     1846.206    1.1578834    31.015963       31.016       31.016    29837.116 
 5185000    299.95833   -3213.5857   -22956.472    -24840.38    1883.9083    1.1578834    31.015963       31.016       31.016    29837.116 
 5186000    293.81091   -2681.8039   -23025.201     -24870.5    1845.2991    1.1578834    31.015963       31.016       31.016    29837.116 
 5187000    288.24323   -2712.8666   -23006.066   -24816.397    1810.3309    1.1578834    31.015963       31.016       31.016    29837.116 
 5188000    293.22355   -3117.3673   -23046.394   -24888.004    1841.6101    1.1578834    31.015963       31.016       31.016    29837.116 
 5189000    296.27675   -3661.4522   -23070.096   -24930.882    1860.7859    1.1578834    31.015963       31.016       31.016    29837.116 
 5190000     297.2909   -3347.9432   -22976.517   -24843.673    1867.1553    1.1578834    31.015963       31.016       31.016    29837.116 
 5191000    298.58259   -2128.2891   -23081.876   -24957.144    1875.2679    1.1578834    31.015963       31.016       31.016    29837.116 
 5192000    305.69068   -2770.6352   -23009.297   -24929.207    1919.9107    1.1578834    31.015963       31.016       31.016    29837.116 
 5193000    297.01749   -2359.0154   -23043.997   -24909.435    1865.4382    1.1578834    31.015963       31.016       31.016    29837.116 
 5194000    294.81274   -2935.4639   -23013.063   -24864.654    1851.5911    1.1578834    31.015963       31.016       31.016    29837.116 
 5195000    298.59046   -2533.1576   -23005.036   -24880.354    1875.3173    1.1578834    31.015963       31.016       31.016    29837.116 
 5196000    295.80845   -2468.5069   -23026.333   -24884.177    1857.8447    1.1578834    31.015963       31.016       31.016    29837.116 
 5197000    297.02761   -2757.5283   -23012.616   -24878.118    1865.5017    1.1578834    31.015963       31.016       31.016    29837.116 
 5198000    297.49106   -3240.8514   -23112.605   -24981.018    1868.4124    1.1578834    31.015963       31.016       31.016    29837.116 
 5199000     302.7206   -2442.3898   -23026.231   -24927.488     1901.257    1.1578834    31.015963       31.016       31.016    29837.116 
 5200000      303.428   -3539.0343   -22996.976   -24902.676    1905.6998    1.1578834    31.015963       31.016       31.016    29837.116 
 5201000    296.69013   -2443.9103   -23004.378    -24867.76    1863.3822    1.1578834    31.015963       31.016       31.016    29837.116 
 5202000    299.51214   -1785.9773    -23009.58   -24890.686     1881.106    1.1578834    31.015963       31.016       31.016    29837.116 
 5203000    302.35865   -2861.4748   -22964.353   -24863.336    1898.9837    1.1578834    31.015963       31.016       31.016    29837.116 
 5204000    301.88506   -2616.7867    -22894.69     -24790.7    1896.0093    1.1578834    31.015963       31.016       31.016    29837.116 
 5205000    300.30651   -2908.1966   -22953.677   -24839.772    1886.0951    1.1578834    31.015963       31.016       31.016    29837.116 
 5206000    295.27259   -3216.1501   -23026.724   -24881.204    1854.4792    1.1578834    31.015963       31.016       31.016    29837.116 
 5207000    297.09324   -2300.1862   -23069.424   -24935.338    1865.9139    1.1578834    31.015963       31.016       31.016    29837.116 
 5208000    296.11765   -2958.6472   -22931.164   -24790.951    1859.7866    1.1578834    31.015963       31.016       31.016    29837.116 
 5209000    297.20253   -2197.9604   -23040.898   -24907.499    1866.6004    1.1578834    31.015963       31.016       31.016    29837.116 
 5210000    299.75381   -3544.5032     -22980.5   -24863.124    1882.6238    1.1578834    31.015963       31.016       31.016    29837.116 
 5211000    300.59031   -2474.0587   -22978.467   -24866.345    1887.8775    1.1578834    31.015963       31.016       31.016    29837.116 
 5212000    288.84134   -2059.6925   -23113.775   -24927.863    1814.0873    1.1578834    31.015963       31.016       31.016    29837.116 
 5213000    296.28275    -3203.613   -22963.512   -24824.335    1860.8236    1.1578834    31.015963       31.016       31.016    29837.116 
 5214000    299.45866   -3052.8955    -23008.84    -24889.61    1880.7701    1.1578834    31.015963       31.016       31.016    29837.116 
 5215000    295.49761    -2280.588   -23061.987   -24917.879    1855.8924    1.1578834    31.015963       31.016       31.016    29837.116 
 5216000    297.13683   -2416.9667   -23083.759   -24949.946    1866.1877    1.1578834    31.015963       31.016       31.016    29837.116 
 5217000    293.21347   -2934.5624   -23159.014   -25000.561    1841.5468    1.1578834    31.015963       31.016       31.016    29837.116 
 5218000     298.0963   -2518.0795    -23027.28   -24899.494    1872.2137    1.1578834    31.015963       31.016       31.016    29837.116 
 5219000    303.84243   -2561.9472   -23033.052   -24941.354    1908.3026    1.1578834    31.015963       31.016       31.016    29837.116 
 5220000    304.10622   -3046.3904   -22971.798   -24881.757    1909.9594    1.1578834    31.015963       31.016       31.016    29837.116 
 5221000    298.44099   -3359.0604    -22973.85   -24848.229    1874.3786    1.1578834    31.015963       31.016       31.016    29837.116 
 5222000    291.21936   -2092.0352   -22997.545   -24826.568    1829.0226    1.1578834    31.015963       31.016       31.016    29837.116 
 5223000    296.85799   -1721.9852   -22951.769   -24816.205    1864.4364    1.1578834    31.015963       31.016       31.016    29837.116 
 5224000    304.30715   -3570.3658   -23004.415   -24915.636    1911.2214    1.1578834    31.015963       31.016       31.016    29837.116 
 5225000    296.24977   -2408.2941   -23071.806   -24932.423    1860.6164    1.1578834    31.015963       31.016       31.016    29837.116 
 5226000    295.46437    -2834.277   -22979.611   -24835.295    1855.6837    1.1578834    31.015963       31.016       31.016    29837.116 
 5227000    305.47258    -2568.107   -22941.055   -24859.596    1918.5409    1.1578834    31.015963       31.016       31.016    29837.116 
 5228000    293.50158   -2383.4147   -22990.732   -24834.088    1843.3563    1.1578834    31.015963       31.016       31.016    29837.116 
 5229000    307.96665   -2486.1037   -22961.343   -24895.549    1934.2051    1.1578834    31.015963       31.016       31.016    29837.116 
 5230000    308.52063   -2730.0729   -23002.271   -24939.955    1937.6844    1.1578834    31.015963       31.016       31.016    29837.116 
 5231000    294.66179   -2539.2137   -23106.101   -24956.744     1850.643    1.1578834    31.015963       31.016       31.016    29837.116 
 5232000    303.00769   -3028.8306   -22931.527   -24834.587      1903.06    1.1578834    31.015963       31.016       31.016    29837.116 
 5233000    304.81699   -2610.7479   -22991.376   -24905.799    1914.4235    1.1578834    31.015963       31.016       31.016    29837.116 
 5234000    291.91437   -2788.6339   -23006.528   -24839.915    1833.3877    1.1578834    31.015963       31.016       31.016    29837.116 
 5235000    303.44219   -2361.7249   -22920.629   -24826.417     1905.789    1.1578834    31.015963       31.016       31.016    29837.116 
 5236000    292.05091   -1916.5901   -23018.861   -24853.106    1834.2453    1.1578834    31.015963       31.016       31.016    29837.116 
 5237000    293.99106   -1421.5646   -23009.126   -24855.556    1846.4305    1.1578834    31.015963       31.016       31.016    29837.116 
 5238000    297.21451   -2511.8227    -23070.04   -24936.716    1866.6756    1.1578834    31.015963       31.016       31.016    29837.116 
 5239000    302.55903   -2631.6326   -22933.131   -24833.373    1900.2422    1.1578834    31.015963       31.016       31.016    29837.116 
 5240000    304.71321   -2864.7928   -23097.244   -25011.016    1913.7717    1.1578834    31.015963       31.016       31.016    29837.116 
 5241000    294.51052   -3941.4798   -23015.742   -24865.435     1849.693    1.1578834    31.015963       31.016       31.016    29837.116 
 5242000    297.12434   -1875.2218   -23014.306   -24880.415    1866.1093    1.1578834    31.015963       31.016       31.016    29837.116 
 5243000    289.52692   -2345.3624   -23130.048   -24948.441    1818.3931    1.1578834    31.015963       31.016       31.016    29837.116 
 5244000    296.40472   -2284.4588   -23026.293   -24887.883    1861.5897    1.1578834    31.015963       31.016       31.016    29837.116 
 5245000     300.6758    -2557.771   -23020.089   -24908.503    1888.4144    1.1578834    31.015963       31.016       31.016    29837.116 
 5246000    296.78269   -3231.1681    -23080.25   -24944.213    1863.9635    1.1578834    31.015963       31.016       31.016    29837.116 
 5247000    302.93701   -2832.8949   -22985.466   -24888.082    1902.6161    1.1578834    31.015963       31.016       31.016    29837.116 
 5248000    300.09917   -3037.2252   -23078.824   -24963.617    1884.7929    1.1578834    31.015963       31.016       31.016    29837.116 
 5249000    305.09701   -3368.7075   -22986.672   -24902.854    1916.1822    1.1578834    31.015963       31.016       31.016    29837.116 
 5250000    303.23345   -2743.1561   -23013.684   -24918.162     1904.478    1.1578834    31.015963       31.016       31.016    29837.116 
 5251000    295.32189   -1872.9059   -23069.216   -24924.005    1854.7889    1.1578834    31.015963       31.016       31.016    29837.116 
 5252000    306.08176   -1725.1518    -22909.13   -24831.497     1922.367    1.1578834    31.015963       31.016       31.016    29837.116 
 5253000    300.99571   -1877.3137   -22969.731   -24860.155    1890.4236    1.1578834    31.015963       31.016       31.016    29837.116 
 5254000    296.65266   -1945.9103   -22996.418   -24859.565    1863.1469    1.1578834    31.015963       31.016       31.016    29837.116 
 5255000     292.4675   -2492.5284   -23122.455   -24959.316    1836.8616    1.1578834    31.015963       31.016       31.016    29837.116 
 5256000    305.32655   -3158.2577   -22934.466    -24852.09    1917.6238    1.1578834    31.015963       31.016       31.016    29837.116 
 5257000    301.71005   -2985.1336   -22985.046   -24879.956    1894.9101    1.1578834    31.015963       31.016       31.016    29837.116 
 5258000    299.35659   -2477.6282   -22991.103   -24871.232     1880.129    1.1578834    31.015963       31.016       31.016    29837.116 
 5259000    296.96552   -2536.0604   -22985.166   -24850.278    1865.1118    1.1578834    31.015963       31.016       31.016    29837.116 
 5260000    296.12256   -2943.0197   -22972.537   -24832.354    1859.8175    1.1578834    31.015963       31.016       31.016    29837.116 
 5261000    301.80658   -1541.6841   -22926.141   -24821.657    1895.5164    1.1578834    31.015963       31.016       31.016    29837.116 
 5262000    298.02002   -2757.5635   -22937.074   -24808.808    1871.7346    1.1578834    31.015963       31.016       31.016    29837.116 
 5263000    289.45579   -3228.3154   -22969.792   -24787.739    1817.9464    1.1578834    31.015963       31.016       31.016    29837.116 
 5264000    301.19025   -2186.3357   -23014.731   -24906.377    1891.6454    1.1578834    31.015963       31.016       31.016    29837.116 
 5265000    298.44463   -2725.0518   -22933.276   -24807.677    1874.4015    1.1578834    31.015963       31.016       31.016    29837.116 
 5266000     294.0568   -2997.1155   -23046.808   -24893.652    1846.8434    1.1578834    31.015963       31.016       31.016    29837.116 
 5267000    304.00773   -3267.8934   -22948.075   -24857.416    1909.3409    1.1578834    31.015963       31.016       31.016    29837.116 
 5268000    300.13521   -2343.7179    -22944.44   -24829.459    1885.0192    1.1578834    31.015963       31.016       31.016    29837.116 
 5269000    300.62742   -3393.2291   -22961.243   -24849.354    1888.1106    1.1578834    31.015963       31.016       31.016    29837.116 
 5270000    296.35614   -1762.6026   -22928.508   -24789.793    1861.2845    1.1578834    31.015963       31.016       31.016    29837.116 
 5271000     298.7717   -2772.8943   -23069.786   -24946.242    1876.4556    1.1578834    31.015963       31.016       31.016    29837.116 
 5272000    302.23391   -2473.0955   -22953.154   -24851.354    1898.2002    1.1578834    31.015963       31.016       31.016    29837.116 
 5273000     293.4768   -2936.7688   -23051.167   -24894.367    1843.2006    1.1578834    31.015963       31.016       31.016    29837.116 
 5274000    295.40453   -2462.1926   -23007.183   -24862.491    1855.3079    1.1578834    31.015963       31.016       31.016    29837.116 
 5275000    302.53302   -3589.9009   -22886.448   -24786.527    1900.0788    1.1578834    31.015963       31.016       31.016    29837.116 
 5276000    293.40552   -2780.6998   -22912.562   -24755.315     1842.753    1.1578834    31.015963       31.016       31.016    29837.116 
 5277000    296.79548   -2495.9394   -23041.481   -24905.525    1864.0439    1.1578834    31.015963       31.016       31.016    29837.116 
 5278000    301.99117   -2688.1939   -22947.649   -24844.325    1896.6757    1.1578834    31.015963       31.016       31.016    29837.116 
 5279000    300.51291   -3372.7938   -23095.771   -24983.162    1887.3914    1.1578834    31.015963       31.016       31.016    29837.116 
 5280000    306.95738   -2122.8769   -23016.346   -24944.212    1927.8663    1.1578834    31.015963       31.016       31.016    29837.116 
 5281000     294.0485    -2219.775   -23033.791   -24880.582    1846.7912    1.1578834    31.015963       31.016       31.016    29837.116 
 5282000    286.72296    -3018.442    -23075.54   -24876.323    1800.7827    1.1578834    31.015963       31.016       31.016    29837.116 
 5283000    297.96913   -2764.6942   -22999.579   -24870.994     1871.415    1.1578834    31.015963       31.016       31.016    29837.116 
 5284000    302.88814   -2054.9216   -23008.527   -24910.836    1902.3092    1.1578834    31.015963       31.016       31.016    29837.116 
 5285000    300.85566   -3391.2549   -23076.001   -24965.545    1889.5441    1.1578834    31.015963       31.016       31.016    29837.116 
 5286000    302.05072   -2115.8625   -22974.817   -24871.867    1897.0497    1.1578834    31.015963       31.016       31.016    29837.116 
 5287000    297.45287   -2879.6378   -22983.343   -24851.516    1868.1726    1.1578834    31.015963       31.016       31.016    29837.116 
 5288000    299.64486   -2251.5639    -22909.99   -24791.929    1881.9395    1.1578834    31.015963       31.016       31.016    29837.116 
 5289000    300.98416   -2553.4348   -23001.262   -24891.613    1890.3511    1.1578834    31.015963       31.016       31.016    29837.116 
 5290000    301.60026   -2726.1241   -22953.076   -24847.297    1894.2206    1.1578834    31.015963       31.016       31.016    29837.116 
 5291000    300.48773   -1800.7999   -23012.369   -24899.603    1887.2333    1.1578834    31.015963       31.016       31.016    29837.116 
 5292000    303.93421   -3603.7123   -22996.402   -24905.281    1908.8791    1.1578834    31.015963       31.016       31.016    29837.116 
 5293000    297.48143   -2934.0086   -23025.007   -24893.359     1868.352    1.1578834    31.015963       31.016       31.016    29837.116 
 5294000    292.85608    -2927.641   -23076.677   -24915.979    1839.3022    1.1578834    31.015963       31.016       31.016    29837.116 
 5295000    292.00618   -2380.1627   -23002.834   -24836.798    1833.9643    1.1578834    31.015963       31.016       31.016    29837.116 
 5296000    294.58391   -2973.4022   -22978.555   -24828.709    1850.1539    1.1578834    31.015963       31.016       31.016    29837.116 
 5297000    300.22166   -2073.0207   -22952.221   -24837.783    1885.5622    1.1578834    31.015963       31.016       31.016    29837.116 
 5298000    283.00062   -1975.7215   -22999.904   -24777.308    1777.4043    1.1578834    31.015963       31.016       31.016    29837.116 
 5299000    299.47858   -2827.8348   -22949.001   -24829.896    1880.8952    1.1578834    31.015963       31.016       31.016    29837.116 
 5300000    292.69407   -2818.0211   -22944.351   -24782.635    1838.2847    1.1578834    31.015963       31.016       31.016    29837.116 
 5301000    306.03053    -2465.293   -22949.187   -24871.232    1922.0452    1.1578834    31.015963       31.016       31.016    29837.116 
 5302000    311.39333   -2814.9465   -22945.958   -24901.685    1955.7266    1.1578834    31.015963       31.016       31.016    29837.116 
 5303000    287.20001   -3346.2987   -23104.857   -24908.636    1803.7788    1.1578834    31.015963       31.016       31.016    29837.116 
 5304000    301.96029   -2904.5088   -23002.356   -24898.837    1896.4818    1.1578834    31.015963       31.016       31.016    29837.116 
 5305000    304.94374   -2514.5631   -22980.345   -24895.564    1915.2195    1.1578834    31.015963       31.016       31.016    29837.116 
 5306000    291.43589   -2666.5099    -23044.37   -24874.753    1830.3825    1.1578834    31.015963       31.016       31.016    29837.116 
 5307000     305.2776    -1663.096   -22833.572   -24750.888    1917.3164    1.1578834    31.015963       31.016       31.016    29837.116 
 5308000    301.53624   -2848.8529   -22830.323   -24724.141    1893.8185    1.1578834    31.015963       31.016       31.016    29837.116 
 5309000     297.7295   -2012.3878   -22942.297   -24812.207      1869.91    1.1578834    31.015963       31.016       31.016    29837.116 
 5310000    303.06011   -2371.1964     -22977.5   -24880.889    1903.3893    1.1578834    31.015963       31.016       31.016    29837.116 
 5311000    288.83765   -3052.2454   -23023.488   -24837.552    1814.0641    1.1578834    31.015963       31.016       31.016    29837.116 
 5312000    288.56223   -3665.6381   -22999.339   -24811.673    1812.3344    1.1578834    31.015963       31.016       31.016    29837.116 
 5313000    304.67274   -2103.4808   -22990.735   -24904.252    1913.5175    1.1578834    31.015963       31.016       31.016    29837.116 
 5314000    298.73991   -2688.5496   -22995.075   -24871.331    1876.2559    1.1578834    31.015963       31.016       31.016    29837.116 
 5315000    303.25675   -2613.6506   -22992.463   -24897.087    1904.6243    1.1578834    31.015963       31.016       31.016    29837.116 
 5316000    301.88277    -2337.775   -23005.031   -24901.026    1895.9949    1.1578834    31.015963       31.016       31.016    29837.116 
 5317000    300.33394   -1705.8383   -23012.389   -24898.656    1886.2674    1.1578834    31.015963       31.016       31.016    29837.116 
 5318000    299.54362   -2842.7483   -22987.968   -24869.272    1881.3037    1.1578834    31.015963       31.016       31.016    29837.116 
 5319000    295.68093   -2267.1126   -23006.562   -24863.606    1857.0439    1.1578834    31.015963       31.016       31.016    29837.116 
 5320000      301.906   -2553.6628   -23002.034   -24898.174    1896.1408    1.1578834    31.015963       31.016       31.016    29837.116 
 5321000    305.27591   -3640.5485   -23006.559   -24923.865    1917.3057    1.1578834    31.015963       31.016       31.016    29837.116 
 5322000    309.70898   -2482.1819   -22941.593   -24886.741    1945.1479    1.1578834    31.015963       31.016       31.016    29837.116 
 5323000    298.89212   -2529.4467   -23065.815   -24943.026    1877.2119    1.1578834    31.015963       31.016       31.016    29837.116 
 5324000    298.34923    -2599.569   -23008.599   -24882.401    1873.8023    1.1578834    31.015963       31.016       31.016    29837.116 
 5325000    298.94438   -2593.9376   -23022.898   -24900.438    1877.5401    1.1578834    31.015963       31.016       31.016    29837.116 
 5326000    295.87489   -2623.8587   -23031.263   -24889.525     1858.262    1.1578834    31.015963       31.016       31.016    29837.116 
 5327000     292.0629   -2856.7379   -23054.542   -24888.862    1834.3205    1.1578834    31.015963       31.016       31.016    29837.116 
 5328000    297.40326   -2312.7025   -23026.889   -24894.751     1867.861    1.1578834    31.015963       31.016       31.016    29837.116 
 5329000     295.8223   -2204.3257   -23067.226   -24925.157    1857.9317    1.1578834    31.015963       31.016       31.016    29837.116 
 5330000    295.87849    -2546.879   -23037.234   -24895.519    1858.2846    1.1578834    31.015963       31.016       31.016    29837.116 
 5331000    302.38081   -2281.4028   -22965.806   -24864.928    1899.1229    1.1578834    31.015963       31.016       31.016    29837.116 
 5332000    300.80168   -2281.8578   -22895.871   -24785.076     1889.205    1.1578834    31.015963       31.016       31.016    29837.116 
 5333000    299.46905   -2182.5557   -23010.788   -24891.623    1880.8353    1.1578834    31.015963       31.016       31.016    29837.116 
 5334000    292.67473   -3817.5425   -23024.812   -24862.975    1838.1632    1.1578834    31.015963       31.016       31.016    29837.116 
 5335000    304.49776    -2968.427   -22990.825   -24903.243    1912.4185    1.1578834    31.015963       31.016       31.016    29837.116 
 5336000    297.04856   -2641.1543   -23018.087   -24883.721    1865.6333    1.1578834    31.015963       31.016       31.016    29837.116 
 5337000    300.98815   -2886.5273   -23092.205   -24982.581    1890.3762    1.1578834    31.015963       31.016       31.016    29837.116 
 5338000     302.0514    -2619.347   -23030.943   -24927.997     1897.054    1.1578834    31.015963       31.016       31.016    29837.116 
 5339000    298.50345   -3243.4672   -23039.845   -24914.616    1874.7709    1.1578834    31.015963       31.016       31.016    29837.116 
 5340000    301.28326   -2426.3024   -23001.561    -24893.79    1892.2296    1.1578834    31.015963       31.016       31.016    29837.116 
 5341000    303.21507   -2986.4667   -23011.129   -24915.491    1904.3625    1.1578834    31.015963       31.016       31.016    29837.116 
 5342000    298.00875   -3424.5197   -23107.416    -24979.08    1871.6639    1.1578834    31.015963       31.016       31.016    29837.116 
 5343000    289.52545   -2615.0465   -23027.619   -24846.003    1818.3839    1.1578834    31.015963       31.016       31.016    29837.116 
 5344000    306.02868   -2398.8707   -22994.541   -24916.575    1922.0336    1.1578834    31.015963       31.016       31.016    29837.116 
 5345000    307.89632   -1810.9824   -22982.821   -24916.584    1933.7634    1.1578834    31.015963       31.016       31.016    29837.116 
 5346000    297.68925   -2845.4222   -23040.712   -24910.369    1869.6572    1.1578834    31.015963       31.016       31.016    29837.116 
 5347000    298.49867   -3490.0578   -23043.724   -24918.465    1874.7409    1.1578834    31.015963       31.016       31.016    29837.116 
 5348000    298.87922   -1946.3884   -23079.624   -24956.755    1877.1309    1.1578834    31.015963       31.016       31.016    29837.116 
 5349000    294.79862    -1460.597   -23103.098   -24954.601    1851.5024    1.1578834    31.015963       31.016       31.016    29837.116 
 5350000     293.7148   -2190.7601   -23037.207   -24881.903    1844.6954    1.1578834    31.015963       31.016       31.016    29837.116 
 5351000    297.53293   -3224.2784   -23076.681   -24945.356    1868.6755    1.1578834    31.015963       31.016       31.016    29837.116 
 5352000    298.14621   -3139.1555   -23005.913    -24878.44    1872.5272    1.1578834    31.015963       31.016       31.016    29837.116 
 5353000    299.07906   -1924.0855   -23077.152   -24955.538     1878.386    1.1578834    31.015963       31.016       31.016    29837.116 
 5354000    292.02761   -3091.7697   -23037.713   -24871.812    1834.0989    1.1578834    31.015963       31.016       31.016    29837.116 
 5355000    301.25648   -3447.1277   -22954.136   -24846.198    1892.0614    1.1578834    31.015963       31.016       31.016    29837.116 
 5356000     306.5647   -3725.0521   -22951.765   -24877.165    1925.4001    1.1578834    31.015963       31.016       31.016    29837.116 
 5357000    293.32341   -3562.5501    -23048.41   -24890.648    1842.2373    1.1578834    31.015963       31.016       31.016    29837.116 
 5358000    300.98637   -3273.5083   -23036.748   -24927.113     1890.365    1.1578834    31.015963       31.016       31.016    29837.116 
 5359000    300.60977   -3638.2556   -23010.475   -24898.475    1887.9998    1.1578834    31.015963       31.016       31.016    29837.116 
 5360000    295.90708   -3425.9357   -23136.727   -24995.191    1858.4641    1.1578834    31.015963       31.016       31.016    29837.116 
 5361000    300.18506   -2742.1589       -22993   -24878.332    1885.3323    1.1578834    31.015963       31.016       31.016    29837.116 
 5362000    292.54865   -3546.7806   -23080.581   -24917.952    1837.3713    1.1578834    31.015963       31.016       31.016    29837.116 
 5363000    295.58613   -2917.7244   -22994.604   -24851.052    1856.4484    1.1578834    31.015963       31.016       31.016    29837.116 
 5364000    292.86185   -2686.0651   -22936.382   -24775.721    1839.3384    1.1578834    31.015963       31.016       31.016    29837.116 
 5365000    299.72099   -2039.1585   -22931.957   -24814.375    1882.4177    1.1578834    31.015963       31.016       31.016    29837.116 
 5366000     298.7673   -2902.8289    -23040.04   -24916.468     1876.428    1.1578834    31.015963       31.016       31.016    29837.116 
 5367000    297.58281    -3119.712   -23022.924   -24891.913    1868.9887    1.1578834    31.015963       31.016       31.016    29837.116 
 5368000     297.1429   -2875.4873   -23066.424    -24932.65    1866.2258    1.1578834    31.015963       31.016       31.016    29837.116 
 5369000    295.60769   -3779.2306   -23065.996    -24922.58    1856.5838    1.1578834    31.015963       31.016       31.016    29837.116 
 5370000    291.08505   -3277.9756   -23041.531    -24869.71    1828.1791    1.1578834    31.015963       31.016       31.016    29837.116 
 5371000    304.78592   -3075.2956   -22935.174   -24849.402    1914.2283    1.1578834    31.015963       31.016       31.016    29837.116 
 5372000    291.56465   -3069.5717   -23056.438   -24887.629    1831.1912    1.1578834    31.015963       31.016       31.016    29837.116 
 5373000    296.55965     -3233.22   -22992.341   -24854.904    1862.5627    1.1578834    31.015963       31.016       31.016    29837.116 
 5374000    306.99789   -3465.9173   -23059.755   -24987.875    1928.1208    1.1578834    31.015963       31.016       31.016    29837.116 
 5375000    298.47526    -2931.351   -23055.103   -24929.697    1874.5938    1.1578834    31.015963       31.016       31.016    29837.116 
 5376000    303.00584   -2030.5746   -23036.826   -24939.875    1903.0484    1.1578834    31.015963       31.016       31.016    29837.116 
 5377000    294.24226   -2335.6123   -23072.898   -24920.906    1848.0081    1.1578834    31.015963       31.016       31.016    29837.116 
 5378000    299.74018   -2931.5266   -22973.279   -24855.818    1882.5382    1.1578834    31.015963       31.016       31.016    29837.116 
 5379000    292.56535   -3239.8658   -23029.607   -24867.084    1837.4762    1.1578834    31.015963       31.016       31.016    29837.116 
 5380000    295.38762   -1401.9563   -22986.435   -24841.636    1855.2017    1.1578834    31.015963       31.016       31.016    29837.116 
 5381000    291.11171   -2425.6144   -23038.917   -24867.263    1828.3465    1.1578834    31.015963       31.016       31.016    29837.116 
 5382000    296.34015   -2517.3365   -22996.264   -24857.448    1861.1841    1.1578834    31.015963       31.016       31.016    29837.116 
 5383000    303.29531   -2631.3526   -22956.485   -24861.351    1904.8664    1.1578834    31.015963       31.016       31.016    29837.116 
 5384000    292.32224   -3000.8077   -22989.838   -24825.788    1835.9494    1.1578834    31.015963       31.016       31.016    29837.116 
 5385000    291.38764    -2521.168   -23005.846   -24835.925    1830.0795    1.1578834    31.015963       31.016       31.016    29837.116 
 5386000    296.23675   -2611.6877   -23032.401   -24892.936    1860.5347    1.1578834    31.015963       31.016       31.016    29837.116 
 5387000    306.21936    -2464.827   -22931.204   -24854.435    1923.2311    1.1578834    31.015963       31.016       31.016    29837.116 
 5388000    295.27344   -3487.9029   -23061.524   -24916.009    1854.4846    1.1578834    31.015963       31.016       31.016    29837.116 
 5389000    310.66973   -2444.9855   -22942.765   -24893.947     1951.182    1.1578834    31.015963       31.016       31.016    29837.116 
 5390000    296.95336   -2885.1698   -23014.665     -24879.7    1865.0354    1.1578834    31.015963       31.016       31.016    29837.116 
 5391000     299.8883   -2368.5134   -23053.429   -24936.897    1883.4685    1.1578834    31.015963       31.016       31.016    29837.116 
 5392000    301.27199   -2474.4972   -22994.948   -24887.107    1892.1589    1.1578834    31.015963       31.016       31.016    29837.116 
 5393000    299.41098   -2307.4648   -22953.672   -24834.143    1880.4706    1.1578834    31.015963       31.016       31.016    29837.116 
 5394000    293.72508   -2667.7321   -23057.961   -24902.721      1844.76    1.1578834    31.015963       31.016       31.016    29837.116 
 5395000    300.40583   -3441.5309   -22995.259   -24881.978    1886.7189    1.1578834    31.015963       31.016       31.016    29837.116 
 5396000    299.30922   -2555.1929   -23022.543   -24902.374    1879.8315    1.1578834    31.015963       31.016       31.016    29837.116 
 5397000     295.0305   -2235.8243   -23051.244   -24904.202    1852.9588    1.1578834    31.015963       31.016       31.016    29837.116 
 5398000    303.93389   -3159.9663   -22925.805   -24834.682    1908.8771    1.1578834    31.015963       31.016       31.016    29837.116 
 5399000    297.45543   -3167.1176   -22965.567   -24833.755    1868.1887    1.1578834    31.015963       31.016       31.016    29837.116 
 5400000    297.79583   -2730.8567   -23056.316   -24926.642    1870.3266    1.1578834    31.015963       31.016       31.016    29837.116 
 5401000    311.40835   -3432.7841   -22881.248   -24837.069    1955.8209    1.1578834    31.015963       31.016       31.016    29837.116 
 5402000     298.6551   -3316.1628   -23038.283   -24914.007    1875.7233    1.1578834    31.015963       31.016       31.016    29837.116 
 5403000    303.18847   -2437.2557    -23018.69   -24922.886    1904.1955    1.1578834    31.015963       31.016       31.016    29837.116 
 5404000     304.6057   -3055.0794   -22935.621   -24848.718    1913.0964    1.1578834    31.015963       31.016       31.016    29837.116 
 5405000    298.20923   -2359.4608   -22989.798   -24862.721     1872.923    1.1578834    31.015963       31.016       31.016    29837.116 
 5406000    290.53888   -3411.9871   -23011.032   -24835.781    1824.7488    1.1578834    31.015963       31.016       31.016    29837.116 
 5407000    295.44019   -2876.9743   -22890.261   -24745.793    1855.5319    1.1578834    31.015963       31.016       31.016    29837.116 
 5408000    292.33103   -2273.8038   -23032.219   -24868.223    1836.0046    1.1578834    31.015963       31.016       31.016    29837.116 
 5409000    294.77487   -2343.9185    -23081.89   -24933.243    1851.3532    1.1578834    31.015963       31.016       31.016    29837.116 
 5410000    294.73723   -2827.3143   -23053.171   -24904.288    1851.1169    1.1578834    31.015963       31.016       31.016    29837.116 
 5411000    297.87762   -3749.3088   -23067.095   -24937.936    1870.8403    1.1578834    31.015963       31.016       31.016    29837.116 
 5412000    302.63132   -2452.9154   -23019.958   -24920.654    1900.6962    1.1578834    31.015963       31.016       31.016    29837.116 
 5413000    295.24738   -2542.2899   -23026.137   -24880.458    1854.3209    1.1578834    31.015963       31.016       31.016    29837.116 
 5414000    299.28058   -2191.1979   -22960.131   -24839.782    1879.6517    1.1578834    31.015963       31.016       31.016    29837.116 
 5415000    299.15797   -2730.5216   -22990.623   -24869.505    1878.8816    1.1578834    31.015963       31.016       31.016    29837.116 
 5416000    297.80438    -1382.665   -23002.284   -24872.664    1870.3803    1.1578834    31.015963       31.016       31.016    29837.116 
 5417000    301.88443   -3220.5617   -23018.052   -24914.057    1896.0053    1.1578834    31.015963       31.016       31.016    29837.116 
 5418000    291.44251   -3426.0804   -23004.846   -24835.271    1830.4241    1.1578834    31.015963       31.016       31.016    29837.116 
 5419000    308.61485   -1873.1244   -22851.328   -24789.604    1938.2762    1.1578834    31.015963       31.016       31.016    29837.116 
 5420000    293.63742   -2691.5238   -23045.624   -24889.833    1844.2094    1.1578834    31.015963       31.016       31.016    29837.116 
 5421000    302.72476   -2688.1633   -22981.373   -24882.656    1901.2831    1.1578834    31.015963       31.016       31.016    29837.116 
 5422000    290.45199   -2952.8656   -23101.471   -24925.674    1824.2031    1.1578834    31.015963       31.016       31.016    29837.116 
 5423000    306.27734     -2423.78   -23025.384   -24948.979    1923.5953    1.1578834    31.015963       31.016       31.016    29837.116 
 5424000     295.8762   -1969.1389   -23137.965   -24996.235    1858.2703    1.1578834    31.015963       31.016       31.016    29837.116 
 5425000    299.09605   -2215.5863   -23105.317   -24983.809    1878.4927    1.1578834    31.015963       31.016       31.016    29837.116 
 5426000    289.04073   -2439.0379   -23092.768   -24908.108    1815.3396    1.1578834    31.015963       31.016       31.016    29837.116 
 5427000    293.83553   -3388.3492   -23044.846   -24890.299    1845.4537    1.1578834    31.015963       31.016       31.016    29837.116 
 5428000    293.76279   -2516.5183   -22996.978   -24841.974    1844.9968    1.1578834    31.015963       31.016       31.016    29837.116 
 5429000    294.76415   -2922.6688   -23024.997   -24876.283    1851.2859    1.1578834    31.015963       31.016       31.016    29837.116 
 5430000    305.22298   -2516.0172   -22955.477    -24872.45    1916.9733    1.1578834    31.015963       31.016       31.016    29837.116 
 5431000    296.47899   -2228.9497   -22995.334    -24857.39    1862.0561    1.1578834    31.015963       31.016       31.016    29837.116 
 5432000     293.9696    -3034.448    -23094.33   -24940.625    1846.2957    1.1578834    31.015963       31.016       31.016    29837.116 
 5433000    304.93815   -2522.1243   -22986.581   -24901.765    1915.1844    1.1578834    31.015963       31.016       31.016    29837.116 
 5434000    288.04625   -3001.3813   -23061.995   -24871.089    1809.0937    1.1578834    31.015963       31.016       31.016    29837.116 
 5435000    297.59781   -2420.1666   -23035.816   -24904.899    1869.0829    1.1578834    31.015963       31.016       31.016    29837.116 
 5436000    293.61816   -3073.0707    -23055.67   -24899.759    1844.0884    1.1578834    31.015963       31.016       31.016    29837.116 
 5437000    294.71301   -2968.6798   -23051.366   -24902.331    1850.9648    1.1578834    31.015963       31.016       31.016    29837.116 
 5438000    298.83378   -2530.0491   -22973.196   -24850.041    1876.8455    1.1578834    31.015963       31.016       31.016    29837.116 
 5439000    308.29883   -2571.0442   -22990.456   -24926.748    1936.2914    1.1578834    31.015963       31.016       31.016    29837.116 
 5440000    304.14767   -2546.7851   -22998.175   -24908.395    1910.2198    1.1578834    31.015963       31.016       31.016    29837.116 
 5441000    297.11283   -3435.0388   -23077.749   -24943.786     1866.037    1.1578834    31.015963       31.016       31.016    29837.116 
 5442000    290.67298    -3291.362   -23217.904   -25043.495    1825.5911    1.1578834    31.015963       31.016       31.016    29837.116 
 5443000    293.57898   -2833.2255   -23070.938   -24914.781    1843.8424    1.1578834    31.015963       31.016       31.016    29837.116 
 5444000    293.10667    -3260.829    -23050.86   -24891.736     1840.876    1.1578834    31.015963       31.016       31.016    29837.116 
 5445000    293.17032   -2415.8184   -23083.407   -24924.683    1841.2758    1.1578834    31.015963       31.016       31.016    29837.116 
 5446000     301.8915   -2177.8436   -22982.899   -24878.948    1896.0497    1.1578834    31.015963       31.016       31.016    29837.116 
 5447000     293.6867   -2840.3607   -22884.098   -24728.617    1844.5189    1.1578834    31.015963       31.016       31.016    29837.116 
 5448000    294.48042   -3589.9721   -23029.145   -24878.649    1849.5039    1.1578834    31.015963       31.016       31.016    29837.116 
 5449000    312.84771   -2155.0604   -22890.292   -24855.153    1964.8609    1.1578834    31.015963       31.016       31.016    29837.116 
 5450000    301.62296   -2833.5238   -23091.827    -24986.19    1894.3631    1.1578834    31.015963       31.016       31.016    29837.116 
 5451000    304.60741   -2526.5449   -22930.517   -24843.624    1913.1072    1.1578834    31.015963       31.016       31.016    29837.116 
 5452000    292.77318   -2528.6633   -23044.401   -24883.182    1838.7815    1.1578834    31.015963       31.016       31.016    29837.116 
 5453000    305.00468   -3619.5042   -22945.543   -24861.146    1915.6022    1.1578834    31.015963       31.016       31.016    29837.116 
 5454000    306.25098   -2567.2523   -22967.212   -24890.642    1923.4298    1.1578834    31.015963       31.016       31.016    29837.116 
 5455000     296.8164   -2934.9321   -23021.605    -24885.78    1864.1752    1.1578834    31.015963       31.016       31.016    29837.116 
 5456000    297.46764   -3040.8285   -22975.082   -24843.347    1868.2654    1.1578834    31.015963       31.016       31.016    29837.116 
 5457000    292.75752   -1996.8917   -23025.919   -24864.602    1838.6832    1.1578834    31.015963       31.016       31.016    29837.116 
 5458000    293.96559   -3180.9749   -23083.641   -24929.911    1846.2705    1.1578834    31.015963       31.016       31.016    29837.116 
 5459000    302.53406   -2425.5231    -23026.13   -24926.215    1900.0854    1.1578834    31.015963       31.016       31.016    29837.116 
 5460000    302.33609   -2139.5621    -22894.38   -24793.222     1898.842    1.1578834    31.015963       31.016       31.016    29837.116 
 5461000    297.24233   -3017.0481   -23023.079    -24889.93    1866.8503    1.1578834    31.015963       31.016       31.016    29837.116 
 5462000    297.27027    -2802.943   -23009.193   -24876.219    1867.0258    1.1578834    31.015963       31.016       31.016    29837.116 
 5463000    300.07755   -3405.2968    -22953.24   -24837.897    1884.6571    1.1578834    31.015963       31.016       31.016    29837.116 
 5464000    295.99616   -2273.8728   -22986.622   -24845.645    1859.0237    1.1578834    31.015963       31.016       31.016    29837.116 
 5465000    299.28688   -2739.0654   -23020.305   -24899.996    1879.6913    1.1578834    31.015963       31.016       31.016    29837.116 
 5466000    297.58076   -2986.0595   -22997.558   -24866.534    1868.9758    1.1578834    31.015963       31.016       31.016    29837.116 
 5467000    293.16531   -3011.7677    -23065.12   -24906.365    1841.2443    1.1578834    31.015963       31.016       31.016    29837.116 
 5468000    310.25881   -2894.9821   -23008.895   -24957.496    1948.6012    1.1578834    31.015963       31.016       31.016    29837.116 
 5469000     292.3391   -2852.1153   -23047.595    -24883.65    1836.0552    1.1578834    31.015963       31.016       31.016    29837.116 
 5470000    301.75228   -2949.8751   -23077.787   -24972.963    1895.1754    1.1578834    31.015963       31.016       31.016    29837.116 
 5471000    297.91802   -3266.0229   -23015.364   -24886.458     1871.094    1.1578834    31.015963       31.016       31.016    29837.116 
 5472000    299.36378   -3065.5314   -23028.636   -24908.811    1880.1742    1.1578834    31.015963       31.016       31.016    29837.116 
 5473000    302.05773   -3018.9014   -22951.027    -24848.12    1897.0937    1.1578834    31.015963       31.016       31.016    29837.116 
 5474000    302.11415   -2940.9952   -23061.509   -24958.958    1897.4481    1.1578834    31.015963       31.016       31.016    29837.116 
 5475000    299.23229   -2544.4609   -23150.663   -25030.011    1879.3484    1.1578834    31.015963       31.016       31.016    29837.116 
 5476000    302.60072   -1985.4072   -23006.953   -24907.457    1900.5041    1.1578834    31.015963       31.016       31.016    29837.116 
 5477000    304.70606    -2305.226   -22919.262   -24832.989    1913.7267    1.1578834    31.015963       31.016       31.016    29837.116 
 5478000    302.28422   -2330.3333    -23013.21   -24911.726    1898.5163    1.1578834    31.015963       31.016       31.016    29837.116 
 5479000     292.7102    -2514.052   -23001.649   -24840.035    1838.3859    1.1578834    31.015963       31.016       31.016    29837.116 
 5480000    299.94104    -2884.141   -22955.921   -24839.721    1883.7998    1.1578834    31.015963       31.016       31.016    29837.116 
 5481000    292.09163   -2738.6009   -23031.799     -24866.3     1834.501    1.1578834    31.015963       31.016       31.016    29837.116 
 5482000    295.66034   -3469.5909   -23092.895    -24949.81    1856.9145    1.1578834    31.015963       31.016       31.016    29837.116 
 5483000    283.51158   -3386.2192   -23097.454   -24878.067    1780.6134    1.1578834    31.015963       31.016       31.016    29837.116 
 5484000    303.25918   -2196.7227   -23040.543   -24945.183    1904.6395    1.1578834    31.015963       31.016       31.016    29837.116 
 5485000    288.13454   -3022.8218   -23142.711    -24952.36    1809.6482    1.1578834    31.015963       31.016       31.016    29837.116 
 5486000    289.06172   -3639.0331   -23066.058   -24881.529    1815.4715    1.1578834    31.015963       31.016       31.016    29837.116 
 5487000    293.69906   -2680.3605   -23079.397   -24923.994    1844.5966    1.1578834    31.015963       31.016       31.016    29837.116 
 5488000    295.56175   -3133.9093   -23039.376   -24895.671    1856.2953    1.1578834    31.015963       31.016       31.016    29837.116 
 5489000    295.59361   -2379.6521   -23044.696   -24901.191    1856.4954    1.1578834    31.015963       31.016       31.016    29837.116 
 5490000    289.11764   -3209.5517   -23142.784   -24958.607    1815.8227    1.1578834    31.015963       31.016       31.016    29837.116 
 5491000    298.98553   -2800.2363   -22994.603   -24872.402    1877.7986    1.1578834    31.015963       31.016       31.016    29837.116 
 5492000    302.28132   -2730.5599   -23059.647   -24958.145     1898.498    1.1578834    31.015963       31.016       31.016    29837.116 
 5493000    291.03583   -2004.9926   -23042.604   -24870.474      1827.87    1.1578834    31.015963       31.016       31.016    29837.116 
 5494000    293.42505    -1280.986   -23043.435   -24886.311    1842.8756    1.1578834    31.015963       31.016       31.016    29837.116 
 5495000    290.07228   -2677.1329   -23160.011    -24981.83    1821.8183    1.1578834    31.015963       31.016       31.016    29837.116 
 5496000    298.03091    -2724.703   -23011.858   -24883.661    1871.8031    1.1578834    31.015963       31.016       31.016    29837.116 
 5497000     297.3889   -2758.3758   -22915.879    -24783.65    1867.7709    1.1578834    31.015963       31.016       31.016    29837.116 
 5498000    298.42621    -3697.827   -22996.746   -24871.031    1874.2857    1.1578834    31.015963       31.016       31.016    29837.116 
 5499000    296.97219   -3068.3696   -23089.874   -24955.028    1865.1537    1.1578834    31.015963       31.016       31.016    29837.116 
 5500000    302.12825   -2684.4643   -23056.067   -24953.603    1897.5366    1.1578834    31.015963       31.016       31.016    29837.116 
 5501000    304.25253     -2502.71   -22948.479   -24859.357    1910.8783    1.1578834    31.015963       31.016       31.016    29837.116 
 5502000    295.97787   -3238.5282    -23042.93   -24901.839    1858.9088    1.1578834    31.015963       31.016       31.016    29837.116 
 5503000    304.54253   -2189.9024   -22992.776   -24905.475    1912.6997    1.1578834    31.015963       31.016       31.016    29837.116 
 5504000    301.81098   -2091.5246   -23015.421   -24910.965     1895.544    1.1578834    31.015963       31.016       31.016    29837.116 
 5505000    290.63667   -2333.5993   -23077.485   -24902.848     1825.363    1.1578834    31.015963       31.016       31.016    29837.116 
 5506000    305.00369   -2124.5884     -23129.8   -25045.397     1915.596    1.1578834    31.015963       31.016       31.016    29837.116 
 5507000    286.47567    -2384.227   -23171.197   -24970.427    1799.2296    1.1578834    31.015963       31.016       31.016    29837.116 
 5508000    298.38818   -3014.5021   -23048.891   -24922.938    1874.0469    1.1578834    31.015963       31.016       31.016    29837.116 
 5509000    293.18387   -2523.7766   -23033.089    -24874.45    1841.3609    1.1578834    31.015963       31.016       31.016    29837.116 
 5510000    305.23508   -2691.2835   -23063.178   -24980.228    1917.0493    1.1578834    31.015963       31.016       31.016    29837.116 
 5511000    304.85635   -2832.6055   -22977.857   -24892.528    1914.6706    1.1578834    31.015963       31.016       31.016    29837.116 
 5512000    299.30276   -2772.9442   -22956.911   -24836.702     1879.791    1.1578834    31.015963       31.016       31.016    29837.116 
 5513000    308.08786   -2194.5499   -23008.873    -24943.84    1934.9664    1.1578834    31.015963       31.016       31.016    29837.116 
 5514000    293.46369   -2334.3209   -22938.412   -24781.531    1843.1183    1.1578834    31.015963       31.016       31.016    29837.116 
 5515000    298.92121   -2929.3604   -22993.566   -24870.961    1877.3946    1.1578834    31.015963       31.016       31.016    29837.116 
 5516000    296.57424   -3044.8359    -22959.08   -24821.735    1862.6543    1.1578834    31.015963       31.016       31.016    29837.116 
 5517000     285.5897   -3047.5614   -23101.089   -24894.754    1793.6652    1.1578834    31.015963       31.016       31.016    29837.116 
 5518000    303.74892   -1861.2253   -22950.409   -24858.125    1907.7154    1.1578834    31.015963       31.016       31.016    29837.116 
 5519000    298.50359    -2428.583   -22987.995   -24862.767    1874.7717    1.1578834    31.015963       31.016       31.016    29837.116 
 5520000    296.97284   -2901.3271   -23044.705   -24909.863    1865.1578    1.1578834    31.015963       31.016       31.016    29837.116 
 5521000    298.20233   -2816.0885   -22994.177   -24867.057    1872.8796    1.1578834    31.015963       31.016       31.016    29837.116 
 5522000    290.00415   -2590.6014   -23134.276   -24955.666    1821.3904    1.1578834    31.015963       31.016       31.016    29837.116 
 5523000    303.82001    -2684.826    -23010.07   -24918.232    1908.1618    1.1578834    31.015963       31.016       31.016    29837.116 
 5524000    301.67495    -3116.567   -23046.877   -24941.567    1894.6896    1.1578834    31.015963       31.016       31.016    29837.116 
 5525000    303.94826   -2283.9379   -22981.403    -24890.37    1908.9673    1.1578834    31.015963       31.016       31.016    29837.116 
 5526000    300.55026   -2702.5046   -23079.982   -24967.608     1887.626    1.1578834    31.015963       31.016       31.016    29837.116 
 5527000    308.33473   -1873.6481   -23009.039   -24945.555    1936.5169    1.1578834    31.015963       31.016       31.016    29837.116 
 5528000    295.67178   -2728.0755   -23034.739   -24891.725    1856.9864    1.1578834    31.015963       31.016       31.016    29837.116 
 5529000    296.25866   -2487.0882   -22945.717    -24806.39    1860.6723    1.1578834    31.015963       31.016       31.016    29837.116 
 5530000    298.02005   -3118.8585   -23026.269   -24898.004    1871.7348    1.1578834    31.015963       31.016       31.016    29837.116 
 5531000      297.794   -2574.9043   -23014.672   -24884.988    1870.3151    1.1578834    31.015963       31.016       31.016    29837.116 
 5532000    293.12967   -1890.4178   -23092.255   -24933.276    1841.0205    1.1578834    31.015963       31.016       31.016    29837.116 
 5533000    299.07742   -2800.4531    -22953.45   -24831.826    1878.3757    1.1578834    31.015963       31.016       31.016    29837.116 
 5534000    294.05789   -2923.7744   -23033.127   -24879.978    1846.8502    1.1578834    31.015963       31.016       31.016    29837.116 
 5535000    294.18216   -2125.9981   -23033.436   -24881.067    1847.6307    1.1578834    31.015963       31.016       31.016    29837.116 
 5536000    293.30011   -2339.0954   -23006.027   -24848.117    1842.0909    1.1578834    31.015963       31.016       31.016    29837.116 
 5537000    299.24971   -2693.3412   -23037.926   -24917.384    1879.4578    1.1578834    31.015963       31.016       31.016    29837.116 
 5538000    295.51814   -2317.9277   -23018.258   -24874.279    1856.0214    1.1578834    31.015963       31.016       31.016    29837.116 
 5539000    298.75769   -1921.1508    -23044.55   -24920.917    1876.3676    1.1578834    31.015963       31.016       31.016    29837.116 
 5540000    293.72476    -2358.372   -23047.404   -24892.162     1844.758    1.1578834    31.015963       31.016       31.016    29837.116 
 5541000    301.26442   -3394.2117   -23073.303   -24965.414    1892.1113    1.1578834    31.015963       31.016       31.016    29837.116 
 5542000     290.8022   -2856.6898   -23132.042   -24958.445    1826.4026    1.1578834    31.015963       31.016       31.016    29837.116 
 5543000    294.40177   -1874.4827   -23003.176   -24852.186      1849.01    1.1578834    31.015963       31.016       31.016    29837.116 
 5544000     299.9924   -1879.9085   -23021.418   -24905.541    1884.1223    1.1578834    31.015963       31.016       31.016    29837.116 
 5545000    296.20512   -2783.0013   -23050.007   -24910.343     1860.336    1.1578834    31.015963       31.016       31.016    29837.116 
 5546000    301.66199   -2498.8199   -22919.516   -24814.125    1894.6082    1.1578834    31.015963       31.016       31.016    29837.116 
 5547000    298.67139   -1998.4645   -23010.462   -24886.288    1875.8256    1.1578834    31.015963       31.016       31.016    29837.116 
 5548000    294.79749   -2871.8111   -23032.315    -24883.81    1851.4953    1.1578834    31.015963       31.016       31.016    29837.116 
 5549000    296.39593   -2608.8818   -23067.268   -24928.803    1861.5344    1.1578834    31.015963       31.016       31.016    29837.116 
 5550000    300.67368   -1936.6782   -23059.818   -24948.219    1888.4011    1.1578834    31.015963       31.016       31.016    29837.116 
 5551000    291.63036   -1861.5733   -23064.773   -24896.377     1831.604    1.1578834    31.015963       31.016       31.016    29837.116 
 5552000    291.71699   -2065.5255   -23048.733   -24880.881     1832.148    1.1578834    31.015963       31.016       31.016    29837.116 
 5553000    297.43356   -2448.6628   -22986.307   -24854.358    1868.0514    1.1578834    31.015963       31.016       31.016    29837.116 
 5554000    304.09681   -1916.8041   -23043.653   -24953.553    1909.9003    1.1578834    31.015963       31.016       31.016    29837.116 
 5555000    292.36059   -2179.2496   -23001.998   -24838.189    1836.1902    1.1578834    31.015963       31.016       31.016    29837.116 
 5556000    296.19289   -3135.8796   -22984.073   -24844.333    1860.2592    1.1578834    31.015963       31.016       31.016    29837.116 
 5557000    293.48609   -2645.0438   -22987.972   -24831.231     1843.259    1.1578834    31.015963       31.016       31.016    29837.116 
 5558000    293.37839   -2701.5012   -22920.624   -24763.206    1842.5826    1.1578834    31.015963       31.016       31.016    29837.116 
 5559000    295.65131   -2764.4368   -23071.544   -24928.401    1856.8578    1.1578834    31.015963       31.016       31.016    29837.116 
 5560000    303.87164   -2981.3439   -22934.632   -24843.118    1908.4861    1.1578834    31.015963       31.016       31.016    29837.116 
 5561000    295.76854   -2962.4566   -22999.316    -24856.91     1857.594    1.1578834    31.015963       31.016       31.016    29837.116 
 5562000    297.80555   -2939.2702   -23020.597   -24890.985    1870.3877    1.1578834    31.015963       31.016       31.016    29837.116 
 5563000     302.1067   -2883.5501   -22975.461   -24872.862    1897.4013    1.1578834    31.015963       31.016       31.016    29837.116 
 5564000    303.62825   -3294.1434   -23023.515   -24930.472    1906.9575    1.1578834    31.015963       31.016       31.016    29837.116 
 5565000    297.88875   -2856.2958   -22951.375   -24822.285    1870.9102    1.1578834    31.015963       31.016       31.016    29837.116 
 5566000    288.98988   -2059.8398   -23036.709   -24851.729    1815.0202    1.1578834    31.015963       31.016       31.016    29837.116 
 5567000     297.7672   -3570.5419   -23022.616   -24892.763    1870.1468    1.1578834    31.015963       31.016       31.016    29837.116 
 5568000    297.71425   -2461.6222    -22928.89   -24798.705    1869.8142    1.1578834    31.015963       31.016       31.016    29837.116 
 5569000    303.78769   -3181.9531   -22947.892    -24855.85    1907.9589    1.1578834    31.015963       31.016       31.016    29837.116 
 5570000    300.13244   -3308.0426   -22963.762   -24848.764    1885.0018    1.1578834    31.015963       31.016       31.016    29837.116 
 5571000    309.32739   -2697.4106   -22878.609   -24821.361    1942.7513    1.1578834    31.015963       31.016       31.016    29837.116 
 5572000    297.46971   -3265.3107   -22973.646   -24841.924    1868.2784    1.1578834    31.015963       31.016       31.016    29837.116 
 5573000    306.90657   -2810.2641   -22932.383    -24859.93    1927.5472    1.1578834    31.015963       31.016       31.016    29837.116 
 5574000    292.42554   -2791.7714   -23070.836   -24907.434    1836.5981    1.1578834    31.015963       31.016       31.016    29837.116 
 5575000     302.0008   -2612.9839   -22991.771   -24888.507    1896.7362    1.1578834    31.015963       31.016       31.016    29837.116 
 5576000    310.23643   -2602.2012   -22971.667   -24920.128    1948.4606    1.1578834    31.015963       31.016       31.016    29837.116 
 5577000    290.94992   -2908.5922   -22977.393   -24804.723    1827.3304    1.1578834    31.015963       31.016       31.016    29837.116 
 5578000    296.63854   -2576.8158    -22997.06   -24860.119    1863.0581    1.1578834    31.015963       31.016       31.016    29837.116 
 5579000    292.09292   -2672.9612   -23032.097   -24866.606    1834.5091    1.1578834    31.015963       31.016       31.016    29837.116 
 5580000    303.89082   -3384.4044   -22898.184   -24806.791    1908.6066    1.1578834    31.015963       31.016       31.016    29837.116 
 5581000    296.12967   -3280.8739   -22978.243   -24838.106    1859.8622    1.1578834    31.015963       31.016       31.016    29837.116 
 5582000    294.39318    -2457.939   -23003.543   -24852.499     1848.956    1.1578834    31.015963       31.016       31.016    29837.116 
 5583000    305.77206   -3072.5368   -22893.895   -24814.317    1920.4218    1.1578834    31.015963       31.016       31.016    29837.116 
 5584000    289.86943   -3054.9135   -22971.821   -24792.365    1820.5443    1.1578834    31.015963       31.016       31.016    29837.116 
 5585000    300.27293   -2130.3422   -22945.684   -24831.568    1885.8842    1.1578834    31.015963       31.016       31.016    29837.116 
 5586000    297.35665   -2930.1312   -23018.293   -24885.861    1867.5683    1.1578834    31.015963       31.016       31.016    29837.116 
 5587000     293.0028   -2697.4237   -23161.156    -25001.38    1840.2236    1.1578834    31.015963       31.016       31.016    29837.116 
 5588000    304.59647   -3016.0054   -23005.076   -24918.115    1913.0385    1.1578834    31.015963       31.016       31.016    29837.116 
 5589000    302.21748   -2556.1096   -23021.392   -24919.489     1898.097    1.1578834    31.015963       31.016       31.016    29837.116 
 5590000    287.91712   -3576.0584   -23117.887    -24926.17    1808.2827    1.1578834    31.015963       31.016       31.016    29837.116 
 5591000    296.31244   -3672.8669   -22976.641   -24837.651    1861.0101    1.1578834    31.015963       31.016       31.016    29837.116 
 5592000    304.55906   -2109.9848   -23030.157   -24942.961    1912.8035    1.1578834    31.015963       31.016       31.016    29837.116 
 5593000    296.85698   -3214.4712   -22989.457   -24853.887    1864.4301    1.1578834    31.015963       31.016       31.016    29837.116 
 5594000     303.1158   -2396.7035   -22977.386   -24881.125     1903.739    1.1578834    31.015963       31.016       31.016    29837.116 
 5595000    301.01369   -3499.6957    -22925.24   -24815.776    1890.5366    1.1578834    31.015963       31.016       31.016    29837.116 
 5596000    295.33088   -3309.0587   -23044.451   -24899.297    1854.8453    1.1578834    31.015963       31.016       31.016    29837.116 
 5597000    301.74089   -3258.3885   -23029.132   -24924.236    1895.1038    1.1578834    31.015963       31.016       31.016    29837.116 
 5598000     292.0698   -2786.9336   -23113.733   -24948.096    1834.3639    1.1578834    31.015963       31.016       31.016    29837.116 
 5599000    301.83482   -2888.8503   -23037.065   -24932.758    1895.6937    1.1578834    31.015963       31.016       31.016    29837.116 
 5600000    300.43273   -2731.8733   -23046.816   -24933.703    1886.8878    1.1578834    31.015963       31.016       31.016    29837.116 
 5601000     298.9813   -3696.0973   -22997.207   -24874.979     1877.772    1.1578834    31.015963       31.016       31.016    29837.116 
 5602000    283.23572   -2732.9644   -23118.107   -24896.988    1778.8808    1.1578834    31.015963       31.016       31.016    29837.116 
 5603000    292.43925   -2558.7257   -23082.679   -24919.363    1836.6842    1.1578834    31.015963       31.016       31.016    29837.116 
 5604000    299.99601   -2838.1512   -23050.713   -24934.858    1884.1449    1.1578834    31.015963       31.016       31.016    29837.116 
 5605000    302.48384   -3329.6177   -23032.019   -24931.789      1899.77    1.1578834    31.015963       31.016       31.016    29837.116 
 5606000    306.52026   -2150.4932   -22947.853   -24872.974     1925.121    1.1578834    31.015963       31.016       31.016    29837.116 
 5607000    298.17586   -2783.6873   -23051.925   -24924.638    1872.7134    1.1578834    31.015963       31.016       31.016    29837.116 
 5608000    294.80742    -3027.946   -23050.692   -24902.249    1851.5577    1.1578834    31.015963       31.016       31.016    29837.116 
 5609000    305.00591   -1899.6551   -23006.531   -24922.141      1915.61    1.1578834    31.015963       31.016       31.016    29837.116 
 5610000    296.04512   -3029.3296   -23059.187   -24918.518    1859.3311    1.1578834    31.015963       31.016       31.016    29837.116 
 5611000    303.27921   -2460.2658   -22977.379   -24882.145    1904.7653    1.1578834    31.015963       31.016       31.016    29837.116 
 5612000    304.66363   -4180.6731   -22992.967   -24906.428    1913.4603    1.1578834    31.015963       31.016       31.016    29837.116 
 5613000    302.80632   -3317.2246   -22962.629   -24864.425    1901.7953    1.1578834    31.015963       31.016       31.016    29837.116 
 5614000    302.40322   -3037.2394   -23090.768   -24990.032    1899.2636    1.1578834    31.015963       31.016       31.016    29837.116 
 5615000    298.61139    -2928.632   -22971.973   -24847.422    1875.4488    1.1578834    31.015963       31.016       31.016    29837.116 
 5616000    298.71942   -1123.3659   -23123.659   -24999.786    1876.1273    1.1578834    31.015963       31.016       31.016    29837.116 
 5617000    289.56446   -4388.2845   -23189.219   -25007.848    1818.6289    1.1578834    31.015963       31.016       31.016    29837.116 
 5618000    295.08326   -3015.6871   -23003.289   -24856.579    1853.2901    1.1578834    31.015963       31.016       31.016    29837.116 
 5619000    305.04833   -2984.7731   -22949.663    -24865.54    1915.8764    1.1578834    31.015963       31.016       31.016    29837.116 
 5620000    297.78514   -2648.5656    -22963.56    -24833.82    1870.2595    1.1578834    31.015963       31.016       31.016    29837.116 
 5621000    302.48979   -1986.8444   -23027.292   -24927.099    1899.8073    1.1578834    31.015963       31.016       31.016    29837.116 
 5622000    303.34282   -1964.2293   -23063.364   -24968.529    1905.1649    1.1578834    31.015963       31.016       31.016    29837.116 
 5623000    298.07514   -2206.9068    -23051.65   -24923.731    1872.0808    1.1578834    31.015963       31.016       31.016    29837.116 
 5624000    295.35831   -2128.2969    -23023.76   -24878.777    1855.0176    1.1578834    31.015963       31.016       31.016    29837.116 
 5625000    301.46204   -3091.5656   -23021.336   -24914.688    1893.3525    1.1578834    31.015963       31.016       31.016    29837.116 
 5626000    297.83837   -3112.8397    -23025.04   -24895.633    1870.5938    1.1578834    31.015963       31.016       31.016    29837.116 
 5627000    292.92307   -1930.6092   -23114.775   -24954.498    1839.7229    1.1578834    31.015963       31.016       31.016    29837.116 
 5628000    301.91977   -3060.9712   -23045.324   -24941.551    1896.2273    1.1578834    31.015963       31.016       31.016    29837.116 
 5629000    298.97076   -2855.4494   -23018.327   -24896.033    1877.7058    1.1578834    31.015963       31.016       31.016    29837.116 
 5630000     295.1809   -2263.2238   -23030.487    -24884.39    1853.9034    1.1578834    31.015963       31.016       31.016    29837.116 
 5631000    303.55488   -2887.2568   -23026.996   -24933.492    1906.4967    1.1578834    31.015963       31.016       31.016    29837.116 
 5632000    296.48373   -2829.9764   -23064.826   -24926.911    1862.0859    1.1578834    31.015963       31.016       31.016    29837.116 
 5633000    299.06808   -2944.3567   -23045.136   -24923.453    1878.3171    1.1578834    31.015963       31.016       31.016    29837.116 
 5634000    293.29046   -2876.7307   -23072.878   -24914.908    1842.0303    1.1578834    31.015963       31.016       31.016    29837.116 
 5635000    296.02052    -2811.552    -23044.95   -24904.127    1859.1767    1.1578834    31.015963       31.016       31.016    29837.116 
 5636000    305.49905   -2413.3115   -22906.129   -24824.837    1918.7072    1.1578834    31.015963       31.016       31.016    29837.116 
 5637000    298.54893   -2939.1063   -22937.661   -24812.718    1875.0565    1.1578834    31.015963       31.016       31.016    29837.116 
 5638000    298.51897   -2872.6382   -23011.752    -24886.62    1874.8683    1.1578834    31.015963       31.016       31.016    29837.116 
 5639000    291.85307    -2546.764   -23056.424   -24889.427    1833.0027    1.1578834    31.015963       31.016       31.016    29837.116 
 5640000    299.84325   -2843.6545   -23035.429   -24918.615    1883.1855    1.1578834    31.015963       31.016       31.016    29837.116 
 5641000    299.64612   -1880.9505   -22957.432   -24839.379    1881.9474    1.1578834    31.015963       31.016       31.016    29837.116 
 5642000    287.97643   -2614.1899   -23047.851   -24856.506    1808.6552    1.1578834    31.015963       31.016       31.016    29837.116 
 5643000     292.7776   -2119.0346   -23124.673   -24963.482    1838.8093    1.1578834    31.015963       31.016       31.016    29837.116 
 5644000    306.30064   -2634.1146   -22897.027   -24820.768    1923.7416    1.1578834    31.015963       31.016       31.016    29837.116 
 5645000    295.45636   -2958.7528    -23047.79   -24903.424    1855.6334    1.1578834    31.015963       31.016       31.016    29837.116 
 5646000    297.84695   -2853.2246   -23058.771   -24929.418    1870.6476    1.1578834    31.015963       31.016       31.016    29837.116 
 5647000     293.1997   -2092.5911   -23069.697   -24911.158    1841.4603    1.1578834    31.015963       31.016       31.016    29837.116 
 5648000    297.59623   -2826.9412    -23071.67   -24940.743     1869.073    1.1578834    31.015963       31.016       31.016    29837.116 
 5649000    304.39425    -3085.636   -22950.353   -24862.121    1911.7684    1.1578834    31.015963       31.016       31.016    29837.116 
 5650000    303.61803    -2736.567   -22891.861   -24798.754    1906.8933    1.1578834    31.015963       31.016       31.016    29837.116 
 5651000    303.98402   -2179.1917   -23012.019   -24921.211    1909.1919    1.1578834    31.015963       31.016       31.016    29837.116 
 5652000    303.50609   -2399.5265    -23009.38    -24915.57    1906.1903    1.1578834    31.015963       31.016       31.016    29837.116 
 5653000    298.87467   -3967.4131   -23044.432   -24921.534    1877.1023    1.1578834    31.015963       31.016       31.016    29837.116 
 5654000    292.03835   -2854.0917   -23056.468   -24890.635    1834.1664    1.1578834    31.015963       31.016       31.016    29837.116 
 5655000    299.52059   -2841.1088    -23105.76   -24986.919     1881.159    1.1578834    31.015963       31.016       31.016    29837.116 
 5656000    304.25535   -3311.8908   -23002.646   -24913.542     1910.896    1.1578834    31.015963       31.016       31.016    29837.116 
 5657000    305.85971   -2888.0417   -23024.679   -24945.651    1920.9723    1.1578834    31.015963       31.016       31.016    29837.116 
 5658000    294.81845   -3027.8962   -23035.936   -24887.563    1851.6269    1.1578834    31.015963       31.016       31.016    29837.116 
 5659000    289.96597   -2855.5173   -23090.962   -24912.112    1821.1506    1.1578834    31.015963       31.016       31.016    29837.116 
 5660000    301.24661   -2233.4587   -22971.503   -24863.503    1891.9994    1.1578834    31.015963       31.016       31.016    29837.116 
 5661000    303.59976   -2274.3778   -22976.677   -24883.456    1906.7786    1.1578834    31.015963       31.016       31.016    29837.116 
 5662000    293.32918   -3188.8733   -23089.434   -24931.707    1842.2735    1.1578834    31.015963       31.016       31.016    29837.116 
 5663000    303.75413   -2505.2952   -22863.057   -24770.805    1907.7481    1.1578834    31.015963       31.016       31.016    29837.116 
 5664000    290.61989   -2225.9318   -23038.001   -24863.259    1825.2576    1.1578834    31.015963       31.016       31.016    29837.116 
 5665000    301.43085   -2453.3492   -22883.102   -24776.259    1893.1566    1.1578834    31.015963       31.016       31.016    29837.116 
 5666000    296.29478   -2082.9154   -22978.568   -24839.467    1860.8992    1.1578834    31.015963       31.016       31.016    29837.116 
 5667000    306.30853   -3322.0667   -22931.219    -24855.01    1923.7911    1.1578834    31.015963       31.016       31.016    29837.116 
 5668000    297.18674   -2699.1613   -23030.262   -24896.764    1866.5012    1.1578834    31.015963       31.016       31.016    29837.116 
 5669000    295.65178   -2617.2797    -22912.71   -24769.571    1856.8608    1.1578834    31.015963       31.016       31.016    29837.116 
 5670000    299.01508   -2271.7089   -22987.434   -24865.419    1877.9842    1.1578834    31.015963       31.016       31.016    29837.116 
 5671000     297.8858   -2195.0947   -22916.455   -24787.347    1870.8916    1.1578834    31.015963       31.016       31.016    29837.116 
 5672000    291.13103   -3160.7941   -23049.303   -24877.771    1828.4679    1.1578834    31.015963       31.016       31.016    29837.116 
 5673000    300.75693   -2807.6355   -23010.987   -24899.911     1888.924    1.1578834    31.015963       31.016       31.016    29837.116 
 5674000    300.77176   -3021.9415   -22964.043    -24853.06    1889.0171    1.1578834    31.015963       31.016       31.016    29837.116 
 5675000      297.157   -2389.4414   -23002.627   -24868.941    1866.3144    1.1578834    31.015963       31.016       31.016    29837.116 
 5676000    297.44239   -3222.0027   -22960.889   -24828.996    1868.1068    1.1578834    31.015963       31.016       31.016    29837.116 
 5677000    297.11765   -2845.0224   -22940.793   -24806.861    1866.0672    1.1578834    31.015963       31.016       31.016    29837.116 
 5678000     295.3008   -2220.2166   -23072.441   -24927.098    1854.6564    1.1578834    31.015963       31.016       31.016    29837.116 
 5679000    299.23379   -2816.4194   -22985.477   -24864.835    1879.3578    1.1578834    31.015963       31.016       31.016    29837.116 
 5680000    301.86382   -2859.4934   -22985.198   -24881.074    1895.8759    1.1578834    31.015963       31.016       31.016    29837.116 
 5681000    292.28945   -2284.6702   -23039.695   -24875.438    1835.7434    1.1578834    31.015963       31.016       31.016    29837.116 
 5682000    298.76329   -2876.8185   -22966.307    -24842.71    1876.4028    1.1578834    31.015963       31.016       31.016    29837.116 
 5683000    305.23254   -3023.0903    -22993.59   -24910.623    1917.0334    1.1578834    31.015963       31.016       31.016    29837.116 
 5684000    302.16724   -2827.8689   -23061.753   -24959.535    1897.7815    1.1578834    31.015963       31.016       31.016    29837.116 
 5685000    295.07038   -2585.8421   -23028.981    -24882.19    1853.2092    1.1578834    31.015963       31.016       31.016    29837.116 
 5686000    297.91312   -2910.9776   -23032.528   -24903.592    1871.0633    1.1578834    31.015963       31.016       31.016    29837.116 
 5687000    304.08705   -2469.3809   -22925.907   -24835.746     1909.839    1.1578834    31.015963       31.016       31.016    29837.116 
 5688000    303.84051   -1971.1581   -22912.917   -24821.208    1908.2906    1.1578834    31.015963       31.016       31.016    29837.116 
 5689000    294.04137   -2145.4159   -22939.888   -24786.635    1846.7464    1.1578834    31.015963       31.016       31.016    29837.116 
 5690000    305.71372   -2358.1708   -22973.191   -24893.246    1920.0554    1.1578834    31.015963       31.016       31.016    29837.116 
 5691000    308.31228   -2847.4584   -22968.702   -24905.078    1936.3759    1.1578834    31.015963       31.016       31.016    29837.116 
 5692000    306.24633   -2238.3104   -22919.404   -24842.805    1923.4006    1.1578834    31.015963       31.016       31.016    29837.116 
 5693000    295.48277   -2552.0733   -22973.861    -24829.66    1855.7993    1.1578834    31.015963       31.016       31.016    29837.116 
 5694000    302.22247   -1796.4879   -22939.044   -24837.173    1898.1284    1.1578834    31.015963       31.016       31.016    29837.116 
 5695000    299.28169   -2228.8632   -22988.249   -24867.908    1879.6586    1.1578834    31.015963       31.016       31.016    29837.116 
 5696000     301.6891   -1898.6252   -22992.192   -24886.971    1894.7785    1.1578834    31.015963       31.016       31.016    29837.116 
 5697000    302.72564   -1718.7749   -22997.056   -24898.344    1901.2886    1.1578834    31.015963       31.016       31.016    29837.116 
 5698000    296.88473   -2231.5758   -23053.559   -24918.164    1864.6044    1.1578834    31.015963       31.016       31.016    29837.116 
 5699000    302.93404   -1862.2601   -22949.524   -24852.122    1902.5975    1.1578834    31.015963       31.016       31.016    29837.116 
 5700000    296.55768   -2399.8736   -22972.846   -24835.396    1862.5503    1.1578834    31.015963       31.016       31.016    29837.116 
 5701000    300.12629   -2435.9087   -22954.166   -24839.129    1884.9632    1.1578834    31.015963       31.016       31.016    29837.116 
 5702000    299.56553   -1941.9693   -23001.644   -24883.086    1881.4413    1.1578834    31.015963       31.016       31.016    29837.116 
 5703000    300.50992   -3010.6069   -23024.553   -24911.925    1887.3726    1.1578834    31.015963       31.016       31.016    29837.116 
 5704000    298.07785   -1830.5112   -23005.593    -24877.69    1872.0979    1.1578834    31.015963       31.016       31.016    29837.116 
 5705000    308.06732   -4043.3317   -23044.562     -24979.4    1934.8374    1.1578834    31.015963       31.016       31.016    29837.116 
 5706000    294.47359   -2890.9161   -22999.699    -24849.16     1849.461    1.1578834    31.015963       31.016       31.016    29837.116 
 5707000    299.86604   -2840.0675   -22938.995   -24822.324    1883.3287    1.1578834    31.015963       31.016       31.016    29837.116 
 5708000    291.60347   -2909.7025   -22952.421   -24783.856    1831.4351    1.1578834    31.015963       31.016       31.016    29837.116 
 5709000    302.83137   -2263.0026     -22902.3   -24804.252    1901.9527    1.1578834    31.015963       31.016       31.016    29837.116 
 5710000    295.33706   -2862.3355   -23096.884   -24951.768    1854.8842    1.1578834    31.015963       31.016       31.016    29837.116 
 5711000    291.02549   -2149.0753   -23003.568   -24831.373     1827.805    1.1578834    31.015963       31.016       31.016    29837.116 
 5712000    296.01169   -2645.7664   -22960.048   -24819.169    1859.1212    1.1578834    31.015963       31.016       31.016    29837.116 
 5713000    299.47646   -2956.1345   -22987.952   -24868.834    1880.8819    1.1578834    31.015963       31.016       31.016    29837.116 
 5714000    297.81779   -3347.8808   -23093.592   -24964.056    1870.4645    1.1578834    31.015963       31.016       31.016    29837.116 
 5715000    294.04919   -3185.9543   -23030.715   -24877.511    1846.7956    1.1578834    31.015963       31.016       31.016    29837.116 
 5716000    300.17767   -3135.3749   -22953.544    -24838.83    1885.2859    1.1578834    31.015963       31.016       31.016    29837.116 
 5717000    289.36686   -3151.2299   -23064.581   -24881.968    1817.3879    1.1578834    31.015963       31.016       31.016    29837.116 
 5718000    299.61638   -2453.3131   -22949.674   -24831.435    1881.7607    1.1578834    31.015963       31.016       31.016    29837.116 
 5719000    302.43305   -2053.9749   -22957.247   -24856.698     1899.451    1.1578834    31.015963       31.016       31.016    29837.116 
 5720000    302.87358   -2800.1052   -22962.187   -24864.405    1902.2178    1.1578834    31.015963       31.016       31.016    29837.116 
 5721000    295.50861   -2627.7566   -22934.659    -24790.62    1855.9615    1.1578834    31.015963       31.016       31.016    29837.116 
 5722000    293.33634   -3040.0818   -23039.861   -24882.179    1842.3185    1.1578834    31.015963       31.016       31.016    29837.116 
 5723000    310.68009   -2660.1986   -22959.075   -24910.322     1951.247    1.1578834    31.015963       31.016       31.016    29837.116 
 5724000    296.61902   -3304.4026   -23015.608   -24878.544    1862.9356    1.1578834    31.015963       31.016       31.016    29837.116 
 5725000    299.63834   -2319.9858   -22985.447   -24867.346    1881.8986    1.1578834    31.015963       31.016       31.016    29837.116 
 5726000    297.78257   -2553.1735     -23027.3   -24897.543    1870.2433    1.1578834    31.015963       31.016       31.016    29837.116 
 5727000    286.06699   -2938.5436   -23103.783   -24900.446    1796.6628    1.1578834    31.015963       31.016       31.016    29837.116 
 5728000     301.5449   -2110.7843   -22900.373   -24794.246    1893.8729    1.1578834    31.015963       31.016       31.016    29837.116 
 5729000    298.40824   -1772.2382   -22945.634   -24819.807    1874.1729    1.1578834    31.015963       31.016       31.016    29837.116 
 5730000    303.13824   -3460.2562   -23037.981   -24941.861      1903.88    1.1578834    31.015963       31.016       31.016    29837.116 
 5731000    299.71267    -2338.316   -23002.875   -24885.241    1882.3655    1.1578834    31.015963       31.016       31.016    29837.116 
 5732000    297.24755   -2765.0472   -22934.564   -24801.447    1866.8831    1.1578834    31.015963       31.016       31.016    29837.116 
 5733000    306.26897   -2377.4561   -22870.926   -24794.469    1923.5427    1.1578834    31.015963       31.016       31.016    29837.116 
 5734000    304.59372   -2906.7206   -22924.928   -24837.949    1913.0212    1.1578834    31.015963       31.016       31.016    29837.116 
 5735000    295.41199   -1446.1816   -22965.356   -24820.711    1855.3547    1.1578834    31.015963       31.016       31.016    29837.116 
 5736000    298.56555   -2266.4341    -22997.33   -24872.491    1875.1609    1.1578834    31.015963       31.016       31.016    29837.116 
 5737000     310.2116   -2883.6063    -22990.44   -24938.745    1948.3047    1.1578834    31.015963       31.016       31.016    29837.116 
 5738000    311.43012   -2258.0691    -22903.89   -24859.847    1955.9577    1.1578834    31.015963       31.016       31.016    29837.116 
 5739000    300.58244   -2492.2302   -22978.127   -24865.955    1887.8281    1.1578834    31.015963       31.016       31.016    29837.116 
 5740000     298.0544   -2845.3661   -23038.853   -24910.803    1871.9505    1.1578834    31.015963       31.016       31.016    29837.116 
 5741000    300.57412    -2732.335    -22955.37   -24843.146    1887.7758    1.1578834    31.015963       31.016       31.016    29837.116 
 5742000    301.86857   -3460.5756   -22910.535   -24806.441    1895.9057    1.1578834    31.015963       31.016       31.016    29837.116 
 5743000    303.02092   -2185.0822   -22902.198   -24805.341    1903.1431    1.1578834    31.015963       31.016       31.016    29837.116 
 5744000    301.97907   -2979.9901   -22929.825   -24826.424    1896.5997    1.1578834    31.015963       31.016       31.016    29837.116 
 5745000    286.62015   -2835.8247   -23038.213    -24838.35     1800.137    1.1578834    31.015963       31.016       31.016    29837.116 
 5746000    305.55226   -2862.7788   -22976.214   -24895.256    1919.0414    1.1578834    31.015963       31.016       31.016    29837.116 
 5747000    303.63163   -2948.0866   -23025.282   -24932.261    1906.9787    1.1578834    31.015963       31.016       31.016    29837.116 
 5748000    297.24045   -2177.8681   -22982.227   -24849.065    1866.8385    1.1578834    31.015963       31.016       31.016    29837.116 
 5749000     297.1619   -2179.4234   -22980.322   -24846.667    1866.3452    1.1578834    31.015963       31.016       31.016    29837.116 
 5750000    306.37623   -2323.3698   -22999.881   -24924.097    1924.2164    1.1578834    31.015963       31.016       31.016    29837.116 
 5751000    287.71409   -2200.5365   -23114.832    -24921.84    1807.0075    1.1578834    31.015963       31.016       31.016    29837.116 
 5752000    293.98636   -2215.6525   -22962.573   -24808.974     1846.401    1.1578834    31.015963       31.016       31.016    29837.116 
 5753000     295.7399   -2082.5488   -23072.093   -24929.508    1857.4142    1.1578834    31.015963       31.016       31.016    29837.116 
 5754000    296.72845   -2359.0012    -22957.81   -24821.433    1863.6228    1.1578834    31.015963       31.016       31.016    29837.116 
 5755000    300.23913   -3101.9122   -22935.507   -24821.179    1885.6719    1.1578834    31.015963       31.016       31.016    29837.116 
 5756000    298.59476   -3623.5103    -23064.34   -24939.684    1875.3444    1.1578834    31.015963       31.016       31.016    29837.116 
 5757000    298.05905   -3168.2608   -22988.983   -24860.963    1871.9798    1.1578834    31.015963       31.016       31.016    29837.116 
 5758000    297.53777   -1532.9006   -22948.194     -24816.9    1868.7058    1.1578834    31.015963       31.016       31.016    29837.116 
 5759000    295.65831   -2516.3209   -22995.976   -24852.878    1856.9018    1.1578834    31.015963       31.016       31.016    29837.116 
 5760000    295.70311   -2574.4447   -22994.698   -24851.881    1857.1831    1.1578834    31.015963       31.016       31.016    29837.116 
 5761000    297.07681   -2129.0429   -23074.686   -24940.497    1865.8107    1.1578834    31.015963       31.016       31.016    29837.116 
 5762000    300.04418   -2780.7284   -22961.713    -24846.16    1884.4475    1.1578834    31.015963       31.016       31.016    29837.116 
 5763000    300.22596    -2972.926   -22949.649   -24835.238    1885.5892    1.1578834    31.015963       31.016       31.016    29837.116 
 5764000    299.42622   -2731.4981   -22937.756   -24818.323    1880.5663    1.1578834    31.015963       31.016       31.016    29837.116 
 5765000    298.47656   -2980.0309   -23054.927   -24929.529     1874.602    1.1578834    31.015963       31.016       31.016    29837.116 
 5766000    302.28479   -2658.1491    -22933.81    -24832.33    1898.5198    1.1578834    31.015963       31.016       31.016    29837.116 
 5767000    301.24916   -3114.6118   -22956.912   -24848.927    1892.0154    1.1578834    31.015963       31.016       31.016    29837.116 
 5768000    299.29794   -3265.5887   -22944.985   -24824.746    1879.7607    1.1578834    31.015963       31.016       31.016    29837.116 
 5769000     300.5966   -2227.3255   -22969.867   -24857.784     1887.917    1.1578834    31.015963       31.016       31.016    29837.116 
 5770000    293.64844   -2968.8376   -23020.958   -24865.236    1844.2787    1.1578834    31.015963       31.016       31.016    29837.116 
 5771000    296.40214   -2904.5152   -22930.325   -24791.899    1861.5734    1.1578834    31.015963       31.016       31.016    29837.116 
 5772000    303.80381   -2911.0156   -22971.279   -24879.339    1908.0601    1.1578834    31.015963       31.016       31.016    29837.116 
 5773000    293.78251   -2609.0442   -22983.506   -24828.627    1845.1206    1.1578834    31.015963       31.016       31.016    29837.116 
 5774000    300.25723   -3064.9956   -23083.954   -24969.739    1885.7856    1.1578834    31.015963       31.016       31.016    29837.116 
 5775000    300.78825   -2488.4248   -22973.802   -24862.922    1889.1207    1.1578834    31.015963       31.016       31.016    29837.116 
 5776000     294.7792   -3164.8262   -22999.626   -24851.007    1851.3804    1.1578834    31.015963       31.016       31.016    29837.116 
 5777000    295.17937    -3124.056   -22932.427    -24786.32    1853.8937    1.1578834    31.015963       31.016       31.016    29837.116 
 5778000       295.21   -1876.5192   -23054.402   -24908.489    1854.0861    1.1578834    31.015963       31.016       31.016    29837.116 
 5779000     295.2128   -2694.2936   -22972.928   -24827.031    1854.1037    1.1578834    31.015963       31.016       31.016    29837.116 
 5780000    293.97667   -2467.7538    -22959.66       -24806    1846.3401    1.1578834    31.015963       31.016       31.016    29837.116 
 5781000    298.40449   -1545.2749   -22979.216   -24853.366    1874.1493    1.1578834    31.015963       31.016       31.016    29837.116 
 5782000    299.55909   -2522.5199   -22970.645   -24852.046    1881.4008    1.1578834    31.015963       31.016       31.016    29837.116 
 5783000    300.31869   -2786.0804   -23034.434   -24920.606    1886.1716    1.1578834    31.015963       31.016       31.016    29837.116 
 5784000    294.65215   -2896.8955   -23133.226   -24983.809    1850.5825    1.1578834    31.015963       31.016       31.016    29837.116 
 5785000    289.26006   -2785.9337   -23030.762   -24847.479    1816.7172    1.1578834    31.015963       31.016       31.016    29837.116 
 5786000    297.80428   -3369.3862   -22958.621   -24829.001    1870.3797    1.1578834    31.015963       31.016       31.016    29837.116 
 5787000    293.87677    -2887.433   -22988.215   -24833.927    1845.7127    1.1578834    31.015963       31.016       31.016    29837.116 
 5788000    305.56146   -2123.7867   -22865.433   -24784.532    1919.0991    1.1578834    31.015963       31.016       31.016    29837.116 
 5789000    290.73772   -2168.8582   -23053.966   -24879.963    1825.9977    1.1578834    31.015963       31.016       31.016    29837.116 
 5790000    292.98709   -3256.5473    -23021.32   -24861.445     1840.125    1.1578834    31.015963       31.016       31.016    29837.116 
 5791000     300.2005   -2096.7051   -23074.555   -24959.985    1885.4293    1.1578834    31.015963       31.016       31.016    29837.116 
 5792000     286.6906   -1792.1802   -23072.967   -24873.547    1800.5795    1.1578834    31.015963       31.016       31.016    29837.116 
 5793000    304.41135   -2107.1138   -22932.705   -24844.581    1911.8758    1.1578834    31.015963       31.016       31.016    29837.116 
 5794000    300.12296   -2735.2187   -23052.712   -24937.655    1884.9423    1.1578834    31.015963       31.016       31.016    29837.116 
 5795000    307.49205   -2861.7702   -22900.161   -24831.385    1931.2244    1.1578834    31.015963       31.016       31.016    29837.116 
 5796000    306.38723   -3692.8487   -22944.554   -24868.839    1924.2855    1.1578834    31.015963       31.016       31.016    29837.116 
 5797000    291.80609   -2649.4384   -23055.027   -24887.735    1832.7076    1.1578834    31.015963       31.016       31.016    29837.116 
 5798000    301.45842   -2699.8008   -23015.382   -24908.711    1893.3297    1.1578834    31.015963       31.016       31.016    29837.116 
 5799000    304.20405   -2115.5089   -23001.513   -24912.087    1910.5738    1.1578834    31.015963       31.016       31.016    29837.116 
 5800000    296.89134   -2926.7102   -22991.867   -24856.513    1864.6459    1.1578834    31.015963       31.016       31.016    29837.116 
 5801000    293.85728    -2817.541   -22978.661   -24824.252    1845.5903    1.1578834    31.015963       31.016       31.016    29837.116 
 5802000    302.22534   -3193.5726   -22976.245   -24874.391    1898.1464    1.1578834    31.015963       31.016       31.016    29837.116 
 5803000    287.17136   -3096.2997   -23109.664   -24913.263    1803.5989    1.1578834    31.015963       31.016       31.016    29837.116 
 5804000    297.34715   -2097.9471   -23119.204   -24986.713    1867.5086    1.1578834    31.015963       31.016       31.016    29837.116 
 5805000    301.44217   -2787.1776   -23006.822   -24900.049    1893.2277    1.1578834    31.015963       31.016       31.016    29837.116 
 5806000    303.03291   -2793.5984   -22910.309   -24813.528    1903.2184    1.1578834    31.015963       31.016       31.016    29837.116 
 5807000    299.23225   -1962.1319   -23054.451     -24933.8    1879.3481    1.1578834    31.015963       31.016       31.016    29837.116 
 5808000    300.98452   -3065.9373   -23059.774   -24950.128    1890.3533    1.1578834    31.015963       31.016       31.016    29837.116 
 5809000    299.20792   -2879.1314   -23052.223   -24931.418    1879.1953    1.1578834    31.015963       31.016       31.016    29837.116 
 5810000    290.93032   -3511.7053   -23051.759   -24878.966    1827.2073    1.1578834    31.015963       31.016       31.016    29837.116 
 5811000    297.07545   -3897.8508   -22970.878    -24836.68    1865.8022    1.1578834    31.015963       31.016       31.016    29837.116 
 5812000    300.41885   -4201.8517   -22975.188   -24861.989    1886.8007    1.1578834    31.015963       31.016       31.016    29837.116 
 5813000    296.32335   -2740.7326   -23024.386   -24885.465    1861.0786    1.1578834    31.015963       31.016       31.016    29837.116 
 5814000    302.66148   -2937.8084   -22978.865    -24879.75    1900.8856    1.1578834    31.015963       31.016       31.016    29837.116 
 5815000    296.59098   -3207.6825   -22992.539   -24855.299    1862.7594    1.1578834    31.015963       31.016       31.016    29837.116 
 5816000    298.54669   -2442.7395   -22912.272   -24787.314    1875.0424    1.1578834    31.015963       31.016       31.016    29837.116 
 5817000    303.12069   -2901.6148   -22952.243   -24856.013    1903.7698    1.1578834    31.015963       31.016       31.016    29837.116 
 5818000    306.04734   -3528.3036   -22974.505   -24896.656    1922.1507    1.1578834    31.015963       31.016       31.016    29837.116 
 5819000     293.2439   -3133.1354   -23033.211   -24874.949    1841.7379    1.1578834    31.015963       31.016       31.016    29837.116 
 5820000     300.3588   -2141.3108    -22937.02   -24823.443    1886.4235    1.1578834    31.015963       31.016       31.016    29837.116 
 5821000    300.53112   -3083.5966   -23007.797   -24895.303    1887.5058    1.1578834    31.015963       31.016       31.016    29837.116 
 5822000    299.58148   -2636.2266   -23009.248   -24890.789    1881.5415    1.1578834    31.015963       31.016       31.016    29837.116 
 5823000    295.75326   -2946.5687   -22992.964   -24850.463    1857.4981    1.1578834    31.015963       31.016       31.016    29837.116 
 5824000    303.92478   -3580.1742    -22988.45    -24897.27    1908.8199    1.1578834    31.015963       31.016       31.016    29837.116 
 5825000    298.51071    -2859.674   -22953.238   -24828.055    1874.8164    1.1578834    31.015963       31.016       31.016    29837.116 
 5826000    290.46153   -3079.5955    -22988.02   -24812.283    1824.2631    1.1578834    31.015963       31.016       31.016    29837.116 
 5827000    298.46302   -2961.9321   -22969.096   -24843.613    1874.5169    1.1578834    31.015963       31.016       31.016    29837.116 
 5828000    298.43388   -3286.2182   -23047.119   -24921.453    1874.3339    1.1578834    31.015963       31.016       31.016    29837.116 
 5829000    294.69467   -3717.9574   -23059.925   -24910.775    1850.8495    1.1578834    31.015963       31.016       31.016    29837.116 
 5830000    298.02704   -3974.6634   -22980.993   -24852.772    1871.7787    1.1578834    31.015963       31.016       31.016    29837.116 
 5831000    299.31361   -3634.8369    -22903.08   -24782.939    1879.8591    1.1578834    31.015963       31.016       31.016    29837.116 
 5832000     305.9164   -1889.3774   -22938.822   -24860.151    1921.3284    1.1578834    31.015963       31.016       31.016    29837.116 
 5833000    293.52716   -3081.3122   -22990.116   -24833.633    1843.5169    1.1578834    31.015963       31.016       31.016    29837.116 
 5834000    288.37292   -2349.0475     -22965.8   -24776.945    1811.1454    1.1578834    31.015963       31.016       31.016    29837.116 
 5835000    295.66429   -2261.6741   -22915.396   -24772.335    1856.9393    1.1578834    31.015963       31.016       31.016    29837.116 
 5836000    298.92608   -2521.0633    -22969.45   -24846.875    1877.4252    1.1578834    31.015963       31.016       31.016    29837.116 
 5837000    296.83877   -2793.2276   -22947.452   -24811.768    1864.3157    1.1578834    31.015963       31.016       31.016    29837.116 
 5838000    296.47984   -2697.3479   -23020.344   -24882.405    1862.0614    1.1578834    31.015963       31.016       31.016    29837.116 
 5839000    305.65232   -3499.3349   -22998.504   -24918.174    1919.6698    1.1578834    31.015963       31.016       31.016    29837.116 
 5840000    300.54157   -2965.8635   -22931.923   -24819.494    1887.5714    1.1578834    31.015963       31.016       31.016    29837.116 
 5841000    301.26245   -2279.8983    -22998.53   -24890.629    1892.0989    1.1578834    31.015963       31.016       31.016    29837.116 
 5842000    288.38849   -2529.1567   -23102.431   -24913.674    1811.2432    1.1578834    31.015963       31.016       31.016    29837.116 
 5843000    291.98309   -2630.4977   -22978.768   -24812.587    1833.8193    1.1578834    31.015963       31.016       31.016    29837.116 
 5844000    302.78624   -2619.6626   -23079.867   -24981.537    1901.6692    1.1578834    31.015963       31.016       31.016    29837.116 
 5845000    292.77056   -2234.3632   -22985.394   -24824.159    1838.7651    1.1578834    31.015963       31.016       31.016    29837.116 
 5846000    308.05103   -2569.6355   -22923.485    -24858.22    1934.7351    1.1578834    31.015963       31.016       31.016    29837.116 
 5847000    296.78793   -1953.3512    -23002.34   -24866.337    1863.9964    1.1578834    31.015963       31.016       31.016    29837.116 
 5848000    301.59332   -1951.2834   -22919.687   -24813.864     1894.177    1.1578834    31.015963       31.016       31.016    29837.116 
 5849000    290.91801   -2690.5873   -23098.251   -24925.381      1827.13    1.1578834    31.015963       31.016       31.016    29837.116 
 5850000    293.76306   -3054.1965   -22985.489   -24830.487    1844.9985    1.1578834    31.015963       31.016       31.016    29837.116 
 5851000    298.59524   -2019.8326   -22975.741   -24851.089    1875.3474    1.1578834    31.015963       31.016       31.016    29837.116 
 5852000    297.32347   -3417.7915   -22978.379   -24845.739    1867.3599    1.1578834    31.015963       31.016       31.016    29837.116 
 5853000    294.26559   -3306.0741   -23046.068   -24894.223    1848.1547    1.1578834    31.015963       31.016       31.016    29837.116 
 5854000    297.03648   -1138.9162    -22994.25   -24859.807    1865.5574    1.1578834    31.015963       31.016       31.016    29837.116 
 5855000    297.67549   -2689.1988   -22907.659   -24777.229    1869.5708    1.1578834    31.015963       31.016       31.016    29837.116 
 5856000     300.4756   -2714.3113   -22991.663    -24878.82    1887.1571    1.1578834    31.015963       31.016       31.016    29837.116 
 5857000    289.11708   -2689.7584   -23022.559   -24838.378    1815.8192    1.1578834    31.015963       31.016       31.016    29837.116 
 5858000    299.87628   -2736.5393   -22932.787    -24816.18     1883.393    1.1578834    31.015963       31.016       31.016    29837.116 
 5859000    292.67426   -3020.9224   -23014.072   -24852.232    1838.1603    1.1578834    31.015963       31.016       31.016    29837.116 
 5860000    312.18659   -2563.7538   -22934.014   -24894.723    1960.7087    1.1578834    31.015963       31.016       31.016    29837.116 
 5861000     296.5824   -3327.8488   -23028.978   -24891.684    1862.7056    1.1578834    31.015963       31.016       31.016    29837.116 
 5862000    310.05093   -2329.6193   -22914.762   -24862.057    1947.2956    1.1578834    31.015963       31.016       31.016    29837.116 
 5863000    307.50423   -2558.8851   -23006.958   -24938.259    1931.3008    1.1578834    31.015963       31.016       31.016    29837.116 
 5864000    300.84989   -2448.8389   -23027.383   -24916.891    1889.5078    1.1578834    31.015963       31.016       31.016    29837.116 
 5865000    299.06908   -2266.3108   -22914.067    -24792.39    1878.3233    1.1578834    31.015963       31.016       31.016    29837.116 
 5866000    293.83285   -3103.8916   -22997.732   -24843.169    1845.4368    1.1578834    31.015963       31.016       31.016    29837.116 
 5867000     305.7097   -2483.7812   -22913.313   -24833.343    1920.0302    1.1578834    31.015963       31.016       31.016    29837.116 
 5868000    304.41109   -2295.8168   -22997.175   -24909.049    1911.8742    1.1578834    31.015963       31.016       31.016    29837.116 
 5869000    303.53974   -2489.6592   -22892.838   -24799.239    1906.4016    1.1578834    31.015963       31.016       31.016    29837.116 
 5870000    301.96881   -2095.5596    -22918.26   -24814.796    1896.5352    1.1578834    31.015963       31.016       31.016    29837.116 
 5871000    298.27067   -2191.6513   -22938.522   -24811.831    1873.3089    1.1578834    31.015963       31.016       31.016    29837.116 
 5872000    297.45456   -1475.6588   -23047.359   -24915.542    1868.1833    1.1578834    31.015963       31.016       31.016    29837.116 
 5873000    302.71095   -2585.7764   -22977.906   -24879.103    1901.1963    1.1578834    31.015963       31.016       31.016    29837.116 
 5874000    298.84129   -2392.1321   -23046.797    -24923.69    1876.8927    1.1578834    31.015963       31.016       31.016    29837.116 
 5875000    296.89194   -1948.4856    -23103.81    -24968.46    1864.6497    1.1578834    31.015963       31.016       31.016    29837.116 
 5876000    304.51707   -3486.7662   -23023.376   -24935.916    1912.5398    1.1578834    31.015963       31.016       31.016    29837.116 
 5877000     295.4382   -3147.1256   -23025.502   -24881.022    1855.5193    1.1578834    31.015963       31.016       31.016    29837.116 
 5878000    294.40471   -3217.3959   -22984.618   -24833.646    1849.0285    1.1578834    31.015963       31.016       31.016    29837.116 
 5879000    297.86583   -2398.9959    -22962.87   -24833.636    1870.7662    1.1578834    31.015963       31.016       31.016    29837.116 
 5880000    296.00141   -3238.6366   -22945.059   -24804.116    1859.0566    1.1578834    31.015963       31.016       31.016    29837.116 
 5881000    296.57421   -3061.5507   -23004.422   -24867.076    1862.6541    1.1578834    31.015963       31.016       31.016    29837.116 
 5882000    293.57324    -2551.103   -22994.693   -24838.499    1843.8063    1.1578834    31.015963       31.016       31.016    29837.116 
 5883000    296.13375   -2681.8053   -22949.188   -24809.075    1859.8878    1.1578834    31.015963       31.016       31.016    29837.116 
 5884000    293.90855   -2467.0613   -23016.884   -24862.796    1845.9123    1.1578834    31.015963       31.016       31.016    29837.116 
 5885000    292.29362   -2874.4779   -23002.841   -24838.611    1835.7696    1.1578834    31.015963       31.016       31.016    29837.116 
 5886000    292.46848   -2601.5295   -23106.693   -24943.561    1836.8678    1.1578834    31.015963       31.016       31.016    29837.116 
 5887000    291.52602   -3302.8668   -23036.924   -24867.873    1830.9486    1.1578834    31.015963       31.016       31.016    29837.116 
 5888000    295.72848    -2952.095   -22992.449   -24849.791    1857.3424    1.1578834    31.015963       31.016       31.016    29837.116 
 5889000    302.55256   -3120.6408   -22944.615   -24844.817    1900.2015    1.1578834    31.015963       31.016       31.016    29837.116 
 5890000    297.26993   -2458.6798   -23029.704   -24896.727    1867.0236    1.1578834    31.015963       31.016       31.016    29837.116 
 5891000    298.70501    -3451.256   -22989.961   -24865.998    1876.0368    1.1578834    31.015963       31.016       31.016    29837.116 
 5892000    293.54447   -3580.1273   -23050.957   -24894.583    1843.6257    1.1578834    31.015963       31.016       31.016    29837.116 
 5893000    300.40427   -2984.3407   -23060.724   -24947.433    1886.7091    1.1578834    31.015963       31.016       31.016    29837.116 
 5894000    291.80056   -3953.6031    -23011.83   -24844.502    1832.6729    1.1578834    31.015963       31.016       31.016    29837.116 
 5895000    293.30279   -2909.3211   -23033.155   -24875.263    1842.1078    1.1578834    31.015963       31.016       31.016    29837.116 
 5896000    300.80731   -1805.6226   -22874.633   -24763.874    1889.2404    1.1578834    31.015963       31.016       31.016    29837.116 
 5897000    299.39673   -2818.1454   -23080.235   -24960.616    1880.3812    1.1578834    31.015963       31.016       31.016    29837.116 
 5898000    305.14025   -3339.1043   -22926.715   -24843.169    1916.4537    1.1578834    31.015963       31.016       31.016    29837.116 
 5899000    304.46818   -2319.9926   -22868.412   -24780.645    1912.2327    1.1578834    31.015963       31.016       31.016    29837.116 
 5900000      295.418   -2415.0784   -23062.963   -24918.356    1855.3925    1.1578834    31.015963       31.016       31.016    29837.116 
 5901000    302.33672   -2345.4894   -23006.965   -24905.811     1898.846    1.1578834    31.015963       31.016       31.016    29837.116 
 5902000    294.27914   -2470.8577   -23077.798   -24926.038    1848.2398    1.1578834    31.015963       31.016       31.016    29837.116 
 5903000    292.51657   -2235.9877   -23116.764   -24953.934    1837.1698    1.1578834    31.015963       31.016       31.016    29837.116 
 5904000    304.88507   -2713.4091   -22931.912   -24846.763    1914.8511    1.1578834    31.015963       31.016       31.016    29837.116 
 5905000    297.19875   -3144.8056   -22880.682   -24747.259    1866.5766    1.1578834    31.015963       31.016       31.016    29837.116 
 5906000    299.66026   -2958.1423   -22998.861   -24880.898    1882.0363    1.1578834    31.015963       31.016       31.016    29837.116 
 5907000    303.96243   -2416.3648   -23074.996   -24984.053    1909.0563    1.1578834    31.015963       31.016       31.016    29837.116 
 5908000    309.41486   -3319.9829   -22960.799     -24904.1    1943.3007    1.1578834    31.015963       31.016       31.016    29837.116 
 5909000    296.42093   -1933.6677   -23042.513   -24904.204    1861.6915    1.1578834    31.015963       31.016       31.016    29837.116 
 5910000    289.46983   -3180.1893   -23097.048   -24915.082    1818.0346    1.1578834    31.015963       31.016       31.016    29837.116 
 5911000    298.61391   -3037.7301   -23097.056    -24972.52    1875.4646    1.1578834    31.015963       31.016       31.016    29837.116 
 5912000    298.52137   -3421.9272   -22908.698   -24783.581    1874.8834    1.1578834    31.015963       31.016       31.016    29837.116 
 5913000     288.6971   -2855.2528   -23026.596   -24839.778    1813.1814    1.1578834    31.015963       31.016       31.016    29837.116 
 5914000    305.50642   -2853.6164   -22948.746   -24867.499    1918.7534    1.1578834    31.015963       31.016       31.016    29837.116 
 5915000    304.44843    -2693.334   -22996.509   -24908.617    1912.1087    1.1578834    31.015963       31.016       31.016    29837.116 
 5916000     290.1742     -3646.66   -23140.923   -24963.382    1822.4585    1.1578834    31.015963       31.016       31.016    29837.116 
 5917000    299.23601   -3255.0662   -23028.564   -24907.936    1879.3717    1.1578834    31.015963       31.016       31.016    29837.116 
 5918000     304.2777   -3305.8553   -22849.414    -24760.45    1911.0364    1.1578834    31.015963       31.016       31.016    29837.116 
 5919000    297.21766   -3248.9857    -22984.12   -24850.815    1866.6954    1.1578834    31.015963       31.016       31.016    29837.116 
 5920000    294.69106   -2353.9124    -23017.06   -24867.887    1850.8269    1.1578834    31.015963       31.016       31.016    29837.116 
 5921000    286.35466   -2944.1031   -23099.425   -24897.894    1798.4696    1.1578834    31.015963       31.016       31.016    29837.116 
 5922000    293.86568     -3534.26   -23010.506   -24856.149     1845.643    1.1578834    31.015963       31.016       31.016    29837.116 
 5923000    303.11659    -2194.917   -22887.478   -24791.222     1903.744    1.1578834    31.015963       31.016       31.016    29837.116 
 5924000    297.62191   -1803.9172    -23020.26   -24889.494    1869.2343    1.1578834    31.015963       31.016       31.016    29837.116 
 5925000    304.82628   -2436.6222   -22997.812   -24912.294    1914.4818    1.1578834    31.015963       31.016       31.016    29837.116 
 5926000    286.57233   -2653.3814   -23183.318   -24983.154    1799.8367    1.1578834    31.015963       31.016       31.016    29837.116 
 5927000    299.69709   -2860.0788   -23028.219   -24910.487    1882.2676    1.1578834    31.015963       31.016       31.016    29837.116 
 5928000    293.83685   -2842.9273   -23010.739   -24856.201    1845.4619    1.1578834    31.015963       31.016       31.016    29837.116 
 5929000    308.50653   -2615.8411   -22940.235   -24877.831    1937.5959    1.1578834    31.015963       31.016       31.016    29837.116 
 5930000    302.72582   -2233.5862   -22961.339   -24862.629    1901.2897    1.1578834    31.015963       31.016       31.016    29837.116 
 5931000    300.48524   -2872.0269    -23000.64   -24887.858    1887.2176    1.1578834    31.015963       31.016       31.016    29837.116 
 5932000    298.19162   -2980.0221   -23082.134   -24954.946    1872.8124    1.1578834    31.015963       31.016       31.016    29837.116 
 5933000    299.56172   -2849.3237   -23061.853    -24943.27    1881.4174    1.1578834    31.015963       31.016       31.016    29837.116 
 5934000     296.9788   -2635.4905   -23037.535    -24902.73    1865.1952    1.1578834    31.015963       31.016       31.016    29837.116 
 5935000    295.37142   -1929.3632   -23127.845   -24982.945    1855.0999    1.1578834    31.015963       31.016       31.016    29837.116 
 5936000    306.25895   -3014.4766   -23023.977   -24947.457    1923.4798    1.1578834    31.015963       31.016       31.016    29837.116 
 5937000    298.77894   -2765.0836   -23068.887   -24945.388    1876.5011    1.1578834    31.015963       31.016       31.016    29837.116 
 5938000    293.00027   -2699.7891   -23070.985   -24911.193    1840.2077    1.1578834    31.015963       31.016       31.016    29837.116 
 5939000    294.12296   -2690.4186   -23033.113   -24880.372    1847.2589    1.1578834    31.015963       31.016       31.016    29837.116 
 5940000    301.90835   -2830.5793   -23016.574   -24912.729    1896.1555    1.1578834    31.015963       31.016       31.016    29837.116 
 5941000    297.08716   -2069.0033   -23109.256   -24975.132    1865.8758    1.1578834    31.015963       31.016       31.016    29837.116 
 5942000    300.08551   -2654.3461    -23085.53   -24970.237    1884.7071    1.1578834    31.015963       31.016       31.016    29837.116 
 5943000    296.22711     -2253.06   -23049.567   -24910.041    1860.4742    1.1578834    31.015963       31.016       31.016    29837.116 
 5944000    297.47608   -2904.3707   -23009.117   -24877.436    1868.3184    1.1578834    31.015963       31.016       31.016    29837.116 
 5945000    298.25953    -2893.604    -22977.97   -24851.208    1873.2389    1.1578834    31.015963       31.016       31.016    29837.116 
 5946000    292.47827   -2525.9733   -23020.793   -24857.722    1836.9293    1.1578834    31.015963       31.016       31.016    29837.116 
 5947000     300.9721   -2296.0316   -22962.025   -24852.301    1890.2754    1.1578834    31.015963       31.016       31.016    29837.116 
 5948000    299.39656   -2850.5504   -22985.846   -24866.226    1880.3801    1.1578834    31.015963       31.016       31.016    29837.116 
 5949000     298.4152   -2958.6231   -22979.415   -24853.631    1874.2166    1.1578834    31.015963       31.016       31.016    29837.116 
 5950000    299.42746     -3195.24   -22953.018   -24833.593    1880.5742    1.1578834    31.015963       31.016       31.016    29837.116 
 5951000    295.15118   -2797.8656   -23011.149   -24864.866    1853.7167    1.1578834    31.015963       31.016       31.016    29837.116 
 5952000    297.81445    -2329.714   -22949.893   -24820.337    1870.4436    1.1578834    31.015963       31.016       31.016    29837.116 
 5953000    307.39649    -2783.712   -22874.983   -24805.607    1930.6242    1.1578834    31.015963       31.016       31.016    29837.116 
 5954000    298.98335   -3119.9474    -22931.19   -24808.975    1877.7849    1.1578834    31.015963       31.016       31.016    29837.116 
 5955000    296.50179    -2980.479   -22974.708   -24836.908    1862.1993    1.1578834    31.015963       31.016       31.016    29837.116 
 5956000      293.724   -3546.5883   -22935.213   -24779.966    1844.7532    1.1578834    31.015963       31.016       31.016    29837.116 
 5957000    301.22163   -3325.8854   -22996.335   -24888.178    1891.8426    1.1578834    31.015963       31.016       31.016    29837.116 
 5958000    291.57657   -2314.9218   -22989.553   -24820.819    1831.2661    1.1578834    31.015963       31.016       31.016    29837.116 
 5959000    297.33473   -1783.7835   -22890.891   -24758.321    1867.4306    1.1578834    31.015963       31.016       31.016    29837.116 
 5960000    301.09284   -2207.6145   -23014.307   -24905.341    1891.0337    1.1578834    31.015963       31.016       31.016    29837.116 
 5961000    297.51507   -2342.2929   -23091.819   -24960.382    1868.5633    1.1578834    31.015963       31.016       31.016    29837.116 
 5962000    304.63515   -2578.2303   -22951.964   -24865.246    1913.2814    1.1578834    31.015963       31.016       31.016    29837.116 
 5963000    298.48315    -2403.335   -22941.616   -24816.259    1874.6433    1.1578834    31.015963       31.016       31.016    29837.116 
 5964000    303.69113   -2638.3246   -22845.243   -24752.596    1907.3524    1.1578834    31.015963       31.016       31.016    29837.116 
 5965000    297.62124   -2824.5369    -23007.55    -24876.78    1869.2301    1.1578834    31.015963       31.016       31.016    29837.116 
 5966000    300.62879   -3328.0114   -23056.098   -24944.217    1888.1192    1.1578834    31.015963       31.016       31.016    29837.116 
 5967000    283.92774   -2538.1852   -23125.793   -24909.021    1783.2271    1.1578834    31.015963       31.016       31.016    29837.116 
 5968000    298.70973   -2458.5749   -22911.185   -24787.251    1876.0664    1.1578834    31.015963       31.016       31.016    29837.116 
 5969000    286.78235   -2970.1002   -23018.627   -24819.783    1801.1557    1.1578834    31.015963       31.016       31.016    29837.116 
 5970000    296.56125    -2932.914   -23013.794   -24876.366    1862.5727    1.1578834    31.015963       31.016       31.016    29837.116 
 5971000    299.04078   -2961.2742   -23012.308   -24890.454    1878.1456    1.1578834    31.015963       31.016       31.016    29837.116 
 5972000    293.08551   -2896.6258   -23127.402   -24968.145    1840.7431    1.1578834    31.015963       31.016       31.016    29837.116 
 5973000    304.83895   -3875.5659    -22947.06   -24861.621    1914.5614    1.1578834    31.015963       31.016       31.016    29837.116 
 5974000     300.4253   -2865.3905   -23015.881   -24902.722    1886.8412    1.1578834    31.015963       31.016       31.016    29837.116 
 5975000    304.07089   -2124.2321   -22916.278   -24826.016    1909.7375    1.1578834    31.015963       31.016       31.016    29837.116 
 5976000    301.98645   -3096.0067   -23020.135   -24916.781     1896.646    1.1578834    31.015963       31.016       31.016    29837.116 
 5977000    298.28002    -2913.673   -22996.491   -24869.859    1873.3676    1.1578834    31.015963       31.016       31.016    29837.116 
 5978000    299.94734   -2370.3871   -22899.608   -24783.448    1883.8393    1.1578834    31.015963       31.016       31.016    29837.116 
 5979000    292.96597   -2970.2084   -23008.844   -24848.837    1839.9924    1.1578834    31.015963       31.016       31.016    29837.116 
 5980000    292.50085   -3394.2342    -23045.38   -24882.451    1837.0711    1.1578834    31.015963       31.016       31.016    29837.116 
 5981000    290.73074   -3165.7418   -23085.082   -24911.035    1825.9539    1.1578834    31.015963       31.016       31.016    29837.116 
 5982000    289.28216   -3265.3802   -23108.449   -24925.305    1816.8559    1.1578834    31.015963       31.016       31.016    29837.116 
 5983000    303.84691   -2779.4257   -23015.449    -24923.78    1908.3308    1.1578834    31.015963       31.016       31.016    29837.116 
 5984000    305.19788     -3381.16   -22922.012   -24838.827    1916.8157    1.1578834    31.015963       31.016       31.016    29837.116 
 5985000    297.59355   -2623.0967   -23043.194    -24912.25    1869.0562    1.1578834    31.015963       31.016       31.016    29837.116 
 5986000    291.91254   -2941.5198   -22961.852   -24795.228    1833.3762    1.1578834    31.015963       31.016       31.016    29837.116 
 5987000    304.37167   -2961.6391   -23008.328   -24919.955    1911.6266    1.1578834    31.015963       31.016       31.016    29837.116 
 5988000    294.13754   -2906.9232   -22994.389    -24841.74    1847.3504    1.1578834    31.015963       31.016       31.016    29837.116 
 5989000    299.08823   -3530.4901   -22954.309   -24832.753    1878.4436    1.1578834    31.015963       31.016       31.016    29837.116 
 5990000    285.69829   -3861.9274   -23168.463    -24962.81    1794.3472    1.1578834    31.015963       31.016       31.016    29837.116 
 5991000    295.48029   -3646.6291   -23028.268   -24884.051    1855.7837    1.1578834    31.015963       31.016       31.016    29837.116 
 5992000    296.59977   -3167.8998   -23077.679   -24940.494    1862.8147    1.1578834    31.015963       31.016       31.016    29837.116 
 5993000    291.38324   -2718.8884   -23012.638    -24842.69    1830.0519    1.1578834    31.015963       31.016       31.016    29837.116 
 5994000    297.68416   -3651.3628   -23072.586   -24942.211    1869.6253    1.1578834    31.015963       31.016       31.016    29837.116 
 5995000    290.80712   -2885.6302    -23077.07   -24903.504    1826.4336    1.1578834    31.015963       31.016       31.016    29837.116 
 5996000    301.24544    -2357.963   -23026.327   -24918.319    1891.9921    1.1578834    31.015963       31.016       31.016    29837.116 
 5997000    296.55305   -2932.8657   -22980.893   -24843.414    1862.5212    1.1578834    31.015963       31.016       31.016    29837.116 
 5998000    302.48379    -2508.893   -22980.249   -24880.019    1899.7696    1.1578834    31.015963       31.016       31.016    29837.116 
 5999000     296.4668    -2576.536   -23029.845   -24891.825    1861.9795    1.1578834    31.015963       31.016       31.016    29837.116 
 6000000    289.56557   -3532.6144   -23079.412   -24898.048    1818.6359    1.1578834    31.015963       31.016       31.016    29837.116 
 6000562    301.98483   -2266.0773   -23031.608   -24928.244    1896.6359    1.1578834    31.015963       31.016       31.016    29837.116 
Loop time of 30985.7 on 16 procs for 6000000 steps with 3108 atoms

Performance: 16.730 ns/day, 1.435 hours/ns, 193.638 timesteps/s
1583.1% CPU use with 1 MPI tasks x 16 OpenMP threads

MPI task timing breakdown:
Section |  min time  |  avg time  |  max time  |%varavg| %total
---------------------------------------------------------------
Pair    | 8264.3     | 8264.3     | 8264.3     |   0.0 | 26.67
Bond    | 98.054     | 98.054     | 98.054     |   0.0 |  0.32
Kspace  | 14828      | 14828      | 14828      |   0.0 | 47.85
Neigh   | 823.71     | 823.71     | 823.71     |   0.0 |  2.66
Comm    | 1799       | 1799       | 1799       |   0.0 |  5.81
Output  | 55.049     | 55.049     | 55.049     |   0.0 |  0.18
Modify  | 4988.5     | 4988.5     | 4988.5     |   0.0 | 16.10
Other   |            | 128.9      |            |       |  0.42

Nlocal:        3108.00 ave        3108 max        3108 min
Histogram: 1 0 0 0 0 0 0 0 0 0
Nghost:        14224.0 ave       14224 max       14224 min
Histogram: 1 0 0 0 0 0 0 0 0 0
Neighs:    1.17086e+06 ave 1.17086e+06 max 1.17086e+06 min
Histogram: 1 0 0 0 0 0 0 0 0 0

Total # of neighbors = 1170856
Ave neighs/atom = 376.72329
Ave special neighs/atom = 2.0463320
Neighbor list builds = 267695
Dangerous builds = 0

write_data equil.data
System init for write_data ...
PPPM initialization ...
  using 12-bit tables for long-range coulomb (src/kspace.cpp:340)
  G vector (1/distance) = 0.27348819
  grid = 18 18 18
  stencil order = 5
  estimated absolute RMS force accuracy = 0.022522574
  estimated relative force accuracy = 6.7826064e-05
  using double precision KISS FFT
  3d grid and FFT values/proc = 15625 5832
Last active /omp style is kspace_style pppm/omp

write_restart   equil.restart
System init for write_restart ...
PPPM initialization ...
  using 12-bit tables for long-range coulomb (src/kspace.cpp:340)
  G vector (1/distance) = 0.27348819
  grid = 18 18 18
  stencil order = 5
  estimated absolute RMS force accuracy = 0.022522574
  estimated relative force accuracy = 6.7826064e-05
  using double precision KISS FFT
  3d grid and FFT values/proc = 15625 5832
Last active /omp style is kspace_style pppm/omp


Total wall time: 8:36:32
