20
Coordinates from ORCA-job input
  Co  -0.37305261907973      1.86738753445947      0.15677095953352
  H   2.18775235356595      1.66580130127255      0.93323416521947
  H   -0.65692320265859      1.96470769443716      2.78874260068559
  O   -0.64047862443348      1.12493162774690     -1.89653909711961
  O   -2.36092940845159      1.29271186449889     -0.49002116307580
  H   0.36621157931825     -0.67367375618847      0.74130190847885
  H   -1.11092349863294     -0.53696882936003      1.18207536843965
  O   -0.29467445125759     -0.03220868962421      1.04463520824988
  H   -0.30499951580750      3.41749105042733      2.36939087569536
  O   -0.70593932648790      2.59360062295015      2.05233913644667
  H   2.20232291975787      2.34449866510166     -0.46654126742369
  O   1.66670112278064      1.79562478246013      0.12609220715166
  H   -0.63776094449491      3.83120875525513     -1.63105534156252
  O   -0.49959302103843      3.75328668848860     -0.67431505667452
  H   -1.04831664796386      4.44255299798238     -0.26835801409274
  H   -3.25612529446406      1.10859558667978     -0.17135237416759
  B   -1.97993007505656      0.83642613147627     -1.73639470182987
  O   -2.81791666559161      0.22007775478194     -2.57579093401452
  H   -2.44185401567194     -0.08650982876386     -3.41257430947077
  H   -0.15724317903200      0.82992108251813     -2.68070376746903
