20
Coordinates from ORCA-job input E -1939.992339916783
  Co     -0.373053      1.867388      0.156771
  H       2.187752      1.665801      0.933234
  H      -0.656923      1.964708      2.788743
  O      -0.640479      1.124932     -1.896539
  O      -2.360929      1.292712     -0.490021
  H       0.366212     -0.673674      0.741302
  H      -1.110923     -0.536969      1.182075
  O      -0.294674     -0.032209      1.044635
  H      -0.305000      3.417491      2.369391
  O      -0.705939      2.593601      2.052339
  H       2.202323      2.344499     -0.466541
  O       1.666701      1.795625      0.126092
  H      -0.637761      3.831209     -1.631055
  O      -0.499593      3.753287     -0.674315
  H      -1.048317      4.442553     -0.268358
  H      -3.256125      1.108596     -0.171352
  B      -1.979930      0.836426     -1.736395
  O      -2.817917      0.220078     -2.575791
  H      -2.441854     -0.086510     -3.412574
  H      -0.157243      0.829921     -2.680704
20
Coordinates from ORCA-job input E -1939.992339826921
  Co     -0.373182      1.867330      0.156794
  H       2.187470      1.667285      0.933661
  H      -0.657852      1.964630      2.788695
  O      -0.640541      1.124841     -1.896559
  O      -2.361020      1.292185     -0.489956
  H       0.366347     -0.673859      0.741596
  H      -1.110472     -0.537106      1.183168
  O      -0.294423     -0.032242      1.044849
  H      -0.304084      3.416998      2.369799
  O      -0.705884      2.593674      2.052355
  H       2.202196      2.343639     -0.467307
  O       1.666638      1.795587      0.126137
  H      -0.637076      3.831130     -1.631187
  O      -0.499538      3.753252     -0.674352
  H      -1.048530      4.442603     -0.268884
  H      -3.256245      1.108009     -0.171380
  B      -1.980049      0.836584     -1.736533
  O      -2.818123      0.220613     -2.576145
  H      -2.441830     -0.085805     -3.412890
  H      -0.157476      0.830116     -2.680925
20
Coordinates from ORCA-job input E -1939.992338526280
  Co     -0.373955      1.867013      0.156950
  H       2.185906      1.673037      0.935486
  H      -0.661376      1.964325      2.788577
  O      -0.641021      1.124440     -1.896628
  O      -2.361644      1.289948     -0.489696
  H       0.368049     -0.674124      0.744279
  H      -1.108145     -0.538457      1.187108
  O      -0.293328     -0.032395      1.045918
  H      -0.300110      3.414985      2.371503
  O      -0.705491      2.593993      2.052500
  H       2.201527      2.340269     -0.470129
  O       1.666206      1.795243      0.126288
  H      -0.633105      3.830688     -1.631855
  O      -0.499360      3.753038     -0.674450
  H      -1.050014      4.442674     -0.271703
  H      -3.257113      1.105950     -0.171712
  B      -1.980707      0.836996     -1.737031
  O      -2.819238      0.223016     -2.577842
  H      -2.441910     -0.082697     -3.414413
  H      -0.158844      0.831522     -2.682211
20
Coordinates from ORCA-job input E -1939.992337917660
  Co     -0.374343      1.866824      0.157044
  H       2.185182      1.674031      0.935984
  H      -0.661648      1.964321      2.788621
  O      -0.641265      1.124176     -1.896590
  O      -2.361962      1.289210     -0.489607
  H       0.369371     -0.673782      0.746161
  H      -1.107230     -0.539407      1.187812
  O      -0.293016     -0.032442      1.046392
  H      -0.299137      3.414668      2.371783
  O      -0.705210      2.594088      2.052590
  H       2.201251      2.339759     -0.470397
  O       1.665968      1.794992      0.126284
  H      -0.631275      3.830349     -1.632134
  O      -0.499420      3.752844     -0.674452
  H      -1.050931      4.442513     -0.272941
  H      -3.257610      1.105552     -0.171941
  B      -1.981015      0.836992     -1.737173
  O      -2.819752      0.224019     -2.578595
  H      -2.442164     -0.081483     -3.415133
  H      -0.159466      0.832241     -2.682770
20
Coordinates from ORCA-job input E -1939.992335944693
  Co     -0.375381      1.866216      0.157326
  H       2.183312      1.674491      0.936885
  H      -0.660159      1.964539      2.788886
  O      -0.641817      1.123153     -1.896332
  O      -2.362725      1.287480     -0.489396
  H       0.373179     -0.672430      0.751563
  H      -1.105073     -0.542089      1.188735
  O      -0.292440     -0.032536      1.047657
  H      -0.297958      3.414849      2.371652
  O      -0.704294      2.594253      2.052840
  H       2.200579      2.339931     -0.469641
  O       1.665322      1.794223      0.126206
  H      -0.626836      3.829118     -1.632808
  O      -0.499835      3.752112     -0.674429
  H      -1.053600      4.441763     -0.276032
  H      -3.258907      1.104947     -0.172610
  B      -1.981807      0.836888     -1.737547
  O      -2.821106      0.226848     -2.580692
  H      -2.443182     -0.078252     -3.417235
  H      -0.160943      0.833959     -2.684092
20
Coordinates from ORCA-job input E -1939.992333517366
  Co     -0.376164      1.865598      0.157600
  H       2.181959      1.673453      0.937336
  H      -0.657116      1.964931      2.789248
  O      -0.642049      1.121932     -1.895938
  O      -2.363151      1.286160     -0.489241
  H       0.375963     -0.671227      0.755609
  H      -1.103654     -0.544038      1.189288
  O      -0.292154     -0.032582      1.048722
  H      -0.298188      3.415865      2.370776
  O      -0.703411      2.594306      2.053051
  H       2.200096      2.341179     -0.467987
  O       1.664847      1.793573      0.126137
  H      -0.624000      3.827741     -1.633286
  O      -0.500413      3.751272     -0.674419
  H      -1.055871      4.440824     -0.278244
  H      -3.259773      1.104595     -0.173159
  B      -1.982365      0.836839     -1.737925
  O      -2.822141      0.229455     -2.582535
  H      -2.444287     -0.075423     -3.419187
  H      -0.161800      0.835011     -2.684909
20
Coordinates from ORCA-job input E -1939.992330080228
  Co     -0.376835      1.864825      0.157954
  H       2.180884      1.671818      0.937659
  H      -0.652660      1.965559      2.789796
  O      -0.641967      1.120262     -1.895321
  O      -2.363296      1.284832     -0.489106
  H       0.377965     -0.670208      0.758687
  H      -1.102613     -0.545476      1.190180
  O      -0.291977     -0.032617      1.049889
  H      -0.299321      3.417564      2.369271
  O      -0.702413      2.594299      2.053298
  H       2.199647      2.343055     -0.465769
  O       1.664470      1.792969      0.126148
  H      -0.622179      3.825928     -1.633707
  O      -0.501212      3.750141     -0.674453
  H      -1.058193      4.439500     -0.280109
  H      -3.260336      1.104195     -0.173687
  B      -1.982768      0.836885     -1.738415
  O      -2.823084      0.232477     -2.584547
  H      -2.445616     -0.072221     -3.421425
  H      -0.162169      0.835675     -2.685406
20
Coordinates from ORCA-job input E -1939.992326436395
  Co     -0.377238      1.864051      0.158356
  H       2.180379      1.670874      0.937964
  H      -0.648491      1.966295      2.790464
  O      -0.641573      1.118547     -1.894615
  O      -2.363133      1.283738     -0.489027
  H       0.378571     -0.669792      0.759845
  H      -1.102133     -0.546025      1.191449
  O      -0.291851     -0.032675      1.050977
  H      -0.300600      3.419248      2.367754
  O      -0.701571      2.594279      2.053571
  H       2.199263      2.344506     -0.464106
  O       1.664286      1.792601      0.126319
  H      -0.621677      3.824111     -1.634009
  O      -0.501992      3.748976     -0.674544
  H      -1.060085      4.438059     -0.281298
  H      -3.260469      1.103767     -0.174074
  B      -1.982894      0.837002     -1.738890
  O      -2.823740      0.235247     -2.586269
  H      -2.446778     -0.069265     -3.423430
  H      -0.161946      0.835919     -2.685497
20
Coordinates from ORCA-job input E -1939.992323213459
  Co     -0.377384      1.863315      0.158813
  H       2.180444      1.671243      0.938365
  H      -0.645474      1.967095      2.791268
  O      -0.640936      1.116940     -1.893894
  O      -2.362733      1.282939     -0.489022
  H       0.377962     -0.669972      0.759236
  H      -1.102122     -0.545820      1.192882
  O      -0.291707     -0.032789      1.051984
  H      -0.301466      3.420546      2.366546
  O      -0.700965      2.594288      2.053894
  H       2.198893      2.344986     -0.463516
  O       1.664273      1.792498      0.126697
  H      -0.622213      3.822458     -1.634207
  O      -0.502655      3.747876     -0.674676
  H      -1.061540      4.436589     -0.281885
  H      -3.260253      1.103399     -0.174331
  B      -1.982742      0.837106     -1.739297
  O      -2.824142      0.237579     -2.587590
  H      -2.447682     -0.066729     -3.425042
  H      -0.161231      0.835917     -2.685289
20
Coordinates from ORCA-job input E -1939.992313872677
  Co     -0.377996      1.861344      0.160099
  H       2.180315      1.673707      0.939720
  H      -0.639410      1.969208      2.793424
  O      -0.639658      1.112886     -1.892084
  O      -2.362116      1.280545     -0.488880
  H       0.377535     -0.670258      0.759184
  H      -1.101408     -0.546174      1.196409
  O      -0.291006     -0.033249      1.054961
  H      -0.302188      3.423089      2.364177
  O      -0.699423      2.594503      2.054819
  H       2.197606      2.344990     -0.463218
  O       1.664045      1.792197      0.127691
  H      -0.621753      3.818392     -1.634905
  O      -0.504235      3.745097     -0.675020
  H      -1.066061      4.432664     -0.284400
  H      -3.260166      1.102295     -0.174977
  B      -1.982622      0.837329     -1.740250
  O      -2.825442      0.243929     -2.591309
  H      -2.449652     -0.059507     -3.429378
  H      -0.160037      0.836474     -2.685126
20
Coordinates from ORCA-job input E -1939.992310739230
  Co     -0.378176      1.860536      0.160710
  H       2.180586      1.676128      0.940396
  H      -0.638678      1.970170      2.794493
  O      -0.639192      1.111411     -1.891434
  O      -2.361947      1.279705     -0.488826
  H       0.377483     -0.670524      0.759167
  H      -1.101102     -0.546447      1.197302
  O      -0.290553     -0.033598      1.056312
  H      -0.301510      3.423485      2.363765
  O      -0.699047      2.594706      2.055275
  H       2.196914      2.343719     -0.464422
  O       1.663958      1.792259      0.128267
  H      -0.620879      3.817138     -1.635191
  O      -0.504716      3.744112     -0.675111
  H      -1.068266      4.430890     -0.285559
  H      -3.260171      1.101946     -0.175136
  B      -1.982521      0.837339     -1.740519
  O      -2.826032      0.246303     -2.592591
  H      -2.450230     -0.056650     -3.430841
  H      -0.159594      0.836835     -2.685121
20
Coordinates from ORCA-job input E -1939.992304756646
  Co     -0.378585      1.858940      0.161937
  H       2.181258      1.681343      0.941552
  H      -0.639359      1.972145      2.796640
  O      -0.638636      1.108745     -1.890401
  O      -2.361932      1.278028     -0.488618
  H       0.378897     -0.670662      0.761097
  H      -1.100062     -0.547878      1.197884
  O      -0.289432     -0.034475      1.059234
  H      -0.298980      3.423563      2.363470
  O      -0.698550      2.595289      2.056139
  H       2.195344      2.340478     -0.467652
  O       1.663672      1.792494      0.129367
  H      -0.616883      3.815366     -1.635766
  O      -0.505488      3.742461     -0.675104
  H      -1.073727      4.427101     -0.288582
  H      -3.260486      1.101307     -0.175303
  B      -1.982528      0.837310     -1.740925
  O      -2.827541      0.250998     -2.595017
  H      -2.451326     -0.050894     -3.433509
  H      -0.159330      0.837805     -2.685506
20
Coordinates from ORCA-job input E -1939.992301714043
  Co     -0.378835      1.858177      0.162430
  H       2.181497      1.682641      0.941723
  H      -0.639910      1.973065      2.797443
  O      -0.638636      1.107532     -1.890086
  O      -2.362071      1.277062     -0.488398
  H       0.380744     -0.670309      0.763769
  H      -1.099236     -0.549157      1.197722
  O      -0.288862     -0.034914      1.060714
  H      -0.297793      3.423633      2.363154
  O      -0.698335      2.595611      2.056374
  H       2.194619      2.339712     -0.468577
  O       1.663461      1.792573      0.129665
  H      -0.613439      3.814857     -1.636003
  O      -0.505846      3.741818     -0.674922
  H      -1.077130      4.425114     -0.290524
  H      -3.260798      1.100885     -0.175295
  B      -1.982762      0.837371     -1.741130
  O      -2.828520      0.253474     -2.596269
  H      -2.452106     -0.047939     -3.434865
  H      -0.159714      0.838258     -2.685987
20
Coordinates from ORCA-job input E -1939.992298676718
  Co     -0.378953      1.857367      0.162833
  H       2.182050      1.682555      0.941324
  H      -0.640808      1.974059      2.798015
  O      -0.638795      1.106364     -1.890009
  O      -2.362160      1.275990     -0.488044
  H       0.383437     -0.669785      0.767865
  H      -1.098252     -0.550779      1.197148
  O      -0.288240     -0.035433      1.062297
  H      -0.296952      3.423843      2.362452
  O      -0.698322      2.595968      2.056344
  H       2.193986      2.339913     -0.468890
  O       1.663284      1.792791      0.129776
  H      -0.608171      3.814880     -1.636067
  O      -0.506159      3.741362     -0.674423
  H      -1.081784      4.422596     -0.292882
  H      -3.261030      1.100323     -0.175094
  B      -1.983118      0.837539     -1.741343
  O      -2.829814      0.256206     -2.597431
  H      -2.453411     -0.044773     -3.436206
  H      -0.160460      0.838476     -2.686729
20
Coordinates from ORCA-job input E -1939.992295918139
  Co     -0.378838      1.856634      0.163100
  H       2.182842      1.681453      0.940612
  H      -0.641013      1.974916      2.798274
  O      -0.638866      1.105340     -1.890044
  O      -2.361960      1.275007     -0.487639
  H       0.385418     -0.669610      0.771242
  H      -1.097516     -0.551853      1.197138
  O      -0.287718     -0.035868      1.063586
  H      -0.297175      3.424422      2.361305
  O      -0.698490      2.596196      2.056085
  H       2.193659      2.340998     -0.468490
  O       1.663268      1.793117      0.129773
  H      -0.603137      3.815071     -1.635910
  O      -0.506408      3.741015     -0.673770
  H      -1.086402      4.420019     -0.294901
  H      -3.260924      1.099712     -0.174766
  B      -1.983384      0.837797     -1.741553
  O      -2.830978      0.258706     -2.598321
  H      -2.454965     -0.041927     -3.437399
  H      -0.161084      0.838320     -2.687386
20
Coordinates from ORCA-job input E -1939.992291031373
  Co     -0.378570      1.855418      0.163573
  H       2.184032      1.680234      0.939759
  H      -0.640081      1.976200      2.798679
  O      -0.638734      1.103565     -1.889876
  O      -2.361376      1.273393     -0.486968
  H       0.387210     -0.669910      0.774821
  H      -1.096539     -0.552821      1.198429
  O      -0.286902     -0.036457      1.065483
  H      -0.298344      3.425696      2.359252
  O      -0.698740      2.596416      2.055709
  H       2.193279      2.342637     -0.467802
  O       1.663362      1.793616      0.129855
  H      -0.596471      3.814797     -1.635619
  O      -0.506848      3.740207     -0.672836
  H      -1.093210      4.415890     -0.297855
  H      -3.260522      1.098753     -0.174271
  B      -1.983670      0.838236     -1.741884
  O      -2.832527      0.262765     -2.599839
  H      -2.457314     -0.037183     -3.439520
  H      -0.161708      0.838012     -2.688153
20
Coordinates from ORCA-job input E -1939.992290416685
  Co     -0.377976      1.855045      0.163619
  H       2.185094      1.679466      0.939145
  H      -0.640026      1.976487      2.798435
  O      -0.638558      1.103293     -1.890062
  O      -2.360669      1.273030     -0.486570
  H       0.386988     -0.670769      0.775060
  H      -1.096383     -0.552480      1.199440
  O      -0.286504     -0.036679      1.065766
  H      -0.300042      3.426257      2.358218
  O      -0.699521      2.596335      2.055229
  H       2.193600      2.343522     -0.467507
  O       1.663726      1.794146      0.129873
  H      -0.593391      3.815144     -1.635188
  O      -0.506684      3.740168     -0.672164
  H      -1.096307      4.413909     -0.298791
  H      -3.259828      1.098582     -0.173787
  B      -1.983575      0.838458     -1.741850
  O      -2.833089      0.263852     -2.599680
  H      -2.458713     -0.035782     -3.439835
  H      -0.161816      0.837479     -2.688417
20
Coordinates from ORCA-job input E -1939.992289962411
  Co     -0.377253      1.854612      0.163721
  H       2.186082      1.679799      0.938970
  H      -0.639641      1.976625      2.798184
  O      -0.638275      1.102974     -1.890125
  O      -2.359741      1.272685     -0.486020
  H       0.386209     -0.672044      0.774233
  H      -1.096039     -0.551836      1.201211
  O      -0.285898     -0.036871      1.065812
  H      -0.302471      3.426850      2.357254
  O      -0.700609      2.596094      2.054780
  H       2.194118      2.343732     -0.467661
  O       1.664248      1.794689      0.130032
  H      -0.590549      3.814968     -1.634791
  O      -0.506360      3.739976     -0.671529
  H      -1.099424      4.411705     -0.299941
  H      -3.259000      1.098765     -0.173223
  B      -1.983419      0.838687     -1.741689
  O      -2.833606      0.265095     -2.599458
  H      -2.460196     -0.034007     -3.440224
  H      -0.161849      0.836967     -2.688600
