20
Coordinates from ORCA-job input
  Ni  -0.65708343197271      1.54141606937534     -0.07449753220898
  H   -1.39680769024239     -0.96653428877720      0.36238977643248
  H   -1.54408090890461      4.02871402015575     -0.08358772203729
  O   -0.81710091906525      1.46511526743882     -2.22225051241955
  O   -2.61673680785121      1.44798675835066     -0.91157837590915
  H   1.68185283276307      2.17178316894022      0.88497215299444
  H   0.14993312347829     -0.89837394811254      0.43518595799192
  O   -0.62419101811271     -0.49892351604483      0.00851917973889
  H   -0.36836622710948      3.95175371501013     -1.08013114439463
  O   -0.69452923277156      3.58728838521634     -0.24228254013638
  H   1.95847412516048      1.59617109885325     -0.52248777764192
  O   1.35800854053240      1.52737136806787      0.23613754678052
  H   -1.70674627273592      2.35917062722465      2.21622102433843
  O   -1.04154798894604      1.71901792759412      1.91843693515227
  H   -1.22539757139182      0.90216921708628      2.40821139190568
  H   -3.55214728875801      1.38368630690223     -0.67400842494118
  H   -0.32759713783667      1.36471566721689     -3.05022745818050
  B   -2.19264070175545      1.37749050423647     -2.22536852422486
  O   -2.93079075046017      1.23613474327744     -3.33039579806550
  H   -3.88802123182020      1.18769467278803     -3.19701703037464
