20
Coordinates from ORCA-job input
  Ni  -0.67344386405688      1.48928941570253     -0.08250320545257
  H   -1.35838377372511     -1.02911184167684      0.38739637769012
  H   -1.64143641267122      3.96868002303798     -0.30841072736389
  O   -0.82836545584958      1.35639758903613     -2.21929611557245
  O   -2.63142551423776      1.30822835173907     -0.91761637780494
  H   1.65846986704209      2.15780186946848      0.88849659712057
  H   0.18070123278451     -0.91456573152600      0.53437230602360
  O   -0.58300832706358     -0.54354174542993      0.06576032360028
  H   -0.21248857456447      3.95246161444635     -0.90128175716675
  O   -0.77855683498331      3.53208891279846     -0.23503927416514
  H   1.91728642190783      1.72553452678907     -0.57451474158852
  O   1.34474421832305      1.56093701008733      0.19104463999977
  H   -1.43361159778534      2.48650047317085      2.25405910526326
  O   -1.01737958405573      1.67945239243122      1.91496247761894
  H   -1.42192958351044      0.94144369295967      2.39582809331610
  H   -3.56997810310214      1.31666442484350     -0.68393404869570
  H   -0.33797124557045      1.43752833330472     -3.04869407735625
  B   -2.20660742538151      1.33641056805321     -2.23252371274551
  O   -2.94121932783540      1.36145096769737     -3.34857743239242
  H   -3.90091267346449      1.36019691786671     -3.22328732552842
