20
Coordinates from ORCA-job input E -2065.515026668586
  Ni     -0.657083      1.541416     -0.074498
  H      -1.396808     -0.966534      0.362390
  H      -1.544081      4.028714     -0.083588
  O      -0.817101      1.465115     -2.222251
  O      -2.616737      1.447987     -0.911578
  H       1.681853      2.171783      0.884972
  H       0.149933     -0.898374      0.435186
  O      -0.624191     -0.498924      0.008519
  H      -0.368366      3.951754     -1.080131
  O      -0.694529      3.587288     -0.242283
  H       1.958474      1.596171     -0.522488
  O       1.358009      1.527371      0.236138
  H      -1.706746      2.359171      2.216221
  O      -1.041548      1.719018      1.918437
  H      -1.225398      0.902169      2.408211
  H      -3.552147      1.383686     -0.674008
  H      -0.327597      1.364716     -3.050227
  B      -2.192641      1.377491     -2.225369
  O      -2.930791      1.236135     -3.330396
  H      -3.888021      1.187695     -3.197017
20
Coordinates from ORCA-job input E -2065.515042847246
  Ni     -0.657681      1.540420     -0.074466
  H      -1.396027     -0.967991      0.364030
  H      -1.545819      4.027540     -0.086515
  O      -0.817943      1.461685     -2.221489
  O      -2.617680      1.444428     -0.911291
  H       1.680836      2.173143      0.884125
  H       0.150699     -0.898494      0.438231
  O      -0.623422     -0.499870      0.010827
  H      -0.367607      3.950903     -1.080069
  O      -0.695866      3.586203     -0.243176
  H       1.957406      1.597986     -0.523554
  O       1.357607      1.528217      0.235500
  H      -1.707409      2.358160      2.217114
  O      -1.041116      1.719569      1.918670
  H      -1.219602      0.902964      2.410909
  H      -3.553221      1.381908     -0.673822
  H      -0.328070      1.363033     -3.049410
  B      -2.193489      1.375049     -2.225004
  O      -2.929671      1.242214     -3.332394
  H      -3.887441      1.196778     -3.201973
20
Coordinates from ORCA-job input E -2065.515068876784
  Ni     -0.659815      1.536602     -0.074712
  H      -1.392744     -0.973341      0.371046
  H      -1.551542      4.023443     -0.096221
  O      -0.820312      1.448392     -2.218817
  O      -2.621022      1.430485     -0.910983
  H       1.676853      2.177808      0.881458
  H       0.153870     -0.899149      0.448462
  O      -0.620669     -0.503457      0.019158
  H      -0.364651      3.948007     -1.079579
  O      -0.700446      3.582072     -0.246260
  H       1.953515      1.605480     -0.527430
  O       1.356170      1.531292      0.233134
  H      -1.708871      2.355475      2.220111
  O      -1.039656      1.721464      1.919006
  H      -1.201118      0.906520      2.419553
  H      -3.557056      1.373201     -0.674117
  H      -0.329006      1.355218     -3.046397
  B      -2.196530      1.370256     -2.224497
  O      -2.926563      1.265438     -3.338949
  H      -3.885923      1.228642     -3.217724
20
Coordinates from ORCA-job input E -2065.515075266055
  Ni     -0.660786      1.534302     -0.075220
  H      -1.390550     -0.976212      0.375582
  H      -1.553994      4.021412     -0.100014
  O      -0.820935      1.441626     -2.217702
  O      -2.622578      1.422944     -0.911656
  H       1.674726      2.179536      0.880522
  H       0.155901     -0.899751      0.453306
  O      -0.619079     -0.505583      0.023421
  H      -0.363048      3.946727     -1.078840
  O      -0.702683      3.579640     -0.247589
  H       1.951616      1.609994     -0.529453
  O       1.355553      1.532655      0.231807
  H      -1.707407      2.355895      2.221448
  O      -1.038867      1.722028      1.918664
  H      -1.195906      0.908324      2.422523
  H      -3.558941      1.368897     -0.675337
  H      -0.328796      1.352096     -3.045142
  B      -2.197792      1.369607     -2.225028
  O      -2.926062      1.276886     -3.341708
  H      -3.885887      1.242826     -3.223343
20
Coordinates from ORCA-job input E -2065.515084232788
  Ni     -0.662749      1.528596     -0.076966
  H      -1.385196     -0.982674      0.386788
  H      -1.558850      4.016976     -0.106367
  O      -0.821649      1.427479     -2.215784
  O      -2.625807      1.406329     -0.914451
  H       1.669988      2.181822      0.879114
  H       0.160759     -0.901436      0.463965
  O      -0.615339     -0.510750      0.032931
  H      -0.359572      3.944387     -1.076131
  O      -0.707671      3.573711     -0.250012
  H       1.947455      1.620940     -0.534176
  O       1.354372      1.535065      0.228511
  H      -1.699793      2.359926      2.224207
  O      -1.036826      1.722312      1.917150
  H      -1.191337      0.911761      2.426683
  H      -3.563076      1.361995     -0.679742
  H      -0.327543      1.348799     -3.043087
  B      -2.199905      1.369017     -2.227347
  O      -2.926193      1.299824     -3.346969
  H      -3.886585      1.269770     -3.232077
20
Coordinates from ORCA-job input E -2065.515089136716
  Ni     -0.664317      1.522965     -0.079044
  H      -1.380430     -0.988367      0.397027
  H      -1.563077      4.013022     -0.110470
  O      -0.821848      1.416194     -2.214754
  O      -2.628465      1.392218     -0.917928
  H       1.665912      2.181992      0.878510
  H       0.164993     -0.903151      0.474017
  O      -0.611854     -0.515698      0.041413
  H      -0.356469      3.943001     -1.072286
  O      -0.712457      3.567959     -0.251557
  H       1.943723      1.631504     -0.538744
  O       1.353495      1.536499      0.225094
  H      -1.688363      2.366395      2.226522
  O      -1.034581      1.721398      1.915209
  H      -1.193588      0.913905      2.428162
  H      -3.566653      1.360067     -0.685023
  H      -0.326002      1.350645     -3.042151
  B      -2.200984      1.368007     -2.230299
  O      -2.927007      1.316513     -3.350922
  H      -3.887544      1.288779     -3.236536
20
Coordinates from ORCA-job input E -2065.515093901153
  Ni     -0.665771      1.516684     -0.081575
  H      -1.376120     -0.994014      0.406844
  H      -1.568036      4.008799     -0.114106
  O      -0.821792      1.406053     -2.214477
  O      -2.630964      1.378704     -0.922061
  H       1.661967      2.179931      0.878596
  H       0.168747     -0.904958      0.485621
  O      -0.608245     -0.521005      0.050151
  H      -0.352926      3.942569     -1.066355
  O      -0.718146      3.561631     -0.252494
  H       1.939715      1.643312     -0.543952
  O       1.352738      1.537190      0.220944
  H      -1.671663      2.375522      2.228840
  O      -1.031646      1.719104      1.912839
  H      -1.201189      0.915025      2.427814
  H      -3.570087      1.363414     -0.691388
  H      -0.324357      1.358107     -3.042170
  B      -2.201236      1.365658     -2.233948
  O      -2.928049      1.329014     -3.354490
  H      -3.888456      1.303109     -3.238393
20
Coordinates from ORCA-job input E -2065.515098172099
  Ni     -0.666694      1.512073     -0.083362
  H      -1.374125     -0.997694      0.411880
  H      -1.573005      4.005442     -0.117943
  O      -0.821768      1.399974     -2.214913
  O      -2.632410      1.369988     -0.924702
  H       1.659550      2.176744      0.879123
  H       0.170413     -0.906037      0.495323
  O      -0.605783     -0.524693      0.056155
  H      -0.349576      3.943278     -1.060139
  O      -0.723262      3.557014     -0.252712
  H       1.936709      1.652074     -0.548048
  O       1.352261      1.537123      0.217522
  H      -1.656423      2.383332      2.230456
  O      -1.028961      1.716470      1.911279
  H      -1.209014      0.915015      2.426813
  H      -3.572054      1.369688     -0.695775
  H      -0.323587      1.367567     -3.042980
  B      -2.200855      1.362535     -2.236474
  O      -2.928361      1.334051     -3.356771
  H      -3.888571      1.309904     -3.238490
20
Coordinates from ORCA-job input E -2065.515103220473
  Ni     -0.667246      1.509200     -0.084189
  H      -1.373834     -0.999782      0.412861
  H      -1.578121      4.002756     -0.123029
  O      -0.821893      1.396358     -2.215577
  O      -2.632922      1.364516     -0.925619
  H       1.658399      2.173863      0.879599
  H       0.170541     -0.906439      0.502720
  O      -0.604289     -0.526821      0.059690
  H      -0.346186      3.944559     -1.054357
  O      -0.727743      3.554110     -0.252677
  H       1.934668      1.657520     -0.550913
  O       1.351920      1.536879      0.215083
  H      -1.644972      2.388976      2.231469
  O      -1.026770      1.714350      1.910746
  H      -1.214296      0.914732      2.426439
  H      -3.572747      1.374725     -0.697714
  H      -0.323646      1.375471     -3.044001
  B      -2.200447      1.359697     -2.237544
  O      -2.927890      1.335549     -3.358103
  H      -3.888043      1.313627     -3.238642
20
Coordinates from ORCA-job input E -2065.515109628508
  Ni     -0.667691      1.507100     -0.084419
  H      -1.374174     -1.001280      0.411948
  H      -1.584077      4.000013     -0.130151
  O      -0.822052      1.392954     -2.216301
  O      -2.632862      1.359535     -0.925574
  H       1.657811      2.171440      0.879934
  H       0.170063     -0.906542      0.509121
  O      -0.603136     -0.528255      0.062160
  H      -0.342102      3.946128     -1.048295
  O      -0.732406      3.551900     -0.252717
  H       1.932989      1.661437     -0.553238
  O       1.351550      1.536772      0.213111
  H      -1.635459      2.393766      2.232173
  O      -1.024734      1.712743      1.910868
  H      -1.217881      0.914768      2.426949
  H      -3.572717      1.377275     -0.698216
  H      -0.324114      1.381676     -3.045085
  B      -2.200207      1.357301     -2.237731
  O      -2.927045      1.337021     -3.358958
  H      -3.887272      1.318097     -3.239339
20
Coordinates from ORCA-job input E -2065.515117248095
  Ni     -0.668226      1.504904     -0.084336
  H      -1.374419     -1.002992      0.410599
  H      -1.591928      3.996399     -0.140611
  O      -0.822095      1.387937     -2.217118
  O      -2.632394      1.352780     -0.925148
  H       1.657314      2.169204      0.880193
  H       0.169568     -0.906664      0.515915
  O      -0.601791     -0.529732      0.064699
  H      -0.336490      3.947935     -1.040760
  O      -0.738297      3.549442     -0.253088
  H       1.931134      1.665434     -0.555649
  O       1.351005      1.536989      0.211069
  H      -1.625559      2.399113      2.232724
  O      -1.022443      1.711474      1.911352
  H      -1.221140      0.915590      2.428437
  H      -3.572210      1.376984     -0.698090
  H      -0.324765      1.387115     -3.046298
  B      -2.200114      1.354960     -2.237506
  O      -2.926133      1.340797     -3.359577
  H      -3.886535      1.326179     -3.240567
20
Coordinates from ORCA-job input E -2065.515125131332
  Ni     -0.668896      1.502330     -0.084080
  H      -1.374037     -1.005220      0.409949
  H      -1.601522      3.991702     -0.154391
  O      -0.821832      1.380652     -2.217997
  O      -2.631564      1.343564     -0.924744
  H       1.656770      2.167224      0.880429
  H       0.169527     -0.907087      0.522921
  O      -0.600088     -0.531560      0.067613
  H      -0.329432      3.949651     -1.031745
  O      -0.745488      3.546378     -0.253981
  H       1.929053      1.669931     -0.558164
  O       1.350251      1.537658      0.208911
  H      -1.614899      2.405422      2.233022
  O      -1.019930      1.710640      1.911966
  H      -1.225022      0.917568      2.430752
  H      -3.571290      1.373462     -0.697787
  H      -0.325400      1.392125     -3.047584
  B      -2.200044      1.352516     -2.237199
  O      -2.925538      1.348000     -3.359841
  H      -3.886137      1.338892     -3.241809
20
Coordinates from ORCA-job input E -2065.515133053289
  Ni     -0.669776      1.498967     -0.083727
  H      -1.372652     -1.008362      0.410731
  H      -1.613294      3.985417     -0.172540
  O      -0.821114      1.370341     -2.218983
  O      -2.630359      1.330991     -0.924604
  H       1.656109      2.165315      0.880737
  H       0.170274     -0.908144      0.530385
  O      -0.597798     -0.534145      0.071258
  H      -0.320599      3.951000     -1.020599
  O      -0.754479      3.542175     -0.255603
  H       1.926604      1.675482     -0.560940
  O       1.349218      1.538896      0.206456
  H      -1.602118      2.413592      2.232979
  O      -1.017083      1.710164      1.912546
  H      -1.231107      0.921066      2.433693
  H      -3.569927      1.366712     -0.697597
  H      -0.326026      1.398182     -3.048949
  B      -2.199766      1.349447     -2.237058
  O      -2.925449      1.359501     -3.359565
  H      -3.886175      1.357249     -3.242378
20
Coordinates from ORCA-job input E -2065.515140676173
  Ni     -0.670836      1.494844     -0.083218
  H      -1.370257     -1.012428      0.412854
  H      -1.626829      3.977508     -0.195541
  O      -0.819914      1.357489     -2.220046
  O      -2.628770      1.315662     -0.924647
  H       1.655509      2.163450      0.881222
  H       0.171872     -0.910090      0.537651
  O      -0.594971     -0.537557      0.075301
  H      -0.309962      3.951587     -1.007255
  O      -0.765043      3.536771     -0.257989
  H       1.923976      1.681879     -0.563781
  O       1.347929      1.540760      0.203816
  H      -1.586812      2.423880      2.232476
  O      -1.014083      1.709925      1.913028
  H      -1.240878      0.926088      2.436678
  H      -3.568077      1.357303     -0.697362
  H      -0.326839      1.406744     -3.050228
  B      -2.199030      1.345520     -2.237081
  O      -2.925908      1.374544     -3.358346
  H      -3.886594      1.379969     -3.241290
20
Coordinates from ORCA-job input E -2065.515148567846
  Ni     -0.671419      1.492522     -0.082259
  H      -1.368280     -1.015106      0.413928
  H      -1.635790      3.971869     -0.214539
  O      -0.818841      1.349298     -2.220566
  O      -2.627175      1.306359     -0.924088
  H       1.655892      2.162625      0.881964
  H       0.173399     -0.912247      0.539350
  O      -0.593195     -0.539806      0.076503
  H      -0.301076      3.950841     -0.997800
  O      -0.771878      3.533226     -0.259882
  H       1.923015      1.685100     -0.564695
  O       1.347075      1.542566      0.202724
  H      -1.576704      2.431546      2.231638
  O      -1.012652      1.710007      1.913625
  H      -1.251550      0.930088      2.437809
  H      -3.566228      1.349026     -0.695882
  H      -0.327607      1.414607     -3.050819
  B      -2.198055      1.342833     -2.236707
  O      -2.926980      1.384383     -3.356005
  H      -3.887468      1.394111     -3.238058
20
Coordinates from ORCA-job input E -2065.515157359154
  Ni     -0.671531      1.492136     -0.080950
  H      -1.366954     -1.016256      0.413670
  H      -1.639345      3.969263     -0.228054
  O      -0.818367      1.346886     -2.220278
  O      -2.626110      1.304342     -0.922861
  H       1.657073      2.162754      0.883062
  H       0.174722     -0.914369      0.535700
  O      -0.592557     -0.540751      0.074929
  H      -0.293680      3.948784     -0.992858
  O      -0.774182      3.531937     -0.260755
  H       1.923619      1.685730     -0.563841
  O       1.346760      1.544285      0.203076
  H      -1.571997      2.435984      2.231019
  O      -1.012837      1.709975      1.914358
  H      -1.262293      0.932032      2.436691
  H      -3.564935      1.343506     -0.693258
  H      -0.328281      1.421047     -3.050567
  B      -2.197254      1.341841     -2.235914
  O      -2.928567      1.387390     -3.353279
  H      -3.888801      1.397331     -3.233649
20
Coordinates from ORCA-job input E -2065.515163548478
  Ni     -0.671940      1.491009     -0.080089
  H      -1.365366     -1.018145      0.414119
  H      -1.642120      3.966759     -0.242161
  O      -0.818639      1.344589     -2.219586
  O      -2.626272      1.302386     -0.921953
  H       1.657458      2.162578      0.884258
  H       0.176395     -0.916520      0.533711
  O      -0.591543     -0.542312      0.074527
  H      -0.285037      3.946439     -0.986517
  O      -0.776178      3.530189     -0.261147
  H       1.923387      1.689011     -0.563898
  O       1.346361      1.546327      0.202641
  H      -1.564505      2.440738      2.231336
  O      -1.012878      1.708944      1.914740
  H      -1.273678      0.933006      2.434605
  H      -3.564867      1.340647     -0.691542
  H      -0.329530      1.428512     -3.049560
  B      -2.197056      1.340773     -2.235353
  O      -2.929747      1.389742     -3.351639
  H      -3.889762      1.399177     -3.230252
20
Coordinates from ORCA-job input E -2065.515172400221
  Ni     -0.672572      1.489709     -0.078869
  H      -1.363267     -1.020755      0.413657
  H      -1.644541      3.964046     -0.262806
  O      -0.819855      1.343017     -2.218104
  O      -2.627354      1.301730     -0.920252
  H       1.657772      2.162823      0.885853
  H       0.178739     -0.919197      0.530685
  O      -0.590073     -0.544242      0.073616
  H      -0.271284      3.943003     -0.976483
  O      -0.777907      3.528433     -0.260791
  H       1.922909      1.694419     -0.564208
  O       1.345835      1.549632      0.201889
  H      -1.553250      2.446782      2.232721
  O      -1.013293      1.706639      1.915440
  H      -1.290238      0.933114      2.430573
  H      -3.565723      1.337656     -0.688752
  H      -0.331623      1.437666     -3.047541
  B      -2.197686      1.339913     -2.234047
  O      -2.931152      1.390715     -3.349855
  H      -3.890955      1.398748     -3.226485
20
Coordinates from ORCA-job input E -2065.515183667319
  Ni     -0.673519      1.487890     -0.077439
  H      -1.360424     -1.024430      0.411829
  H      -1.647021      3.960661     -0.292364
  O      -0.822103      1.341455     -2.216020
  O      -2.629401      1.301376     -0.917837
  H       1.657722      2.163455      0.887665
  H       0.181837     -0.922112      0.527818
  O      -0.587729     -0.546653      0.072493
  H      -0.251039      3.939100     -0.959709
  O      -0.780305      3.526497     -0.259319
  H       1.921670      1.703053     -0.565344
  O       1.345029      1.554463      0.200335
  H      -1.535094      2.455030      2.235656
  O      -1.013855      1.702443      1.916477
  H      -1.314115      0.932811      2.424287
  H      -3.567559      1.333702     -0.685096
  H      -0.334679      1.447920     -3.044576
  B      -2.199500      1.339076     -2.231909
  O      -2.932897      1.390680     -3.347985
  H      -3.892533      1.397431     -3.222722
20
Coordinates from ORCA-job input E -2065.515199332860
  Ni     -0.674264      1.487222     -0.076202
  H      -1.357331     -1.027506      0.407775
  H      -1.644323      3.960484     -0.319634
  O      -0.825959      1.345021     -2.213011
  O      -2.632993      1.307183     -0.914860
  H       1.657356      2.165338      0.889408
  H       0.185344     -0.923915      0.522465
  O      -0.585321     -0.547929      0.069503
  H      -0.228490      3.934718     -0.941824
  O      -0.779151      3.526899     -0.255096
  H       1.920588      1.712758     -0.566414
  O       1.344477      1.560103      0.198863
  H      -1.513933      2.462093      2.241019
  O      -1.015733      1.695891      1.917678
  H      -1.343918      0.930303      2.413999
  H      -3.571102      1.331257     -0.680929
  H      -0.337425      1.453150     -3.040734
  B      -2.203212      1.340043     -2.228984
  O      -2.935265      1.383675     -3.346670
  H      -3.894862      1.387061     -3.220111
20
Coordinates from ORCA-job input E -2065.515208647975
  Ni     -0.675264      1.484116     -0.076759
  H      -1.354094     -1.031575      0.406439
  H      -1.645906      3.958275     -0.340750
  O      -0.828194      1.341957     -2.212340
  O      -2.635430      1.303463     -0.914530
  H       1.655421      2.165347      0.889707
  H       0.188134     -0.924251      0.526825
  O      -0.581885     -0.550248      0.071169
  H      -0.212757      3.934329     -0.921660
  O      -0.782877      3.524869     -0.251944
  H       1.917223      1.724304     -0.570185
  O       1.343452      1.564047      0.195315
  H      -1.486163      2.470876      2.245908
  O      -1.015362      1.689668      1.917694
  H      -1.369918      0.931713      2.407252
  H      -3.573686      1.327919     -0.681032
  H      -0.339472      1.456315     -3.038995
  B      -2.206093      1.338674     -2.228108
  O      -2.936475      1.384087     -3.347026
  H      -3.896170      1.389960     -3.220740
20
Coordinates from ORCA-job input E -2065.515217403441
  Ni     -0.674070      1.486581     -0.079789
  H      -1.353294     -1.029270      0.401628
  H      -1.635009      3.969737     -0.317365
  O      -0.832030      1.355576     -2.211843
  O      -2.639153      1.317855     -0.915499
  H       1.653347      2.167623      0.887665
  H       0.188464     -0.917693      0.527638
  O      -0.581018     -0.546230      0.068954
  H      -0.212414      3.937225     -0.921973
  O      -0.772947      3.531995     -0.241665
  H       1.916476      1.728208     -0.572697
  O       1.344641      1.564253      0.193536
  H      -1.469322      2.469598      2.254125
  O      -1.017832      1.681043      1.916756
  H      -1.389026      0.924728      2.395824
  H      -3.578261      1.332777     -0.683993
  H      -0.336693      1.433261     -3.038513
  B      -2.211724      1.343037     -2.227784
  O      -2.937661      1.364683     -3.350421
  H      -3.897992      1.368860     -3.228344
20
Coordinates from ORCA-job input E -2065.515229693115
  Ni     -0.674439      1.483756     -0.079599
  H      -1.352814     -1.031423      0.402164
  H      -1.645299      3.962774     -0.330695
  O      -0.829206      1.345103     -2.214657
  O      -2.635475      1.304111     -0.916250
  H       1.653935      2.165100      0.887343
  H       0.187906     -0.918889      0.534051
  O      -0.579702     -0.548300      0.071496
  H      -0.211006      3.940552     -0.910295
  O      -0.782942      3.527550     -0.244368
  H       1.915093      1.729079     -0.574376
  O       1.343664      1.564039      0.191940
  H      -1.457006      2.477202      2.251855
  O      -1.015189      1.682094      1.916890
  H      -1.396292      0.933138      2.399985
  H      -3.574372      1.324228     -0.684249
  H      -0.337246      1.441564     -3.041468
  B      -2.208848      1.338496     -2.228959
  O      -2.938099      1.376285     -3.348602
  H      -3.898178      1.387389     -3.225964
20
Coordinates from ORCA-job input E -2065.515235790688
  Ni     -0.673878      1.484368     -0.079622
  H      -1.353582     -1.030644      0.401126
  H      -1.647130      3.962299     -0.326287
  O      -0.827638      1.344881     -2.216239
  O      -2.633003      1.302445     -0.916523
  H       1.655347      2.163853      0.887292
  H       0.186765     -0.918751      0.533426
  O      -0.580364     -0.547685      0.070408
  H      -0.214603      3.942412     -0.911224
  O      -0.784145      3.527494     -0.244491
  H       1.916175      1.725585     -0.573651
  O       1.343885      1.562728      0.192477
  H      -1.455855      2.479270      2.250346
  O      -1.014952      1.682978      1.916804
  H      -1.399678      0.936457      2.401008
  H      -3.571716      1.321229     -0.683936
  H      -0.336708      1.442875     -3.043533
  B      -2.206689      1.337215     -2.230027
  O      -2.938940      1.376807     -3.347309
  H      -3.898808      1.388033     -3.223805
20
Coordinates from ORCA-job input E -2065.515240388474
  Ni     -0.673419      1.484723     -0.080578
  H      -1.353373     -1.030813      0.397937
  H      -1.646587      3.963900     -0.322555
  O      -0.827654      1.347621     -2.217661
  O      -2.631977      1.303129     -0.916950
  H       1.656001      2.162410      0.887320
  H       0.186355     -0.917505      0.533563
  O      -0.580015     -0.546939      0.068847
  H      -0.212983      3.944886     -0.905194
  O      -0.784035      3.528283     -0.240835
  H       1.916148      1.726738     -0.574449
  O       1.344016      1.562658      0.191544
  H      -1.438714      2.484363      2.252674
  O      -1.015487      1.679662      1.916343
  H      -1.419265      0.940611      2.396478
  H      -3.570661      1.318149     -0.684157
  H      -0.336478      1.441877     -3.045247
  B      -2.206210      1.336122     -2.231208
  O      -2.940719      1.372051     -3.346873
  H      -3.900458      1.381924     -3.222760
20
Coordinates from ORCA-job input E -2065.515240317085
  Ni     -0.672890      1.486095     -0.081717
  H      -1.354941     -1.029366      0.396760
  H      -1.644467      3.966667     -0.307625
  O      -0.827363      1.351035     -2.218684
  O      -2.631331      1.305208     -0.917931
  H       1.656484      2.161276      0.886854
  H       0.184590     -0.915726      0.534500
  O      -0.581205     -0.545472      0.068588
  H      -0.219386      3.947442     -0.910606
  O      -0.781355      3.529832     -0.239219
  H       1.916791      1.724211     -0.574379
  O       1.344603      1.560732      0.191703
  H      -1.440389      2.483625      2.252501
  O      -1.015779      1.679934      1.915564
  H      -1.416666      0.940113      2.396938
  H      -3.570086      1.319770     -0.685483
  H      -0.335719      1.437511     -3.046793
  B      -2.205568      1.336326     -2.232603
  O      -2.940536      1.368636     -3.348006
  H      -3.900302      1.376000     -3.224122
20
Coordinates from ORCA-job input E -2065.515241727550
  Ni     -0.672977      1.486650     -0.081941
  H      -1.355338     -1.029466      0.394752
  H      -1.643283      3.967522     -0.307463
  O      -0.827924      1.352817     -2.218654
  O      -2.631644      1.306525     -0.917761
  H       1.656692      2.160859      0.887126
  H       0.184157     -0.915342      0.534220
  O      -0.581365     -0.545095      0.067879
  H      -0.217525      3.948122     -0.908431
  O      -0.780379      3.530441     -0.237807
  H       1.916761      1.725024     -0.574550
  O       1.344621      1.561014      0.191462
  H      -1.436458      2.484598      2.253505
  O      -1.016306      1.679063      1.915465
  H      -1.420690      0.940395      2.395597
  H      -3.570392      1.319220     -0.685136
  H      -0.336147      1.436982     -3.046941
  B      -2.206051      1.336506     -2.232557
  O      -2.940743      1.366341     -3.348282
  H      -3.900524      1.371671     -3.224243
20
Coordinates from ORCA-job input E -2065.515242042236
  Ni     -0.673286      1.487601     -0.082299
  H      -1.356504     -1.029676      0.391467
  H      -1.642222      3.968113     -0.307680
  O      -0.828440      1.354444     -2.218793
  O      -2.631858      1.307109     -0.917671
  H       1.657193      2.159680      0.887672
  H       0.182872     -0.914890      0.534733
  O      -0.581894     -0.544585      0.067252
  H      -0.215212      3.949828     -0.905161
  O      -0.779435      3.531025     -0.236368
  H       1.916693      1.725932     -0.574778
  O       1.344594      1.561181      0.191100
  H      -1.433363      2.485863      2.254177
  O      -1.016880      1.678878      1.915208
  H      -1.422333      0.940881      2.395344
  H      -3.570557      1.317947     -0.684686
  H      -0.337051      1.436756     -3.047505
  B      -2.206568      1.336554     -2.232558
  O      -2.940738      1.364569     -3.348799
  H      -3.900528      1.366637     -3.224415
20
Coordinates from ORCA-job input E -2065.515242501080
  Ni     -0.673351      1.489007     -0.082391
  H      -1.357951     -1.029189      0.388102
  H      -1.641233      3.968818     -0.307459
  O      -0.828522      1.356536     -2.219087
  O      -2.631546      1.308555     -0.917456
  H       1.658183      2.158505      0.888254
  H       0.181286     -0.914558      0.534016
  O      -0.582783     -0.543695      0.065863
  H      -0.213461      3.951581     -0.902950
  O      -0.778363      3.532005     -0.235204
  H       1.917254      1.725286     -0.574432
  O       1.344733      1.561005      0.191219
  H      -1.433332      2.486392      2.254201
  O      -1.017441      1.679174      1.915105
  H      -1.422683      0.941183      2.395400
  H      -3.570133      1.316887     -0.683903
  H      -0.337695      1.436973     -3.048310
  B      -2.206645      1.336674     -2.232454
  O      -2.941053      1.361819     -3.348651
  H      -3.900780      1.360890     -3.223623
20
Coordinates from ORCA-job input E -2065.515241823163
  Ni     -0.673444      1.489289     -0.082503
  H      -1.358384     -1.029112      0.387396
  H      -1.641436      3.968680     -0.308411
  O      -0.828365      1.356398     -2.219296
  O      -2.631426      1.308228     -0.917616
  H       1.658470      2.157802      0.888497
  H       0.180701     -0.914566      0.534372
  O      -0.583008     -0.543542      0.065760
  H      -0.212489      3.952462     -0.901282
  O      -0.778557      3.532089     -0.235039
  H       1.917286      1.725535     -0.574515
  O       1.344744      1.560937      0.191045
  H      -1.433612      2.486500      2.254059
  O      -1.017380      1.679452      1.914962
  H      -1.421930      0.941444      2.395828
  H      -3.569978      1.316664     -0.683934
  H      -0.337971      1.437528     -3.048694
  B      -2.206607      1.336411     -2.232524
  O      -2.941219      1.361451     -3.348577
  H      -3.900913      1.360197     -3.223287
