9
XYZ file generated by Avogadro.
B     -0.8560192306    1.3390361207   -0.4288805743
O      0.1518162503    0.4199039227    0.1324145820
H      0.7293763917    0.1505292179   -0.6264116085
O     -1.6183645873    0.6535318058   -1.4864285587
O     -1.7839776237    1.7657330675    0.6332914284
H     -1.9901893005   -0.1655964222   -1.0708919644
H     -1.2273356165    2.1813996671    1.3400375402
O     -0.1937997336    2.5198480753   -1.0114574686
H      0.4258407249    2.8640557804   -0.3188514355
