9
Coordinates from ORCA-job input E -328.081291601242
  B      -0.856019      1.339036     -0.428881
  O       0.151816      0.419904      0.132415
  H       0.729376      0.150529     -0.626412
  O      -1.618365      0.653532     -1.486429
  O      -1.783978      1.765733      0.633291
  H      -1.990189     -0.165596     -1.070892
  H      -1.227336      2.181400      1.340038
  O      -0.193800      2.519848     -1.011457
  H       0.425841      2.864056     -0.318851
9
Coordinates from ORCA-job input E -328.085265819919
  B      -0.851431      1.339248     -0.421074
  O       0.157481      0.422027      0.151198
  H       0.725995      0.166362     -0.580756
  O      -1.619324      0.678350     -1.484230
  O      -1.776201      1.742712      0.655403
  H      -1.982266     -0.117741     -1.088363
  H      -1.239595      2.137775      1.349915
  O      -0.196172      2.509349     -1.036848
  H       0.418861      2.850358     -0.382423
9
Coordinates from ORCA-job input E -328.085539925481
  B      -0.853220      1.339703     -0.422733
  O       0.154341      0.427339      0.161381
  H       0.741155      0.182199     -0.560731
  O      -1.620960      0.685954     -1.487915
  O      -1.775586      1.737164      0.657858
  H      -1.997503     -0.106128     -1.093611
  H      -1.242673      2.112092      1.366446
  O      -0.194748      2.500972     -1.052166
  H       0.426541      2.849147     -0.405708
9
Coordinates from ORCA-job input E -328.085741996539
  B      -0.854761      1.340036     -0.428729
  O       0.150155      0.436576      0.176208
  H       0.774519      0.216067     -0.523951
  O      -1.624330      0.692448     -1.493034
  O      -1.774689      1.736189      0.652946
  H      -2.035345     -0.082217     -1.094830
  H      -1.247918      2.054974      1.393789
  O      -0.188254      2.486050     -1.077593
  H       0.437972      2.848319     -0.441984
9
Coordinates from ORCA-job input E -328.085817865391
  B      -0.854069      1.340591     -0.434085
  O       0.149282      0.442895      0.183377
  H       0.797702      0.240181     -0.500308
  O      -1.625914      0.691436     -1.494721
  O      -1.774436      1.743157      0.643876
  H      -2.065139     -0.063842     -1.088797
  H      -1.252415      2.008143      1.408647
  O      -0.181242      2.476853     -1.093329
  H       0.443578      2.849027     -0.461838
9
Coordinates from ORCA-job input E -328.085942792169
  B      -0.850421      1.342951     -0.443929
  O       0.150122      0.455653      0.194401
  H       0.835714      0.282107     -0.459905
  O      -1.627276      0.684628     -1.494802
  O      -1.771997      1.764418      0.624560
  H      -2.118516     -0.027165     -1.070919
  H      -1.264928      1.912738      1.429340
  O      -0.166940      2.461691     -1.121197
  H       0.451590      2.851420     -0.494728
9
Coordinates from ORCA-job input E -328.085992761991
  B      -0.844165      1.344744     -0.452142
  O       0.153055      0.466542      0.203601
  H       0.866408      0.318805     -0.426005
  O      -1.624380      0.672313     -1.492941
  O      -1.764755      1.789215      0.607873
  H      -2.167809      0.012890     -1.049939
  H      -1.280847      1.820683      1.439425
  O      -0.154090      2.448206     -1.146081
  H       0.453931      2.855046     -0.520969
9
Coordinates from ORCA-job input E -328.086047067358
  B      -0.838636      1.344307     -0.455775
  O       0.154970      0.469481      0.208349
  H       0.876230      0.330708     -0.413746
  O      -1.616454      0.659358     -1.492679
  O      -1.758071      1.803942      0.600146
  H      -2.192297      0.037175     -1.038010
  H      -1.285544      1.779624      1.437896
  O      -0.148512      2.442409     -1.156739
  H       0.445660      2.861438     -0.526620
9
Coordinates from ORCA-job input E -328.086071591012
  B      -0.826762      1.344681     -0.461393
  O       0.159396      0.476794      0.220802
  H       0.891736      0.347405     -0.390109
  O      -1.602795      0.638506     -1.488852
  O      -1.741246      1.830811      0.589557
  H      -2.233153      0.086186     -1.016962
  H      -1.301018      1.696012      1.433984
  O      -0.136633      2.429605     -1.180556
  H       0.427822      2.878441     -0.543650
9
Coordinates from ORCA-job input E -328.086100383954
  B      -0.828090      1.345433     -0.460215
  O       0.156593      0.473946      0.220152
  H       0.876697      0.326755     -0.401788
  O      -1.600902      0.642306     -1.491794
  O      -1.744467      1.827034      0.591403
  H      -2.215388      0.070157     -1.021882
  H      -1.288726      1.723814      1.432514
  O      -0.138363      2.434390     -1.173682
  H       0.419992      2.884605     -0.531885
9
Coordinates from ORCA-job input E -328.086117347146
  B      -0.826083      1.346433     -0.460446
  O       0.156075      0.473811      0.223043
  H       0.867696      0.311036     -0.404956
  O      -1.598208      0.643532     -1.492454
  O      -1.741842      1.830053      0.591168
  H      -2.208673      0.067650     -1.021753
  H      -1.284200      1.725424      1.431123
  O      -0.135120      2.433845     -1.174587
  H       0.407704      2.896659     -0.528315
9
Coordinates from ORCA-job input E -328.086136528905
  B      -0.819872      1.349462     -0.461288
  O       0.155589      0.473450      0.229532
  H       0.847710      0.273447     -0.409685
  O      -1.592615      0.647075     -1.492449
  O      -1.732345      1.841633      0.589814
  H      -2.194655      0.063527     -1.020049
  H      -1.278159      1.720001      1.429475
  O      -0.124099      2.430837     -1.178582
  H       0.375793      2.929009     -0.523947
9
Coordinates from ORCA-job input E -328.086141075616
  B      -0.818784      1.350753     -0.461246
  O       0.154697      0.472326      0.229489
  H       0.842417      0.263605     -0.411601
  O      -1.592690      0.649326     -1.491870
  O      -1.729350      1.846007      0.589836
  H      -2.188465      0.058667     -1.020438
  H      -1.278167      1.720316      1.430463
  O      -0.121397      2.430860     -1.178799
  H       0.369085      2.936581     -0.523012
9
Coordinates from ORCA-job input E -328.086145411400
  B      -0.815963      1.354423     -0.460943
  O       0.150508      0.467521      0.228086
  H       0.829274      0.240238     -0.415948
  O      -1.593492      0.655112     -1.489922
  O      -1.719062      1.861604      0.590179
  H      -2.171221      0.044337     -1.021968
  H      -1.279769      1.718919      1.434201
  O      -0.114503      2.430955     -1.179732
  H       0.351576      2.955331     -0.521130
9
Coordinates from ORCA-job input E -328.086144917441
  B      -0.814624      1.356006     -0.460726
  O       0.147189      0.464212      0.227675
  H       0.822973      0.230628     -0.417164
  O      -1.594169      0.658246     -1.489441
  O      -1.712978      1.870336      0.590770
  H      -2.162419      0.037262     -1.023373
  H      -1.279455      1.717623      1.435905
  O      -0.111045      2.430345     -1.180642
  H       0.341876      2.963784     -0.520182
9
Coordinates from ORCA-job input E -328.086143853731
  B      -0.811662      1.358971     -0.460226
  O       0.139586      0.456755      0.227745
  H       0.809549      0.211524     -0.418833
  O      -1.596034      0.665476     -1.488758
  O      -1.699890      1.888185      0.592286
  H      -2.143849      0.023442     -1.026706
  H      -1.277127      1.714416      1.438658
  O      -0.102491      2.427816     -1.182765
  H       0.319266      2.981856     -0.518579
9
Coordinates from ORCA-job input E -328.086147853971
  B      -0.807029      1.366135     -0.456826
  O       0.115096      0.434692      0.225729
  H       0.777608      0.173010     -0.421976
  O      -1.605962      0.686868     -1.485914
  O      -1.663848      1.934780      0.600207
  H      -2.089609     -0.017609     -1.043499
  H      -1.271919      1.711955      1.449357
  O      -0.084897      2.421637     -1.186579
  H       0.267908      3.016974     -0.517678
9
Coordinates from ORCA-job input E -328.086156976479
  B      -0.808731      1.365920     -0.457064
  O       0.114242      0.434249      0.224874
  H       0.782924      0.182023     -0.420351
  O      -1.610044      0.688068     -1.485236
  O      -1.665848      1.934138      0.599951
  H      -2.091463     -0.017925     -1.042498
  H      -1.273262      1.709589      1.448484
  O      -0.084577      2.420247     -1.187090
  H       0.274107      3.012130     -0.518248
9
Coordinates from ORCA-job input E -328.086171968493
  B      -0.812680      1.365398     -0.457536
  O       0.112747      0.434052      0.223676
  H       0.791221      0.198621     -0.417649
  O      -1.617319      0.690549     -1.484575
  O      -1.671729      1.930670      0.599793
  H      -2.093736     -0.018393     -1.041052
  H      -1.272938      1.707634      1.446073
  O      -0.084122      2.417211     -1.187068
  H       0.285905      3.002699     -0.518839
9
Coordinates from ORCA-job input E -328.086177213066
  B      -0.814227      1.365000     -0.457707
  O       0.111530      0.433378      0.223388
  H       0.792633      0.202976     -0.416989
  O      -1.619253      0.691420     -1.484985
  O      -1.674213      1.928576      0.600046
  H      -2.093392     -0.019167     -1.041535
  H      -1.270164      1.709815      1.445010
  O      -0.083888      2.416067     -1.186224
  H       0.288320      3.000376     -0.518182
9
Coordinates from ORCA-job input E -328.086188999668
  B      -0.817366      1.363661     -0.457929
  O       0.108635      0.430717      0.222501
  H       0.794081      0.208925     -0.416300
  O      -1.622690      0.693339     -1.486337
  O      -1.679699      1.922731      0.600845
  H      -2.091277     -0.021880     -1.044323
  H      -1.261636      1.719616      1.443028
  O      -0.083484      2.414021     -1.183201
  H       0.290783      2.997311     -0.515463
9
Coordinates from ORCA-job input E -328.086211043346
  B      -0.823357      1.359892     -0.457940
  O       0.102738      0.423105      0.219804
  H       0.795337      0.216506     -0.416411
  O      -1.628959      0.697326     -1.489534
  O      -1.690795      1.908419      0.603092
  H      -2.085230     -0.028981     -1.052519
  H      -1.241324      1.748529      1.438674
  O      -0.083002      2.410519     -1.175104
  H       0.291938      2.993128     -0.507240
9
Coordinates from ORCA-job input E -328.086205196748
  B      -0.820734      1.360877     -0.457919
  O       0.102428      0.423444      0.220699
  H       0.794816      0.214200     -0.414902
  O      -1.626282      0.695884     -1.489201
  O      -1.683869      1.916543      0.602702
  H      -2.086931     -0.026918     -1.051001
  H      -1.246712      1.737645      1.440798
  O      -0.082678      2.410942     -1.178592
  H       0.287310      2.995823     -0.509762
9
Coordinates from ORCA-job input E -328.086215617000
  B      -0.822085      1.358452     -0.458254
  O       0.103038      0.420734      0.218732
  H       0.799270      0.217145     -0.414412
  O      -1.627995      0.696017     -1.489919
  O      -1.689099      1.907705      0.602405
  H      -2.090445     -0.026073     -1.052749
  H      -1.241825      1.749379      1.439435
  O      -0.082417      2.410096     -1.175165
  H       0.288906      2.994985     -0.507251
9
Coordinates from ORCA-job input E -328.086220878771
  B      -0.822363      1.354492     -0.458680
  O       0.103516      0.416024      0.216609
  H       0.805738      0.221035     -0.412539
  O      -1.627773      0.694712     -1.491982
  O      -1.692713      1.898400      0.601911
  H      -2.098008     -0.022331     -1.054865
  H      -1.235238      1.762890      1.437479
  O      -0.082168      2.408508     -1.171669
  H       0.286357      2.994711     -0.503441
9
Coordinates from ORCA-job input E -328.086220379947
  B      -0.821704      1.352642     -0.458913
  O       0.103464      0.413476      0.215578
  H       0.810789      0.225145     -0.409821
  O      -1.627827      0.693981     -1.492720
  O      -1.691308      1.897722      0.601396
  H      -2.103497     -0.019362     -1.055442
  H      -1.234946      1.763716      1.437743
  O      -0.081764      2.407055     -1.171988
  H       0.284141      2.994065     -0.503010
9
Coordinates from ORCA-job input E -328.086218743501
  B      -0.821337      1.351243     -0.459208
  O       0.103432      0.411810      0.214950
  H       0.814729      0.229505     -0.407717
  O      -1.627986      0.693275     -1.493335
  O      -1.690564      1.897195      0.600815
  H      -2.108046     -0.016661     -1.055211
  H      -1.234655      1.763450      1.437446
  O      -0.081007      2.405602     -1.172378
  H       0.282780      2.993023     -0.502541
9
Coordinates from ORCA-job input E -328.086217875117
  B      -0.821259      1.350293     -0.459448
  O       0.103640      0.410913      0.214558
  H       0.817391      0.232778     -0.406501
  O      -1.628275      0.692848     -1.493666
  O      -1.690671      1.896167      0.600356
  H      -2.111174     -0.014704     -1.054783
  H      -1.234427      1.763491      1.436981
  O      -0.080252      2.404499     -1.172477
  H       0.282375      2.992156     -0.502198
9
Coordinates from ORCA-job input E -328.086216287395
  B      -0.821229      1.348895     -0.459879
  O       0.103894      0.409559      0.214035
  H       0.821550      0.238370     -0.404466
  O      -1.628811      0.692211     -1.494114
  O      -1.690901      1.894621      0.599638
  H      -2.116105     -0.011492     -1.053896
  H      -1.234174      1.762868      1.436159
  O      -0.078857      2.402579     -1.172704
  H       0.281980      2.990830     -0.501951
9
Coordinates from ORCA-job input E -328.086216240761
  B      -0.821275      1.348940     -0.459907
  O       0.103850      0.409561      0.214103
  H       0.821602      0.238698     -0.404384
  O      -1.628837      0.692211     -1.494082
  O      -1.690895      1.894717      0.599632
  H      -2.116193     -0.011391     -1.053776
  H      -1.234270      1.762417      1.436121
  O      -0.078757      2.402455     -1.172749
  H       0.282122      2.990832     -0.502135
9
Coordinates from ORCA-job input E -328.086217309324
  B      -0.821453      1.349367     -0.459768
  O       0.103777      0.409922      0.214384
  H       0.819973      0.236917     -0.405321
  O      -1.628574      0.692400     -1.493983
  O      -1.691273      1.894679      0.599914
  H      -2.114460     -0.012471     -1.054084
  H      -1.233908      1.763256      1.436142
  O      -0.079133      2.402980     -1.172334
  H       0.282398      2.991391     -0.502127
9
Coordinates from ORCA-job input E -328.086218147397
  B      -0.821478      1.349979     -0.459565
  O       0.103719      0.410583      0.214604
  H       0.818178      0.234700     -0.406300
  O      -1.628484      0.692744     -1.493726
  O      -1.691134      1.895460      0.600177
  H      -2.112266     -0.013924     -1.054395
  H      -1.234217      1.763386      1.436541
  O      -0.079584      2.403728     -1.172331
  H       0.282613      2.991785     -0.502182
9
Coordinates from ORCA-job input E -328.086218223426
  B      -0.821429      1.349887     -0.459537
  O       0.103792      0.410559      0.214518
  H       0.818183      0.234509     -0.406416
  O      -1.628476      0.692723     -1.493764
  O      -1.691141      1.895321      0.600150
  H      -2.112261     -0.013982     -1.054494
  H      -1.234133      1.763925      1.436572
  O      -0.079623      2.403806     -1.172297
  H       0.282435      2.991692     -0.501910
9
Coordinates from ORCA-job input E -328.086218317134
  B      -0.821437      1.349891     -0.459521
  O       0.103811      0.410584      0.214517
  H       0.818054      0.234383     -0.406543
  O      -1.628456      0.692724     -1.493763
  O      -1.691191      1.895268      0.600152
  H      -2.112137     -0.014065     -1.054510
  H      -1.234086      1.764129      1.436561
  O      -0.079628      2.403847     -1.172258
  H       0.282417      2.991678     -0.501812
