19
Coordinates from ORCA-job input
Co    -1.3693136058    2.2384235892   -2.8042809725
H     -0.7283028001    2.4898404212   -0.1723701019
H     -1.5503621101    5.2384343147   -3.6794438362
H      1.1796218122    2.9927602418   -2.3561486332
H     -0.9567062855   -0.5519772768   -3.4382467270
H     -3.8874051731    1.3596312698   -2.8088933671
H     -0.7265299559    4.4535131454   -1.9505511522
O     -1.2414963790    4.3257878809   -2.8213396300
H      1.2325890097    1.4563907947   -2.5560735940
O      0.7247557685    2.2504227716   -2.7815398240
H     -2.2320475578   -0.1223750859   -2.1197714806
O     -1.4750402431    0.1395597107   -2.7769294438
H     -3.9694201001    2.8385281112   -2.3603943736
O     -3.4523263919    2.2212259560   -2.8994728083
H     -2.1466496900    1.8611825556   -0.2215234047
O     -1.5112737932    2.3837919928   -0.7331359139
H     -0.2842039623    2.1073418196   -5.2195490600
O     -1.1904423605    2.1517662003   -4.8777749525
H     -1.7097284238    1.5308729382   -5.4105744942
