19
Coordinates from ORCA-job input
  Co  -1.33795797676701      2.23697794446355     -2.76674281997464
  H   -0.67756970792024      2.58315794174131     -0.17137975980514
  H   -0.97501255591237      4.78680906962743     -3.60562568171147
  H   1.20770596757844      2.96207864669176     -2.42470971379742
  H   -1.17836217522267     -0.35345197064879     -3.50062572826924
  H   -3.91754003510569      1.51123048734463     -3.10259684512117
  H   -1.63340507958092      4.87565940833509     -2.20562811154701
  O   -1.08491113076025      4.31006037731211     -2.76916380501849
  H   1.22956471558496      1.41595557836546     -2.43429881692092
  O   0.76565058375405      2.18486719459890     -2.79901497271599
  H   -2.13361914370315     -0.31930034653597     -2.28395357376196
  O   -1.39165012412456      0.14706680699379     -2.69836710110408
  H   -3.91865680780587      2.68113465924910     -2.09302100378287
  O   -3.42610198352786      2.30364765512165     -2.83759667262271
  H   -2.01583057913588      1.80306660477032     -0.16347098076017
  O   -1.47204552172108      2.40264376387089     -0.69606833926712
  H   -0.31921061879337      2.02100927737389     -5.20613773750633
  O   -1.20740030662049      2.18027304912729     -4.85105395580468
  H   -1.80792976201599      1.63223520319751     -5.37855815020848
