19
Coordinates from ORCA-job input E -1840.377381960379
  Co     -1.369314      2.238424     -2.804281
  H      -0.728303      2.489840     -0.172370
  H      -1.550362      5.238434     -3.679444
  H       1.179622      2.992760     -2.356149
  H      -0.956706     -0.551977     -3.438247
  H      -3.887405      1.359631     -2.808893
  H      -0.726530      4.453513     -1.950551
  O      -1.241496      4.325788     -2.821340
  H       1.232589      1.456391     -2.556074
  O       0.724756      2.250423     -2.781540
  H      -2.232048     -0.122375     -2.119771
  O      -1.475040      0.139560     -2.776929
  H      -3.969420      2.838528     -2.360394
  O      -3.452326      2.221226     -2.899473
  H      -2.146650      1.861183     -0.221523
  O      -1.511274      2.383792     -0.733136
  H      -0.284204      2.107342     -5.219549
  O      -1.190442      2.151766     -4.877775
  H      -1.709728      1.530873     -5.410574
19
Coordinates from ORCA-job input E -1840.424685253583
  Co     -1.370362      2.239630     -2.809439
  H      -0.727606      2.493688     -0.177197
  H      -1.522221      5.157820     -3.591001
  H       1.183793      2.992017     -2.364281
  H      -0.989925     -0.517832     -3.389367
  H      -3.895755      1.365984     -2.817075
  H      -0.749169      4.492169     -1.984700
  O      -1.246737      4.328518     -2.824817
  H       1.231545      1.456392     -2.560983
  O       0.725140      2.251065     -2.787423
  H      -2.193807     -0.140158     -2.147621
  O      -1.472673      0.141502     -2.774766
  H      -3.969902      2.843560     -2.368045
  O      -3.454865      2.224167     -2.906752
  H      -2.145926      1.864895     -0.225046
  O      -1.510949      2.387012     -0.737853
  H      -0.284675      2.106089     -5.224503
  O      -1.190673      2.150456     -4.883124
  H      -1.709513      1.528146     -5.414021
19
Coordinates from ORCA-job input E -1840.456079415323
  Co     -1.372044      2.241395     -2.815325
  H      -0.727612      2.499732     -0.183402
  H      -1.493008      5.069598     -3.497820
  H       1.187774      2.992588     -2.373162
  H      -1.011257     -0.496421     -3.351801
  H      -3.907905      1.375681     -2.825775
  H      -0.767803      4.541984     -2.012695
  O      -1.252788      4.332789     -2.829343
  H       1.229616      1.457430     -2.565944
  O       0.724856      2.252832     -2.793808
  H      -2.163389     -0.168379     -2.166321
  O      -1.468855      0.143317     -2.772011
  H      -3.969586      2.852082     -2.376210
  O      -3.458271      2.229356     -2.914782
  H      -2.145537      1.870424     -0.229470
  O      -1.511159      2.391921     -0.743696
  H      -0.285560      2.104858     -5.230050
  O      -1.191572      2.149104     -4.888855
  H      -1.710183      1.524832     -5.417545
19
Coordinates from ORCA-job input E -1840.461504568700
  Co     -1.374167      2.241802     -2.821504
  H      -0.724490      2.500210     -0.190944
  H      -1.469232      5.001806     -3.407103
  H       1.197351      2.985939     -2.386009
  H      -1.022352     -0.500957     -3.320485
  H      -3.930893      1.398466     -2.843604
  H      -0.802007      4.626472     -2.035190
  O      -1.262500      4.338264     -2.827552
  H       1.225112      1.451339     -2.573053
  O       0.724758      2.249415     -2.801774
  H      -2.123900     -0.227205     -2.173353
  O      -1.461480      0.143784     -2.762365
  H      -3.965791      2.872425     -2.386912
  O      -3.462472      2.242781     -2.925226
  H      -2.144250      1.875909     -0.234442
  O      -1.509164      2.395065     -0.750177
  H      -0.286319      2.103224     -5.234788
  O      -1.192583      2.147341     -4.894198
  H      -1.709904      1.519042     -5.419333
19
Coordinates from ORCA-job input E -1840.466993451504
  Co     -1.373428      2.238094     -2.820992
  H      -0.718673      2.484237     -0.190963
  H      -1.469606      5.052073     -3.434267
  H       1.203592      2.978155     -2.391125
  H      -1.036455     -0.504527     -3.309282
  H      -3.938370      1.405294     -2.855633
  H      -0.827783      4.657163     -2.025190
  O      -1.263054      4.336215     -2.817667
  H       1.224351      1.443005     -2.574938
  O       0.726046      2.242550     -2.803070
  H      -2.104986     -0.255085     -2.169847
  O      -1.459123      0.141022     -2.756415
  H      -3.962198      2.876460     -2.385400
  O      -3.461865      2.246249     -2.925829
  H      -2.143501      1.872605     -0.234470
  O      -1.504959      2.388158     -0.749475
  H      -0.285629      2.103777     -5.233476
  O      -1.192165      2.146004     -4.893318
  H      -1.706476      1.513674     -5.416657
19
Coordinates from ORCA-job input E -1840.468941462225
  Co     -1.372789      2.237593     -2.822479
  H      -0.710133      2.469030     -0.194154
  H      -1.440920      5.058368     -3.437824
  H       1.209948      2.976457     -2.404646
  H      -1.046004     -0.523535     -3.315885
  H      -3.944974      1.414835     -2.867477
  H      -0.880992      4.706526     -2.007330
  O      -1.264817      4.336886     -2.812123
  H       1.222771      1.439192     -2.574243
  O       0.726999      2.238953     -2.806903
  H      -2.096244     -0.285564     -2.164552
  O      -1.457654      0.143017     -2.747073
  H      -3.956306      2.882252     -2.380881
  O      -3.460555      2.252249     -2.925521
  H      -2.143547      1.879118     -0.236360
  O      -1.499047      2.387383     -0.751057
  H      -0.286756      2.108919     -5.233935
  O      -1.193675      2.143554     -4.893862
  H      -1.699588      1.499889     -5.411709
19
Coordinates from ORCA-job input E -1840.469781691885
  Co     -1.371388      2.236303     -2.824758
  H      -0.700063      2.452952     -0.198910
  H      -1.407409      5.053971     -3.439293
  H       1.217374      2.972102     -2.418483
  H      -1.061533     -0.524247     -3.309944
  H      -3.952334      1.427578     -2.876768
  H      -0.951944      4.765417     -1.994012
  O      -1.266296      4.336302     -2.804079
  H       1.220597      1.432744     -2.574595
  O       0.728460      2.233503     -2.811268
  H      -2.085084     -0.323434     -2.169660
  O      -1.454413      0.145808     -2.737933
  H      -3.946498      2.891891     -2.376912
  O      -3.457659      2.259576     -2.924902
  H      -2.140506      1.881257     -0.239361
  O      -1.491795      2.384680     -0.753381
  H      -0.287153      2.112885     -5.233810
  O      -1.194798      2.141121     -4.894576
  H      -1.691841      1.484712     -5.405368
19
Coordinates from ORCA-job input E -1840.470204440832
  Co     -1.370373      2.236347     -2.824818
  H      -0.692861      2.441715     -0.200447
  H      -1.365284      5.040011     -3.457579
  H       1.219521      2.971305     -2.427495
  H      -1.068115     -0.520264     -3.322295
  H      -3.953815      1.435105     -2.878114
  H      -1.022482      4.780886     -1.976998
  O      -1.263566      4.335075     -2.803089
  H       1.219625      1.430169     -2.572097
  O       0.728963      2.230388     -2.813519
  H      -2.078645     -0.328159     -2.167400
  O      -1.454202      0.148091     -2.735514
  H      -3.940331      2.896675     -2.368580
  O      -3.455310      2.264963     -2.920626
  H      -2.139091      1.885006     -0.239613
  O      -1.486765      2.384344     -0.753057
  H      -0.288797      2.119236     -5.232987
  O      -1.196767      2.140098     -4.893877
  H      -1.685988      1.474130     -5.399908
19
Coordinates from ORCA-job input E -1840.470737355510
  Co     -1.369928      2.236138     -2.823609
  H      -0.686047      2.429695     -0.200888
  H      -1.320488      5.011305     -3.484920
  H       1.218593      2.970161     -2.431000
  H      -1.066032     -0.504732     -3.339758
  H      -3.956254      1.444838     -2.875363
  H      -1.094991      4.795649     -1.967992
  O      -1.260395      4.331440     -2.802023
  H       1.217880      1.427360     -2.569236
  O       0.728389      2.227364     -2.813459
  H      -2.074264     -0.333438     -2.172168
  O      -1.452208      0.151135     -2.734793
  H      -3.932284      2.903798     -2.356674
  O      -3.452642      2.271680     -2.912960
  H      -2.137980      1.887523     -0.238699
  O      -1.482549      2.384090     -0.750950
  H      -0.290563      2.122677     -5.229196
  O      -1.199249      2.141008     -4.891655
  H      -1.683269      1.467432     -5.392672
19
Coordinates from ORCA-job input E -1840.471253570581
  Co     -1.371874      2.234686     -2.819451
  H      -0.682082      2.415979     -0.198409
  H      -1.272501      4.950512     -3.531072
  H       1.210749      2.968682     -2.424833
  H      -1.053235     -0.464762     -3.371888
  H      -3.964247      1.460017     -2.866565
  H      -1.158496      4.820983     -1.977272
  O      -1.257819      4.321943     -2.799535
  H       1.213887      1.424168     -2.562678
  O       0.724869      2.223805     -2.808433
  H      -2.063513     -0.350035     -2.190759
  O      -1.444826      0.155360     -2.736399
  H      -3.921101      2.915153     -2.336407
  O      -3.450842      2.280976     -2.898290
  H      -2.139564      1.887672     -0.235050
  O      -1.481956      2.384241     -0.744484
  H      -0.293186      2.124167     -5.219081
  O      -1.203674      2.145961     -4.886336
  H      -1.684872      1.465616     -5.381072
19
Coordinates from ORCA-job input E -1840.471504473889
  Co     -1.371652      2.233819     -2.816849
  H      -0.677592      2.405336     -0.196648
  H      -1.219070      4.932144     -3.543620
  H       1.210615      2.968625     -2.427217
  H      -1.062559     -0.453045     -3.389728
  H      -3.968493      1.465484     -2.863740
  H      -1.222455      4.845493     -1.987262
  O      -1.257639      4.319152     -2.798316
  H       1.214725      1.423668     -2.558993
  O       0.725449      2.222024     -2.808443
  H      -2.055665     -0.364933     -2.199547
  O      -1.439182      0.156069     -2.734134
  H      -3.916567      2.917004     -2.324423
  O      -3.450297      2.283603     -2.890411
  H      -2.139450      1.891259     -0.232209
  O      -1.479140      2.385110     -0.740628
  H      -0.295017      2.125440     -5.215889
  O      -1.205987      2.146852     -4.884248
  H      -1.684304      1.462018     -5.375706
19
Coordinates from ORCA-job input E -1840.471748473506
  Co     -1.372014      2.232474     -2.810190
  H      -0.676874      2.393865     -0.189670
  H      -1.167420      4.892706     -3.570963
  H       1.205841      2.967974     -2.418207
  H      -1.070732     -0.421701     -3.426330
  H      -3.975408      1.471351     -2.854955
  H      -1.274621      4.873199     -2.013321
  O      -1.256392      4.312955     -2.801373
  H       1.217134      1.423810     -2.552093
  O       0.726047      2.220241     -2.804251
  H      -2.042745     -0.383709     -2.218373
  O      -1.426455      0.156077     -2.734701
  H      -3.912502      2.917346     -2.303791
  O      -3.451077      2.285757     -2.875751
  H      -2.143418      1.896074     -0.225636
  O      -1.480192      2.388823     -0.731281
  H      -0.295894      2.120434     -5.208075
  O      -1.207892      2.150626     -4.879690
  H      -1.689669      1.466819     -5.369362
19
Coordinates from ORCA-job input E -1840.471965544483
  Co     -1.371875      2.231620     -2.802713
  H      -0.676762      2.384471     -0.181715
  H      -1.107493      4.864646     -3.588487
  H       1.202857      2.966708     -2.410646
  H      -1.074102     -0.399538     -3.453613
  H      -3.980381      1.472706     -2.844436
  H      -1.330956      4.895512     -2.043640
  O      -1.253918      4.309050     -2.808881
  H       1.221088      1.423817     -2.547363
  O       0.727834      2.218314     -2.801606
  H      -2.037466     -0.396347     -2.238350
  O      -1.415109      0.154228     -2.735718
  H      -3.912238      2.913934     -2.284021
  O      -3.453157      2.285382     -2.861291
  H      -2.146939      1.900792     -0.218443
  O      -1.481291      2.392971     -0.721581
  H      -0.297549      2.116598     -5.203019
  O      -1.209668      2.154481     -4.875656
  H      -1.697160      1.475777     -5.366834
19
Coordinates from ORCA-job input E -1840.472146138573
  Co     -1.370716      2.230949     -2.792950
  H      -0.679301      2.376672     -0.171079
  H      -1.043535      4.847353     -3.599830
  H       1.200489      2.966600     -2.404162
  H      -1.078326     -0.384307     -3.478352
  H      -3.982491      1.466237     -2.830970
  H      -1.380921      4.908989     -2.078152
  O      -1.248644      4.306358     -2.823290
  H       1.228394      1.425483     -2.542542
  O       0.731653      2.216775     -2.800252
  H      -2.039471     -0.401048     -2.258280
  O      -1.402364      0.149286     -2.736935
  H      -3.917576      2.903200     -2.263170
  O      -3.457075      2.280209     -2.845449
  H      -2.153377      1.908700     -0.210408
  O      -1.484074      2.399387     -0.710372
  H      -0.298708      2.111150     -5.200081
  O      -1.209961      2.159317     -4.871765
  H      -1.708278      1.493811     -5.369974
19
Coordinates from ORCA-job input E -1840.472268567563
  Co     -1.366299      2.230513     -2.785897
  H      -0.679743      2.369907     -0.164336
  H      -0.993369      4.847176     -3.595003
  H       1.201537      2.970874     -2.406249
  H      -1.100556     -0.379182     -3.496685
  H      -3.976851      1.454073     -2.823912
  H      -1.427732      4.909064     -2.100217
  O      -1.243155      4.305326     -2.833357
  H       1.237585      1.430076     -2.538534
  O       0.737776      2.217608     -2.801904
  H      -2.049469     -0.392465     -2.268909
  O      -1.390891      0.144905     -2.733203
  H      -3.921866      2.887981     -2.249189
  O      -3.457173      2.271788     -2.835360
  H      -2.159411      1.920909     -0.207318
  O      -1.483600      2.405702     -0.704380
  H      -0.296445      2.097413     -5.198923
  O      -1.206198      2.161078     -4.869270
  H      -1.718421      1.512377     -5.375367
19
Coordinates from ORCA-job input E -1840.472355986330
  Co     -1.360779      2.229882     -2.781055
  H      -0.678517      2.364088     -0.161436
  H      -0.947324      4.845451     -3.582926
  H       1.202123      2.977461     -2.411658
  H      -1.125969     -0.370500     -3.510326
  H      -3.968151      1.442254     -2.820935
  H      -1.477340      4.904640     -2.118034
  O      -1.238452      4.303263     -2.837273
  H       1.245696      1.435812     -2.535645
  O       0.743561      2.219800     -2.804963
  H      -2.062928     -0.378072     -2.277583
  O      -1.379703      0.142513     -2.726007
  H      -3.923009      2.873352     -2.238052
  O      -3.454346      2.263727     -2.827880
  H      -2.163673      1.931908     -0.208160
  O      -1.481386      2.410786     -0.702135
  H      -0.293292      2.076511     -5.196974
  O      -1.201219      2.161247     -4.867080
  H      -1.729574      1.531001     -5.379891
19
Coordinates from ORCA-job input E -1840.472397341237
  Co     -1.354934      2.229505     -2.778680
  H      -0.676609      2.359397     -0.161913
  H      -0.904802      4.844476     -3.564358
  H       1.202303      2.983178     -2.416899
  H      -1.151606     -0.361524     -3.518103
  H      -3.958846      1.433842     -2.825471
  H      -1.529873      4.898899     -2.135212
  O      -1.233447      4.300956     -2.835609
  H       1.251643      1.440548     -2.535418
  O       0.748552      2.222233     -2.809445
  H      -2.070630     -0.361621     -2.275032
  O      -1.370216      0.141798     -2.717463
  H      -3.922230      2.860123     -2.228879
  O      -3.449861      2.258355     -2.823765
  H      -2.165574      1.937761     -0.212606
  O      -1.478579      2.413350     -0.703240
  H      -0.290724      2.050948     -5.195320
  O      -1.196069      2.161045     -4.865799
  H      -1.742781      1.551851     -5.384803
19
Coordinates from ORCA-job input E -1840.472418156367
  Co     -1.353472      2.230568     -2.781522
  H      -0.676237      2.360801     -0.165949
  H      -0.902254      4.849769     -3.555349
  H       1.202307      2.983391     -2.417511
  H      -1.156757     -0.365357     -3.511694
  H      -3.955932      1.435771     -2.839379
  H      -1.538204      4.894816     -2.129963
  O      -1.231724      4.301574     -2.830076
  H       1.250240      1.440590     -2.539153
  O       0.748792      2.223560     -2.812490
  H      -2.063296     -0.356402     -2.255522
  O      -1.371206      0.143753     -2.714513
  H      -3.921530      2.856863     -2.229130
  O      -3.447595      2.260615     -2.828293
  H      -2.163941      1.933231     -0.218124
  O      -1.478048      2.411370     -0.707816
  H      -0.290670      2.038159     -5.196245
  O      -1.194590      2.160805     -4.867260
  H      -1.750165      1.561244     -5.388025
19
Coordinates from ORCA-job input E -1840.472438990492
  Co     -1.350379      2.233158     -2.786727
  H      -0.675476      2.369260     -0.172246
  H      -0.906049      4.859941     -3.542510
  H       1.203191      2.983014     -2.414745
  H      -1.177996     -0.369614     -3.502775
  H      -3.950333      1.440668     -2.874519
  H      -1.545702      4.890687     -2.119269
  O      -1.228353      4.303353     -2.819420
  H       1.247653      1.440788     -2.546159
  O       0.749858      2.226936     -2.817128
  H      -2.047472     -0.345870     -2.220425
  O      -1.371646      0.148352     -2.707959
  H      -3.920650      2.845633     -2.226082
  O      -3.442834      2.265285     -2.837559
  H      -2.156773      1.919141     -0.226625
  O      -1.477185      2.407255     -0.715274
  H      -0.290555      2.014358     -5.197227
  O      -1.191686      2.158335     -4.869393
  H      -1.761895      1.574440     -5.391972
19
Coordinates from ORCA-job input E -1840.472451101280
  Co     -1.348263      2.235752     -2.789229
  H      -0.676385      2.381762     -0.173931
  H      -0.908852      4.867077     -3.536804
  H       1.204506      2.981514     -2.411322
  H      -1.196727     -0.371646     -3.499448
  H      -3.946459      1.445085     -2.907589
  H      -1.547521      4.889187     -2.113820
  O      -1.223514      4.305277     -2.813839
  H       1.246097      1.440199     -2.550210
  O       0.751239      2.228693     -2.819945
  H      -2.035471     -0.337893     -2.195723
  O      -1.371225      0.151414     -2.704173
  H      -3.922334      2.830592     -2.217930
  O      -3.440205      2.268782     -2.843123
  H      -2.149276      1.905351     -0.229751
  O      -1.477871      2.404944     -0.718177
  H      -0.291482      1.999337     -5.198135
  O      -1.190423      2.156364     -4.870381
  H      -1.770118      1.583330     -5.394483
19
Coordinates from ORCA-job input E -1840.472471134687
  Co     -1.345662      2.240368     -2.791106
  H      -0.680890      2.413244     -0.172273
  H      -0.911720      4.874742     -3.533046
  H       1.207236      2.977517     -2.405874
  H      -1.225635     -0.372250     -3.497732
  H      -3.940988      1.454899     -2.966812
  H      -1.545635      4.889990     -2.109261
  O      -1.212801      4.308527     -2.807294
  H       1.243310      1.437706     -2.553862
  O       0.753650      2.229660     -2.823330
  H      -2.018409     -0.326349     -2.164674
  O      -1.369776      0.155618     -2.699748
  H      -3.927679      2.798109     -2.198100
  O      -3.437289      2.274257     -2.849202
  H      -2.133079      1.878216     -0.229540
  O      -1.481114      2.402217     -0.718858
  H      -0.294974      1.981559     -5.199693
  O      -1.190774      2.153139     -4.870794
  H      -1.782052      1.593953     -5.396813
19
Coordinates from ORCA-job input E -1840.472498111929
  Co     -1.345499      2.242961     -2.789763
  H      -0.687750      2.447048     -0.166691
  H      -0.911224      4.873651     -3.536915
  H       1.209419      2.973720     -2.404906
  H      -1.233740     -0.369839     -3.500973
  H      -3.939094      1.461558     -2.998708
  H      -1.539296      4.894260     -2.111303
  O      -1.203648      4.310102     -2.805775
  H       1.240877      1.434146     -2.550829
  O       0.754775      2.227211     -2.823673
  H      -2.017098     -0.323330     -2.162470
  O      -1.368641      0.156700     -2.699706
  H      -3.932928      2.775559     -2.182720
  O      -3.437227      2.276827     -2.849280
  H      -2.118019      1.856138     -0.222921
  O      -1.485711      2.401446     -0.714823
  H      -0.298870      1.981571     -5.200975
  O      -1.194075      2.151587     -4.869712
  H      -1.786533      1.593806     -5.395871
19
Coordinates from ORCA-job input E -1840.472543062715
  Co     -1.346519      2.245145     -2.784420
  H      -0.703303      2.508809     -0.154918
  H      -0.900810      4.862339     -3.546475
  H       1.213033      2.967888     -2.410365
  H      -1.227364     -0.361827     -3.510633
  H      -3.936769      1.466760     -3.025709
  H      -1.534586      4.903680     -2.123969
  O      -1.187830      4.310489     -2.805298
  H       1.236964      1.426808     -2.538071
  O       0.756009      2.219042     -2.822232
  H      -2.033987     -0.323827     -2.188249
  O      -1.366661      0.155614     -2.702355
  H      -3.940137      2.745831     -2.159562
  O      -3.438361      2.277497     -2.843404
  H      -2.092358      1.825050     -0.206445
  O      -1.494118      2.402040     -0.704697
  H      -0.306150      1.993957     -5.202897
  O      -1.201685      2.151384     -4.866304
  H      -1.789649      1.588445     -5.392011
19
Coordinates from ORCA-job input E -1840.472565749139
  Co     -1.346466      2.245150     -2.782391
  H      -0.706170      2.523753     -0.153171
  H      -0.894528      4.856936     -3.547349
  H       1.214612      2.966424     -2.417056
  H      -1.215297     -0.359668     -3.510130
  H      -3.934333      1.466304     -3.027624
  H      -1.543520      4.905636     -2.131721
  O      -1.181638      4.309951     -2.802907
  H       1.235097      1.423741     -2.530587
  O       0.756311      2.214598     -2.821902
  H      -2.047970     -0.323855     -2.204818
  O      -1.367743      0.154994     -2.702241
  H      -3.939752      2.738829     -2.152102
  O      -3.437694      2.277054     -2.840284
  H      -2.086578      1.821655     -0.201961
  O      -1.495026      2.403178     -0.702686
  H      -0.308574      1.997324     -5.203349
  O      -1.203723      2.153129     -4.864890
  H      -1.791291      1.589988     -5.390845
19
Coordinates from ORCA-job input E -1840.472626431320
  Co     -1.344788      2.244965     -2.778472
  H      -0.708757      2.552236     -0.153539
  H      -0.889161      4.845294     -3.548526
  H       1.219399      2.961181     -2.434257
  H      -1.184764     -0.356979     -3.501758
  H      -3.924700      1.465380     -3.033421
  H      -1.574117      4.906068     -2.151018
  O      -1.163357      4.308706     -2.791877
  H       1.229304      1.415044     -2.510691
  O       0.757549      2.202450     -2.821564
  H      -2.083755     -0.320840     -2.242968
  O      -1.373271      0.154294     -2.699858
  H      -3.934736      2.722013     -2.134568
  O      -3.433528      2.276826     -2.834391
  H      -2.074834      1.820001     -0.194450
  O      -1.494006      2.406328     -0.701666
  H      -0.313351      2.001490     -5.204401
  O      -1.206491      2.159799     -4.861642
  H      -1.796918      1.600864     -5.388947
19
Coordinates from ORCA-job input E -1840.472694349353
  Co     -1.341933      2.244907     -2.774914
  H      -0.708264      2.573109     -0.155710
  H      -0.898194      4.832727     -3.554020
  H       1.224604      2.953355     -2.445270
  H      -1.162939     -0.355033     -3.493043
  H      -3.914143      1.466203     -3.040119
  H      -1.606040      4.902113     -2.171875
  O      -1.142354      4.307862     -2.778757
  H       1.223690      1.405616     -2.492628
  O       0.759640      2.190540     -2.820567
  H      -2.112303     -0.316618     -2.272758
  O      -1.379206      0.154047     -2.697561
  H      -3.927898      2.707285     -2.119122
  O      -3.428313      2.278249     -2.830236
  H      -2.064790      1.821650     -0.188510
  O      -1.491032      2.409215     -0.702085
  H      -0.316168      2.006365     -5.205106
  O      -1.207157      2.168418     -4.858404
  H      -1.801482      1.615114     -5.387328
19
Coordinates from ORCA-job input E -1840.472749356724
  Co     -1.338274      2.244176     -2.772971
  H      -0.699474      2.577096     -0.164125
  H      -0.925786      4.817000     -3.563241
  H       1.228757      2.943489     -2.447763
  H      -1.148856     -0.354962     -3.482856
  H      -3.902081      1.464846     -3.039607
  H      -1.639614      4.889892     -2.190553
  O      -1.120142      4.307340     -2.763038
  H       1.217464      1.395509     -2.477538
  O       0.761685      2.179668     -2.818527
  H      -2.133672     -0.312269     -2.289803
  O      -1.387035      0.154309     -2.695429
  H      -3.916769      2.701108     -2.110223
  O      -3.421930      2.280332     -2.829648
  H      -2.061518      1.834944     -0.187072
  O      -1.484478      2.413328     -0.707369
  H      -0.315331      2.013922     -5.205571
  O      -1.204268      2.181179     -4.856006
  H      -1.802962      1.634214     -5.386676
19
Coordinates from ORCA-job input E -1840.472759475892
  Co     -1.338511      2.242710     -2.775210
  H      -0.693051      2.572629     -0.173009
  H      -0.955203      4.814384     -3.572514
  H       1.226770      2.939584     -2.438044
  H      -1.154659     -0.357510     -3.482168
  H      -3.900159      1.462689     -3.039472
  H      -1.627778      4.883289     -2.175807
  O      -1.114501      4.307758     -2.761430
  H       1.214312      1.393006     -2.475551
  O       0.760856      2.178690     -2.816570
  H      -2.129216     -0.314107     -2.278005
  O      -1.390490      0.153857     -2.696407
  H      -3.912850      2.702748     -2.114474
  O      -3.421625      2.280597     -2.835520
  H      -2.062572      1.845456     -0.188979
  O      -1.481727      2.416425     -0.713611
  H      -0.312443      2.020811     -5.206618
  O      -1.201954      2.185568     -4.857370
  H      -1.799481      1.636538     -5.387255
19
Coordinates from ORCA-job input E -1840.472796599806
  Co     -1.338990      2.242412     -2.770248
  H      -0.703235      2.621077     -0.171256
  H      -0.971015      4.797820     -3.586559
  H       1.228550      2.932954     -2.443241
  H      -1.145882     -0.353615     -3.486192
  H      -3.895670      1.467490     -3.062915
  H      -1.617527      4.880772     -2.182551
  O      -1.090181      4.307767     -2.758280
  H       1.208635      1.387298     -2.452517
  O       0.761831      2.168226     -2.813051
  H      -2.147030     -0.314631     -2.306694
  O      -1.392492      0.151069     -2.698331
  H      -3.915052      2.672593     -2.095454
  O      -3.422527      2.281756     -2.833134
  H      -2.040039      1.835374     -0.172737
  O      -1.484158      2.420654     -0.708609
  H      -0.318424      2.034902     -5.208597
  O      -1.207401      2.190880     -4.853953
  H      -1.803675      1.640322     -5.383697
19
Coordinates from ORCA-job input E -1840.472753342718
  Co     -1.344995      2.235854     -2.763821
  H      -0.704188      2.624786     -0.165597
  H      -0.959101      4.797965     -3.612151
  H       1.214975      2.941958     -2.420357
  H      -1.187219     -0.349621     -3.527817
  H      -3.913118      1.461237     -3.066966
  H      -1.563861      4.888125     -2.176694
  O      -1.081346      4.308672     -2.784059
  H       1.216787      1.400638     -2.439538
  O       0.761840      2.175616     -2.804265
  H      -2.116243     -0.331505     -2.294923
  O      -1.376285      0.138749     -2.708722
  H      -3.932899      2.657608     -2.094493
  O      -3.439427      2.274803     -2.835711
  H      -2.038778      1.840537     -0.151892
  O      -1.489462      2.423889     -0.697351
  H      -0.322535      2.052140     -5.209254
  O      -1.213586      2.190050     -4.852606
  H      -1.804841      1.633622     -5.381797
19
Coordinates from ORCA-job input E -1840.472843253854
  Co     -1.341186      2.239640     -2.768203
  H      -0.703544      2.624913     -0.170187
  H      -0.962187      4.799950     -3.592862
  H       1.221519      2.939857     -2.434687
  H      -1.173213     -0.356447     -3.503786
  H      -3.904792      1.474798     -3.086491
  H      -1.599062      4.882180     -2.181727
  O      -1.081139      4.309327     -2.765862
  H       1.212478      1.394980     -2.445937
  O       0.762338      2.172792     -2.809363
  H      -2.121755     -0.323660     -2.281616
  O      -1.385228      0.146092     -2.701956
  H      -3.924860      2.658096     -2.093808
  O      -3.430299      2.283023     -2.838412
  H      -2.033967      1.831195     -0.163086
  O      -1.485443      2.418740     -0.704056
  H      -0.322682      2.036791     -5.209621
  O      -1.211353      2.190515     -4.853410
  H      -1.809907      1.642340     -5.382943
19
Coordinates from ORCA-job input E -1840.472851884356
  Co     -1.340364      2.239245     -2.767276
  H      -0.700203      2.618715     -0.170034
  H      -0.959034      4.793331     -3.594036
  H       1.220158      2.942752     -2.435396
  H      -1.173527     -0.352521     -3.504911
  H      -3.905805      1.479183     -3.088363
  H      -1.610978      4.881577     -2.191648
  O      -1.079060      4.308936     -2.763691
  H       1.213934      1.396939     -2.442784
  O       0.763026      2.173431     -2.807796
  H      -2.121574     -0.323730     -2.283230
  O      -1.384140      0.146642     -2.701147
  H      -3.923339      2.660342     -2.092371
  O      -3.429602      2.285530     -2.837608
  H      -2.033235      1.829134     -0.162684
  O      -1.483798      2.416496     -0.702903
  H      -0.323209      2.032054     -5.208123
  O      -1.211091      2.191082     -4.852226
  H      -1.812442      1.645983     -5.381787
19
Coordinates from ORCA-job input E -1840.472859862341
  Co     -1.339974      2.238231     -2.766972
  H      -0.692811      2.601604     -0.169947
  H      -0.958468      4.788176     -3.596944
  H       1.216499      2.949413     -2.434422
  H      -1.171166     -0.350129     -3.505439
  H      -3.911390      1.488052     -3.087957
  H      -1.622502      4.881070     -2.201131
  O      -1.079458      4.309274     -2.763685
  H       1.217821      1.402069     -2.439457
  O       0.763552      2.176523     -2.804293
  H      -2.117994     -0.326707     -2.282325
  O      -1.383703      0.147459     -2.701498
  H      -3.921689      2.672676     -2.095144
  O      -3.429879      2.291498     -2.838328
  H      -2.033292      1.824568     -0.162542
  O      -1.480685      2.410818     -0.700708
  H      -0.323707      2.025914     -5.206156
  O      -1.211229      2.189544     -4.851328
  H      -1.814206      1.645068     -5.379738
19
Coordinates from ORCA-job input E -1840.472862381413
  Co     -1.339528      2.237572     -2.767261
  H      -0.687253      2.590397     -0.170281
  H      -0.961173      4.788034     -3.599502
  H       1.213254      2.954586     -2.431225
  H      -1.171980     -0.350140     -3.505257
  H      -3.915382      1.495556     -3.090009
  H      -1.627335      4.879458     -2.203925
  O      -1.080372      4.310105     -2.765232
  H       1.221463      1.406896     -2.437541
  O       0.764160      2.179804     -2.801798
  H      -2.116398     -0.326960     -2.279968
  O      -1.384096      0.148035     -2.701526
  H      -3.920984      2.680787     -2.097868
  O      -3.429897      2.296387     -2.839831
  H      -2.030868      1.818712     -0.162478
  O      -1.477961      2.406058     -0.699148
  H      -0.323858      2.021476     -5.205446
  O      -1.211331      2.186701     -4.851184
  H      -1.814744      1.641657     -5.378534
19
Coordinates from ORCA-job input E -1840.472864233966
  Co     -1.338991      2.237371     -2.767685
  H      -0.683736      2.585705     -0.170651
  H      -0.966084      4.789315     -3.601610
  H       1.211131      2.957521     -2.427916
  H      -1.172690     -0.350978     -3.503915
  H      -3.917212      1.501267     -3.092572
  H      -1.629152      4.877513     -2.203676
  O      -1.081468      4.310828     -2.766896
  H       1.224166      1.410301     -2.436215
  O       0.764728      2.182041     -2.800388
  H      -2.119155     -0.325183     -2.280128
  O      -1.385593      0.148501     -2.701096
  H      -3.920272      2.684961     -2.099052
  O      -3.429161      2.300020     -2.840731
  H      -2.026551      1.812589     -0.162483
  O      -1.475776      2.402907     -0.698094
  H      -0.323509      2.019900     -5.205620
  O      -1.211253      2.183730     -4.851383
  H      -1.813705      1.636813     -5.377900
19
Coordinates from ORCA-job input E -1840.472866538259
  Co     -1.338331      2.237425     -2.767948
  H      -0.681233      2.583772     -0.170952
  H      -0.970671      4.790231     -3.603081
  H       1.209854      2.959038     -2.425261
  H      -1.173556     -0.351740     -3.502115
  H      -3.917398      1.505242     -3.094688
  H      -1.631107      4.875663     -2.203348
  O      -1.082834      4.311137     -2.768132
  H       1.226232      1.412621     -2.435389
  O       0.765281      2.183426     -2.799813
  H      -2.124413     -0.322221     -2.281895
  O      -1.387547      0.148761     -2.700178
  H      -3.919302      2.686361     -2.098649
  O      -3.427839      2.302398     -2.840633
  H      -2.022320      1.807749     -0.162887
  O      -1.474000      2.401313     -0.697449
  H      -0.322590      2.019751     -5.206118
  O      -1.210636      2.181379     -4.851646
  H      -1.811874      1.632814     -5.377832
19
Coordinates from ORCA-job input E -1840.472869028303
  Co     -1.337865      2.237514     -2.767910
  H      -0.679763      2.583408     -0.171079
  H      -0.973489      4.790083     -3.603895
  H       1.209270      2.959667     -2.424101
  H      -1.174502     -0.352269     -3.500769
  H      -3.916893      1.507547     -3.096450
  H      -1.632841      4.874680     -2.203654
  O      -1.083995      4.311008     -2.768715
  H       1.227498      1.413834     -2.434915
  O       0.765635      2.183972     -2.799721
  H      -2.129254     -0.319925     -2.283729
  O      -1.389279      0.148660     -2.699275
  H      -3.918502      2.685662     -2.097157
  O      -3.426657      2.303492     -2.839840
  H      -2.019407      1.805133     -0.163317
  O      -1.472929      2.401145     -0.697068
  H      -0.321493      2.020512     -5.206556
  O      -1.209751      2.180222     -4.851779
  H      -1.810067      1.630776     -5.378082
19
Coordinates from ORCA-job input E -1840.472871228588
  Co     -1.337652      2.237491     -2.767655
  H      -0.678786      2.583308     -0.171141
  H      -0.974835      4.789206     -3.604428
  H       1.208860      2.960196     -2.423900
  H      -1.175881     -0.352665     -3.500160
  H      -3.916528      1.509081     -3.098363
  H      -1.633981      4.874508     -2.204321
  O      -1.084862      4.310651     -2.768953
  H       1.228354      1.414580     -2.434678
  O       0.765798      2.184228     -2.799688
  H      -2.132354     -0.318745     -2.284535
  O      -1.390558      0.148257     -2.698599
  H      -3.918072      2.684065     -2.095387
  O      -3.425917      2.303874     -2.838889
  H      -2.017630      1.803968     -0.163626
  O      -1.472346      2.401643     -0.696774
  H      -0.320431      2.021277     -5.206755
  O      -1.208783      2.179873     -4.851750
  H      -1.808679      1.630327     -5.378412
19
Coordinates from ORCA-job input E -1840.472872684003
  Co     -1.337672      2.237333     -2.767279
  H      -0.678103      2.583176     -0.171202
  H      -0.975218      4.788069     -3.604900
  H       1.208424      2.960878     -2.424198
  H      -1.177352     -0.353021     -3.500189
  H      -3.916619      1.510226     -3.100380
  H      -1.634332      4.874843     -2.205064
  O      -1.085243      4.310287     -2.769046
  H       1.228968      1.415160     -2.434511
  O       0.765812      2.184435     -2.799519
  H      -2.133627     -0.318615     -2.284367
  O      -1.391324      0.147703     -2.698269
  H      -3.918069      2.682407     -2.093903
  O      -3.425703      2.303907     -2.838121
  H      -2.016634      1.803554     -0.163697
  O      -1.472087      2.402257     -0.696479
  H      -0.319628      2.021628     -5.206686
  O      -1.207965      2.179986     -4.851561
  H      -1.807909      1.630906     -5.378645
19
Coordinates from ORCA-job input E -1840.472873241775
  Co     -1.337817      2.237124     -2.766971
  H      -0.677670      2.582816     -0.171288
  H      -0.975174      4.787266     -3.605312
  H       1.208031      2.961552     -2.424525
  H      -1.178143     -0.353254     -3.500491
  H      -3.917088      1.510775     -3.101470
  H      -1.634013      4.875311     -2.205479
  O      -1.085247      4.310094     -2.769130
  H       1.229346      1.415600     -2.434425
  O       0.765733      2.184663     -2.799245
  H      -2.133632     -0.319048     -2.284016
  O      -1.391559      0.147287     -2.698287
  H      -3.918303      2.681763     -2.093337
  O      -3.425877      2.303773     -2.837755
  H      -2.016351      1.803512     -0.163635
  O      -1.472024      2.402577     -0.696256
  H      -0.319244      2.021460     -5.206414
  O      -1.207521      2.180192     -4.851313
  H      -1.807729      1.631658     -5.378666
19
Coordinates from ORCA-job input E -1840.472873383741
  Co     -1.337958      2.236978     -2.766743
  H      -0.677570      2.583158     -0.171380
  H      -0.975013      4.786809     -3.605626
  H       1.207706      2.962079     -2.424710
  H      -1.178362     -0.353452     -3.500626
  H      -3.917540      1.511230     -3.102597
  H      -1.633405      4.875659     -2.205628
  O      -1.084911      4.310060     -2.769164
  H       1.229565      1.415956     -2.434299
  O       0.765651      2.184867     -2.799015
  H      -2.133619     -0.319300     -2.283954
  O      -1.391650      0.147067     -2.698367
  H      -3.918657      2.681135     -2.093021
  O      -3.426102      2.303648     -2.837597
  H      -2.015831      1.803067     -0.163471
  O      -1.472046      2.402644     -0.696068
  H      -0.319211      2.021009     -5.206138
  O      -1.207400      2.180273     -4.851054
  H      -1.807930      1.632235     -5.378558
