23
XYZ file generated by Avogadro.
Ni    -0.1004747369    1.5226988854   -0.0614285879
O     -0.0393537384    1.4888574372   -1.8747507162
H      0.5134289356    0.8546850956    2.0620462056
H      2.0411800963    1.8666291897    0.7092161164
H     -0.6673125278   -0.6046179742   -0.8225264429
H     -0.5015084803    3.6842865462    0.6238056251
H     -0.3002763416    3.6594058996   -0.9321206297
O      0.0728784260    3.3028352822   -0.0875485873
H     -0.9735563831    1.3324173054    2.0920168425
O     -0.0831134061    1.5735793396    1.7315565583
H      2.0379819790    1.8888051064   -0.8368744829
O      1.6825575845    1.3715913538   -0.0702408252
H     -0.8418932560   -0.5237879085    0.7224443370
O     -0.2234819250   -0.2649125656   -0.0066128419
H     -2.2253488257    2.4942689449   -0.4335127664
O     -1.8872505889    1.6812010532    0.0156319114
H     -2.3638179995    0.8961943352   -0.3500950282
H      0.5246828090    0.7307587511   -2.1738211182
B     -1.2056897877    1.4998709411   -2.7901709889
O     -1.9440785669    2.7704329775   -2.7517194809
O     -2.0946626432    0.3416204658   -2.6173174122
H     -2.3635234658    2.8456099730   -3.6456963449
H     -2.0756215552   -0.1188654455   -3.4937664717
