23
Coordinates from ORCA-job input
  Ni  -0.13654393930003      1.44521705835693     -0.09540409838587
  O   -0.14859473797651      1.09206946956276     -2.16500103183649
  H   0.61202225835160      1.68916257587932      2.43392100905565
  H   2.38451916285413      0.80080261381665      0.46480378599934
  H   -0.73635083734577     -1.14811234366327     -0.21335575600186
  H   -0.47907109047989      4.02268624958946      0.23990815387515
  H   -0.69347617704264      3.65832008868063     -1.26151325369071
  O   -0.14339225941785      3.46455411307637     -0.47801494598975
  H   -0.91699683040401      1.46248292385748      2.46304556643148
  O   -0.20226954326811      1.84474739605284      1.93079884547498
  H   2.35713511510058      2.31216770509471      0.13069674769889
  O   1.91732543222408      1.46921868508385     -0.05902215913686
  H   -0.01106822717804     -0.90692589336130      1.13005682601543
  O   -0.06517417602954     -0.59349233161301      0.21406012675423
  H   -2.70062711527502      2.15144873825286     -0.37315523948071
  O   -2.20209894086500      1.33353932057308     -0.22166067842872
  H   -2.70289257109015      0.82537694834422      0.43503360714138
  H   0.22192719360824      0.24227129235470     -2.44934114580194
  B   -1.21509483220106      1.52213934875497     -2.94923229321296
  O   -1.65401808044270      2.77980587081748     -2.65879426517567
  O   -1.68986175959598      0.68726745825361     -3.89543563834680
  H   -2.40546301052401      3.10325466605539     -3.17398325593770
  H   -2.40818943140229      1.03556303528014     -4.43989603612046
