23
Coordinates from ORCA-job input E -2141.646024747007
  Ni     -0.100475      1.522699     -0.061429
  O      -0.039354      1.488857     -1.874751
  H       0.513429      0.854685      2.062046
  H       2.041180      1.866629      0.709216
  H      -0.667313     -0.604618     -0.822526
  H      -0.501508      3.684287      0.623806
  H      -0.300276      3.659406     -0.932121
  O       0.072878      3.302835     -0.087549
  H      -0.973556      1.332417      2.092017
  O      -0.083113      1.573579      1.731557
  H       2.037982      1.888805     -0.836874
  O       1.682558      1.371591     -0.070241
  H      -0.841893     -0.523788      0.722444
  O      -0.223482     -0.264913     -0.006613
  H      -2.225349      2.494269     -0.433513
  O      -1.887251      1.681201      0.015632
  H      -2.363818      0.896194     -0.350095
  H       0.524683      0.730759     -2.173821
  B      -1.205690      1.499871     -2.790171
  O      -1.944079      2.770433     -2.751719
  O      -2.094663      0.341620     -2.617317
  H      -2.363523      2.845610     -3.645696
  H      -2.075622     -0.118865     -3.493766
23
Coordinates from ORCA-job input E -2141.718022333349
  Ni     -0.108622      1.521871     -0.063909
  O      -0.056459      1.486829     -1.913570
  H       0.506241      0.878858      2.116884
  H       2.086521      1.857527      0.683692
  H      -0.672986     -0.658660     -0.818752
  H      -0.487591      3.740762      0.603963
  H      -0.295571      3.711520     -0.928908
  O       0.066607      3.342394     -0.097580
  H      -0.958214      1.347618      2.143907
  O      -0.084066      1.578294      1.768793
  H       2.075654      1.878986     -0.837613
  O       1.714850      1.373489     -0.081178
  H      -0.837730     -0.588877      0.702765
  O      -0.236235     -0.306699     -0.014900
  H      -2.293664      2.477635     -0.426592
  O      -1.936338      1.679864      0.011711
  H      -2.423396      0.910171     -0.344070
  H       0.502823      0.739453     -2.220869
  B      -1.223190      1.499007     -2.767809
  O      -1.900987      2.751414     -2.742764
  O      -2.057873      0.339735     -2.643162
  H      -2.344785      2.848904     -3.610181
  H      -2.053243     -0.116530     -3.511344
23
Coordinates from ORCA-job input E -2141.775051293530
  Ni     -0.111361      1.520008     -0.066797
  O      -0.059808      1.483584     -1.965051
  H       0.501316      0.896394      2.184647
  H       2.146632      1.854439      0.673989
  H      -0.674491     -0.727144     -0.817823
  H      -0.482597      3.807614      0.585379
  H      -0.292512      3.772898     -0.934547
  O       0.062312      3.394029     -0.108723
  H      -0.952766      1.356624      2.202182
  O      -0.085952      1.582675      1.817856
  H       2.134468      1.874505     -0.836501
  O       1.765608      1.375761     -0.084585
  H      -0.838003     -0.665518      0.691087
  O      -0.244283     -0.362649     -0.020002
  H      -2.366120      2.468185     -0.428066
  O      -1.992819      1.679141      0.004796
  H      -2.491551      0.918490     -0.344139
  H       0.498614      0.742953     -2.277659
  B      -1.235404      1.496829     -2.766279
  O      -1.864725      2.733804     -2.738266
  O      -2.032300      0.345118     -2.664037
  H      -2.341994      2.866986     -3.577781
  H      -2.060519     -0.121163     -3.521164
23
Coordinates from ORCA-job input E -2141.812823933931
  Ni     -0.108789      1.517022     -0.065638
  O      -0.055810      1.479221     -2.013869
  H       0.498498      0.911902      2.256940
  H       2.211039      1.852624      0.672491
  H      -0.675617     -0.792578     -0.815290
  H      -0.478808      3.871192      0.570049
  H      -0.288619      3.828962     -0.942262
  O       0.059985      3.444923     -0.118151
  H      -0.950805      1.365427      2.259724
  O      -0.086631      1.586936      1.871341
  H       2.197679      1.870786     -0.832061
  O       1.822403      1.377750     -0.082114
  H      -0.840024     -0.738107      0.686691
  O      -0.251410     -0.419647     -0.020142
  H      -2.427710      2.462375     -0.429180
  O      -2.043691      1.679213      0.000991
  H      -2.552921      0.925072     -0.341985
  H       0.503145      0.744305     -2.330887
  B      -1.253089      1.494933     -2.766092
  O      -1.847758      2.729045     -2.746634
  O      -2.018988      0.340796     -2.699722
  H      -2.356710      2.894095     -3.557989
  H      -2.073623     -0.132683     -3.547695
23
Coordinates from ORCA-job input E -2141.836417611593
  Ni     -0.102017      1.513198     -0.063496
  O      -0.046331      1.473866     -2.059309
  H       0.492979      0.928203      2.328835
  H       2.274721      1.850249      0.677916
  H      -0.674085     -0.852182     -0.813265
  H      -0.474379      3.929923      0.554631
  H      -0.281668      3.876684     -0.954387
  O       0.059773      3.491354     -0.128645
  H      -0.955359      1.376802      2.309737
  O      -0.089970      1.592229      1.922315
  H       2.261602      1.865938     -0.825517
  O       1.880131      1.379096     -0.075388
  H      -0.842590     -0.801310      0.686199
  O      -0.257370     -0.473317     -0.018377
  H      -2.479231      2.455976     -0.437341
  O      -2.087358      1.677059     -0.007424
  H      -2.604458      0.926286     -0.345319
  H       0.512988      0.743329     -2.381328
  B      -1.273321      1.494240     -2.759117
  O      -1.841927      2.732246     -2.752578
  O      -2.011996      0.333746     -2.738071
  H      -2.387656      2.921231     -3.531351
  H      -2.090733     -0.141282     -3.580204
23
Coordinates from ORCA-job input E -2141.849770833118
  Ni     -0.092865      1.509661     -0.061886
  O      -0.033839      1.469299     -2.098956
  H       0.485865      0.946188      2.390983
  H       2.329435      1.844238      0.690195
  H      -0.672228     -0.901834     -0.813334
  H      -0.467698      3.980806      0.538083
  H      -0.271322      3.913009     -0.971191
  O       0.061587      3.530245     -0.141171
  H      -0.964741      1.392384      2.347741
  O      -0.095468      1.599120      1.964859
  H       2.320195      1.856988     -0.817319
  O       1.932311      1.378322     -0.065135
  H      -0.847025     -0.849599      0.688270
  O      -0.264568     -0.518431     -0.016570
  H      -2.517857      2.451662     -0.451791
  O      -2.121561      1.675089     -0.021148
  H      -2.644611      0.925922     -0.353566
  H       0.523893      0.741571     -2.426753
  B      -1.291318      1.494325     -2.741809
  O      -1.843113      2.734991     -2.747002
  O      -2.001911      0.325647     -2.778444
  H      -2.439812      2.932285     -3.483251
  H      -2.101604     -0.138322     -3.622289
23
Coordinates from ORCA-job input E -2141.856670610495
  Ni     -0.083372      1.507899     -0.060249
  O      -0.020940      1.463938     -2.125820
  H       0.477683      0.962592      2.434295
  H       2.367572      1.836780      0.705813
  H      -0.670603     -0.931842     -0.818051
  H      -0.459093      4.017768      0.521074
  H      -0.259205      3.933425     -0.991338
  O       0.064477      3.556601     -0.155259
  H      -0.976858      1.411466      2.369932
  O      -0.102306      1.606178      1.993417
  H       2.364036      1.845144     -0.808256
  O       1.970544      1.376892     -0.052742
  H      -0.852289     -0.878228      0.689781
  O      -0.272988     -0.547264     -0.017161
  H      -2.538562      2.452334     -0.466484
  O      -2.141757      1.675989     -0.035558
  H      -2.670203      0.926825     -0.359221
  H       0.530811      0.733765     -2.454922
  B      -1.300574      1.492947     -2.719464
  O      -1.843267      2.733740     -2.734162
  O      -1.985907      0.318683     -2.821615
  H      -2.511995      2.915272     -3.409043
  H      -2.103459     -0.117339     -3.676453
23
Coordinates from ORCA-job input E -2141.860657159341
  Ni     -0.075099      1.505032     -0.057885
  O      -0.009346      1.453121     -2.138588
  H       0.469830      0.980262      2.461493
  H       2.388765      1.834097      0.720560
  H      -0.664117     -0.950102     -0.817887
  H      -0.456185      4.037448      0.499965
  H      -0.254166      3.933951     -1.016395
  O       0.062333      3.567141     -0.173423
  H      -0.988534      1.434837      2.379112
  O      -0.109013      1.615500      2.008129
  H       2.390354      1.833805     -0.800124
  O       1.993167      1.377122     -0.040009
  H      -0.850965     -0.892782      0.696799
  O      -0.276479     -0.563003     -0.014021
  H      -2.546528      2.445290     -0.478918
  O      -2.149276      1.670459     -0.046349
  H      -2.681280      0.917837     -0.355445
  H       0.532096      0.714185     -2.463718
  B      -1.299163      1.494468     -2.703631
  O      -1.827545      2.738495     -2.727902
  O      -1.976073      0.326039     -2.865568
  H      -2.575731      2.889506     -3.321659
  H      -2.115299     -0.069141     -3.736019
23
Coordinates from ORCA-job input E -2141.863589404650
  Ni     -0.069482      1.498488     -0.052841
  O      -0.002230      1.433118     -2.140598
  H       0.467367      1.004814      2.481634
  H       2.399011      1.838023      0.730168
  H      -0.654043     -0.969345     -0.801243
  H      -0.462443      4.044574      0.470982
  H      -0.263199      3.915471     -1.048952
  O       0.050935      3.564140     -0.198656
  H      -0.994291      1.464781      2.385407
  O      -0.111565      1.630263      2.015795
  H       2.402149      1.822355     -0.796049
  O       2.004114      1.378905     -0.029059
  H      -0.840829     -0.901123      0.719382
  O      -0.274448     -0.573720      0.001470
  H      -2.552507      2.424597     -0.480475
  O      -2.150942      1.653900     -0.045485
  H      -2.685675      0.894854     -0.332390
  H       0.527533      0.683283     -2.459185
  B      -1.291442      1.498731     -2.699686
  O      -1.796935      2.750705     -2.725877
  O      -1.972631      0.346949     -2.929610
  H      -2.609314      2.875460     -3.235258
  H      -2.137388      0.014342     -3.820960
23
Coordinates from ORCA-job input E -2141.866251113529
  Ni     -0.067470      1.486567     -0.043228
  O      -0.003469      1.401157     -2.133934
  H       0.474565      1.040739      2.501076
  H       2.403651      1.847181      0.730384
  H      -0.643397     -0.998479     -0.757287
  H      -0.477326      4.043016      0.431316
  H      -0.289820      3.877319     -1.091362
  O       0.028747      3.548843     -0.233428
  H      -0.990279      1.504291      2.396104
  O      -0.106917      1.652955      2.021608
  H       2.401203      1.807374     -0.800102
  O       2.006350      1.380404     -0.022548
  H      -0.822720     -0.906184      0.767547
  O      -0.269201     -0.584604      0.037473
  H      -2.562329      2.391120     -0.464981
  O      -2.151539      1.627022     -0.027877
  H      -2.689909      0.859984     -0.283531
  H       0.516610      0.642603     -2.446854
  B      -1.281949      1.501549     -2.707171
  O      -1.762745      2.764025     -2.709247
  O      -1.964157      0.377814     -3.039150
  H      -2.611064      2.880479     -3.159445
  H      -2.155089      0.148389     -3.956847
23
Coordinates from ORCA-job input E -2141.868863829842
  Ni     -0.066827      1.474831     -0.033667
  O      -0.006663      1.370398     -2.124568
  H       0.481216      1.076506      2.516589
  H       2.405659      1.853590      0.727120
  H      -0.635326     -1.026308     -0.709750
  H      -0.490938      4.039276      0.387832
  H      -0.318668      3.833048     -1.135155
  O       0.006523      3.528810     -0.270608
  H      -0.985273      1.543122      2.403961
  O      -0.102131      1.675522      2.023318
  H       2.396003      1.790399     -0.805605
  O       2.003557      1.379637     -0.018462
  H      -0.806884     -0.906572      0.816885
  O      -0.265807     -0.591295      0.075261
  H      -2.569980      2.362576     -0.445299
  O      -2.150030      1.604083     -0.007810
  H      -2.694357      0.831763     -0.231090
  H       0.506025      0.605880     -2.433961
  B      -1.268857      1.499203     -2.720284
  O      -1.742536      2.766967     -2.675395
  O      -1.933207      0.403848     -3.158976
  H      -2.613954      2.876803     -3.081886
  H      -2.165797      0.301477     -4.089937
23
Coordinates from ORCA-job input E -2141.871605455917
  Ni     -0.067812      1.461900     -0.023198
  O      -0.012532      1.341422     -2.113614
  H       0.488300      1.108310      2.530573
  H       2.406509      1.860204      0.719567
  H      -0.623977     -1.057080     -0.657241
  H      -0.509886      4.032395      0.343976
  H      -0.356229      3.783182     -1.176306
  O      -0.021146      3.504566     -0.306805
  H      -0.978603      1.576149      2.411875
  O      -0.096793      1.693849      2.023583
  H       2.386942      1.774775     -0.813288
  O       1.997139      1.379202     -0.017295
  H      -0.785832     -0.907850      0.868490
  O      -0.259034     -0.597055      0.115051
  H      -2.580124      2.329179     -0.418802
  O      -2.148549      1.577272      0.017641
  H      -2.699066      0.800921     -0.172559
  H       0.491264      0.570711     -2.422043
  B      -1.251348      1.502443     -2.741867
  O      -1.716727      2.776533     -2.659430
  O      -1.895376      0.436765     -3.267631
  H      -2.598268      2.886202     -3.044469
  H      -2.187108      0.459570     -4.187697
23
Coordinates from ORCA-job input E -2141.874271617944
  Ni     -0.071404      1.448253     -0.010336
  O      -0.025805      1.317588     -2.099238
  H       0.498644      1.136665      2.542838
  H       2.407077      1.860961      0.702995
  H      -0.616425     -1.090012     -0.593575
  H      -0.530331      4.023520      0.297744
  H      -0.401793      3.724068     -1.215817
  O      -0.052342      3.474209     -0.342755
  H      -0.966270      1.605668      2.421922
  O      -0.087785      1.708611      2.021992
  H       2.370886      1.754035     -0.827001
  O       1.983943      1.374104     -0.022096
  H      -0.763416     -0.905550      0.927174
  O      -0.253940     -0.598840      0.160340
  H      -2.590755      2.299090     -0.379041
  O      -2.146112      1.553241      0.053489
  H      -2.706344      0.776568     -0.102380
  H       0.470629      0.543803     -2.412527
  B      -1.230836      1.510304     -2.774454
  O      -1.703500      2.785461     -2.644456
  O      -1.835898      0.473175     -3.388301
  H      -2.585312      2.897783     -3.029036
  H      -2.181165      0.620862     -4.278966
23
Coordinates from ORCA-job input E -2141.876267510964
  Ni     -0.071803      1.439609     -0.002119
  O      -0.032672      1.296785     -2.091701
  H       0.500632      1.157701      2.553653
  H       2.409494      1.862356      0.696601
  H      -0.604865     -1.112710     -0.553437
  H      -0.542908      4.019155      0.266467
  H      -0.430405      3.685751     -1.242012
  O      -0.074460      3.454429     -0.367186
  H      -0.963984      1.629518      2.425336
  O      -0.086010      1.718194      2.021023
  H       2.364352      1.740813     -0.833217
  O       1.978144      1.373741     -0.022223
  H      -0.744716     -0.904626      0.965415
  O      -0.249348     -0.600165      0.188873
  H      -2.597391      2.277579     -0.354947
  O      -2.144107      1.534981      0.073157
  H      -2.711061      0.758243     -0.053058
  H       0.454468      0.516651     -2.403453
  B      -1.214106      1.513693     -2.797266
  O      -1.686346      2.789889     -2.644537
  O      -1.787770      0.505760     -3.483473
  H      -2.577062      2.891677     -3.011522
  H      -2.206331      0.744541     -4.321861
23
Coordinates from ORCA-job input E -2141.877473865508
  Ni     -0.072604      1.440706      0.007788
  O      -0.044811      1.297733     -2.083241
  H       0.499720      1.148479      2.562785
  H       2.417784      1.849017      0.684267
  H      -0.597096     -1.125041     -0.522322
  H      -0.539681      4.026044      0.268125
  H      -0.455103      3.672243     -1.233879
  O      -0.087640      3.444979     -0.362531
  H      -0.959262      1.623753      2.431583
  O      -0.083405      1.703681      2.020665
  H       2.356195      1.732810     -0.841154
  O       1.966287      1.371159     -0.029366
  H      -0.725202     -0.898960      0.989601
  O      -0.246953     -0.587004      0.205337
  H      -2.599876      2.283670     -0.315117
  O      -2.138455      1.537292      0.096440
  H      -2.721454      0.769391     -0.007922
  H       0.431941      0.511912     -2.398927
  B      -1.193266      1.521176     -2.839580
  O      -1.697197      2.792014     -2.690843
  O      -1.714416      0.503705     -3.550304
  H      -2.587465      2.882478     -3.061910
  H      -2.226297      0.792328     -4.320979
23
Coordinates from ORCA-job input E -2141.878624359997
  Ni     -0.067085      1.442142     -0.001501
  O      -0.023394      1.275028     -2.096273
  H       0.481831      1.161175      2.566219
  H       2.419443      1.861015      0.704759
  H      -0.586354     -1.122341     -0.551003
  H      -0.539757      4.031474      0.259140
  H      -0.446575      3.684475     -1.250238
  O      -0.089945      3.453212     -0.375534
  H      -0.981998      1.643505      2.416171
  O      -0.099504      1.711880      2.018381
  H       2.373931      1.740494     -0.829208
  O       1.980573      1.384482     -0.016976
  H      -0.725419     -0.906768      0.971954
  O      -0.247731     -0.594154      0.188078
  H      -2.603200      2.274655     -0.340516
  O      -2.142166      1.527339      0.068950
  H      -2.720994      0.754548     -0.020084
  H       0.440115      0.473669     -2.390286
  B      -1.182426      1.512546     -2.826727
  O      -1.650330      2.793151     -2.686370
  O      -1.718105      0.521536     -3.562061
  H      -2.574332      2.863657     -2.969867
  H      -2.314829      0.806846     -4.268492
23
Coordinates from ORCA-job input E -2141.878901064241
  Ni     -0.068190      1.439280      0.003238
  O      -0.029957      1.264871     -2.092739
  H       0.477227      1.161303      2.573204
  H       2.423339      1.857910      0.696515
  H      -0.575429     -1.138045     -0.524649
  H      -0.541210      4.032963      0.252653
  H      -0.477327      3.666289     -1.252432
  O      -0.107578      3.442045     -0.381113
  H      -0.982309      1.647552      2.417099
  O      -0.100852      1.705574      2.015735
  H       2.368233      1.738891     -0.834935
  O       1.972865      1.387345     -0.021869
  H      -0.702621     -0.907229      0.993589
  O      -0.241210     -0.589618      0.202233
  H      -2.609485      2.265297     -0.318867
  O      -2.140102      1.518047      0.080173
  H      -2.727293      0.749672      0.015319
  H       0.409527      0.448730     -2.384022
  B      -1.162806      1.524333     -2.857884
  O      -1.631462      2.812618     -2.726507
  O      -1.668073      0.538270     -3.616742
  H      -2.562602      2.886106     -2.985209
  H      -2.340942      0.841362     -4.244276
23
Coordinates from ORCA-job input E -2141.879549704121
  Ni     -0.059111      1.460764     -0.018575
  O       0.005666      1.241988     -2.114099
  H       0.431287      1.129526      2.570209
  H       2.436528      1.861086      0.709376
  H      -0.558137     -1.114304     -0.589697
  H      -0.520174      4.061559      0.282321
  H      -0.449289      3.738650     -1.229156
  O      -0.096934      3.474386     -0.363153
  H      -1.022118      1.629011      2.383699
  O      -0.131588      1.677217      2.000398
  H       2.395143      1.765796     -0.825567
  O       1.983547      1.411051     -0.021532
  H      -0.694595     -0.914887      0.932803
  O      -0.240504     -0.571728      0.146948
  H      -2.610479      2.300831     -0.348458
  O      -2.136673      1.541515      0.019910
  H      -2.739590      0.783945     -0.025836
  H       0.426163      0.405281     -2.375197
  B      -1.157211      1.502181     -2.834444
  O      -1.624547      2.784140     -2.691103
  O      -1.708275      0.481167     -3.518350
  H      -2.552646      2.904839     -2.938022
  H      -2.394722      0.739550     -4.143963
23
Coordinates from ORCA-job input E -2141.880030066692
  Ni     -0.059978      1.454504     -0.021616
  O       0.008793      1.207979     -2.116202
  H       0.429343      1.145427      2.574780
  H       2.433732      1.881377      0.709838
  H      -0.538279     -1.129877     -0.585562
  H      -0.534265      4.055207      0.275876
  H      -0.487366      3.729083     -1.239738
  O      -0.122985      3.467947     -0.376707
  H      -1.029991      1.634245      2.379021
  O      -0.138543      1.680705      1.998663
  H       2.393708      1.783837     -0.828165
  O       1.985620      1.429806     -0.022366
  H      -0.664229     -0.929074      0.942075
  O      -0.225438     -0.582047      0.150000
  H      -2.625992      2.268709     -0.347714
  O      -2.141532      1.511982      0.013139
  H      -2.739896      0.749939     -0.012160
  H       0.405042      0.357230     -2.363484
  B      -1.155196      1.503967     -2.820515
  O      -1.540416      2.811858     -2.719779
  O      -1.762801      0.505190     -3.490414
  H      -2.458833      2.977712     -2.976470
  H      -2.448753      0.777859     -4.113985
23
Coordinates from ORCA-job input E -2141.880415153433
  Ni     -0.061250      1.450471     -0.022155
  O       0.006907      1.186893     -2.116181
  H       0.421860      1.147743      2.580272
  H       2.435801      1.882428      0.705505
  H      -0.528493     -1.149094     -0.563323
  H      -0.526781      4.054539      0.279956
  H      -0.536096      3.716361     -1.237548
  O      -0.147027      3.458403     -0.382709
  H      -1.034956      1.638731      2.374953
  O      -0.143715      1.673754      1.993953
  H       2.388174      1.802549     -0.832878
  O       1.980563      1.443646     -0.029393
  H      -0.614189     -0.938898      0.964265
  O      -0.211075     -0.583643      0.157668
  H      -2.639298      2.253901     -0.323266
  O      -2.142146      1.492404      0.010124
  H      -2.745386      0.734083      0.013788
  H       0.373149      0.322309     -2.357246
  B      -1.150944      1.507651     -2.822780
  O      -1.495558      2.827278     -2.743158
  O      -1.783321      0.522812     -3.488312
  H      -2.389451      3.028622     -3.055674
  H      -2.475024      0.820620     -4.097346
23
Coordinates from ORCA-job input E -2141.880775431502
  Ni     -0.061978      1.447633     -0.024882
  O       0.009417      1.178429     -2.119343
  H       0.413833      1.157576      2.584470
  H       2.438787      1.868820      0.707274
  H      -0.535832     -1.164687     -0.539655
  H      -0.498763      4.057175      0.283761
  H      -0.567898      3.705811     -1.235163
  O      -0.155580      3.451221     -0.389061
  H      -1.041079      1.649266      2.368574
  O      -0.149711      1.673544      1.987808
  H       2.386043      1.815007     -0.832238
  O       1.976955      1.448050     -0.033506
  H      -0.571251     -0.944225      0.986780
  O      -0.206189     -0.585026      0.164286
  H      -2.647125      2.258151     -0.294896
  O      -2.142380      1.484916     -0.002236
  H      -2.751930      0.732229      0.015993
  H       0.363043      0.309313     -2.362735
  B      -1.147389      1.506307     -2.826211
  O      -1.495081      2.822630     -2.730354
  O      -1.774913      0.539696     -3.521726
  H      -2.376309      3.026132     -3.075682
  H      -2.482923      0.855597     -4.102742
23
Coordinates from ORCA-job input E -2141.881127150863
  Ni     -0.063363      1.443414     -0.031895
  O       0.014563      1.165784     -2.127332
  H       0.400524      1.177260      2.590236
  H       2.442705      1.851555      0.711899
  H      -0.540125     -1.186699     -0.511494
  H      -0.462163      4.061665      0.284944
  H      -0.600240      3.696885     -1.231185
  O      -0.161500      3.445187     -0.398104
  H      -1.054533      1.659600      2.358253
  O      -0.162196      1.677155      1.979471
  H       2.386514      1.834275     -0.828269
  O       1.975076      1.453088     -0.037539
  H      -0.516929     -0.953445      1.011616
  O      -0.197135     -0.590816      0.172064
  H      -2.659780      2.256657     -0.271226
  O      -2.145028      1.472183     -0.031785
  H      -2.758871      0.723711     -0.002378
  H       0.353526      0.291330     -2.375289
  B      -1.142966      1.508630     -2.826965
  O      -1.486768      2.824800     -2.715010
  O      -1.784238      0.557564     -3.532581
  H      -2.355585      3.041018     -3.082207
  H      -2.499742      0.882766     -4.096710
23
Coordinates from ORCA-job input E -2141.881492775122
  Ni     -0.066984      1.436179     -0.037128
  O       0.011580      1.161362     -2.134863
  H       0.394287      1.210235      2.597254
  H       2.445969      1.822844      0.716939
  H      -0.548316     -1.211966     -0.470617
  H      -0.417550      4.063973      0.285025
  H      -0.625338      3.683027     -1.224378
  O      -0.158048      3.437426     -0.405315
  H      -1.064084      1.673731      2.353472
  O      -0.171952      1.690166      1.973752
  H       2.384316      1.848002     -0.822562
  O       1.972488      1.448074     -0.041223
  H      -0.463336     -0.960208      1.047370
  O      -0.189122     -0.600539      0.190324
  H      -2.674220      2.250164     -0.243380
  O      -2.149307      1.457290     -0.061796
  H      -2.763344      0.709142     -0.027494
  H       0.343676      0.287204     -2.396071
  B      -1.140922      1.517934     -2.835598
  O      -1.495586      2.831428     -2.701779
  O      -1.780501      0.580940     -3.561647
  H      -2.361817      3.047519     -3.075043
  H      -2.500143      0.909638     -4.116727
23
Coordinates from ORCA-job input E -2141.881823203553
  Ni     -0.073078      1.425997     -0.042260
  O       0.000182      1.150460     -2.141298
  H       0.392310      1.255837      2.603487
  H       2.446502      1.795258      0.719798
  H      -0.547788     -1.238977     -0.423960
  H      -0.381252      4.061666      0.281525
  H      -0.650599      3.666063     -1.218158
  O      -0.154822      3.427674     -0.413418
  H      -1.073367      1.688752      2.350940
  O      -0.182264      1.710647      1.968718
  H       2.377773      1.861797     -0.818156
  O       1.968913      1.441208     -0.045953
  H      -0.406960     -0.965999      1.088837
  O      -0.175830     -0.613636      0.215975
  H      -2.693883      2.225465     -0.221863
  O      -2.155427      1.431278     -0.093822
  H      -2.762628      0.677995     -0.050563
  H       0.320874      0.275265     -2.414793
  B      -1.140524      1.533724     -2.845393
  O      -1.483356      2.850515     -2.701727
  O      -1.788896      0.611400     -3.582951
  H      -2.350742      3.076835     -3.065965
  H      -2.503392      0.944340     -4.140486
23
Coordinates from ORCA-job input E -2141.882142778503
  Ni     -0.081290      1.415011     -0.045529
  O      -0.023861      1.147970     -2.145048
  H       0.398100      1.311340      2.606812
  H       2.444867      1.755030      0.723288
  H      -0.546788     -1.262404     -0.371194
  H      -0.343271      4.054566      0.286384
  H      -0.659858      3.651864     -1.204259
  O      -0.139130      3.418294     -0.413232
  H      -1.077843      1.704572      2.353911
  O      -0.189875      1.738901      1.965217
  H       2.366849      1.871023     -0.811134
  O       1.963537      1.424271     -0.050631
  H      -0.352959     -0.966174      1.136081
  O      -0.161101     -0.626190      0.249036
  H      -2.714017      2.193766     -0.204868
  O      -2.160686      1.403181     -0.126410
  H      -2.754983      0.640701     -0.067348
  H       0.292493      0.276593     -2.435043
  B      -1.149300      1.553461     -2.860080
  O      -1.489119      2.870287     -2.707425
  O      -1.790231      0.640863     -3.616371
  H      -2.358990      3.100887     -3.063302
  H      -2.490798      0.975753     -4.190340
23
Coordinates from ORCA-job input E -2141.882392654084
  Ni     -0.089283      1.405436     -0.050346
  O      -0.048074      1.133259     -2.147596
  H       0.401972      1.366654      2.605900
  H       2.441604      1.721163      0.725580
  H      -0.539448     -1.280772     -0.327672
  H      -0.324083      4.045817      0.283805
  H      -0.668280      3.640194     -1.199631
  O      -0.130780      3.408968     -0.418394
  H      -1.084461      1.718138      2.353768
  O      -0.199968      1.765628      1.958971
  H       2.354747      1.884943     -0.804401
  O       1.957603      1.413175     -0.055889
  H      -0.302569     -0.964974      1.173709
  O      -0.144679     -0.635273      0.276617
  H      -2.732928      2.153726     -0.195152
  O      -2.164472      1.370875     -0.157867
  H      -2.742453      0.599407     -0.065516
  H       0.255506      0.259930     -2.443424
  B      -1.158201      1.568112     -2.868371
  O      -1.474948      2.887757     -2.705624
  O      -1.798033      0.672206     -3.645349
  H      -2.340092      3.140508     -3.057799
  H      -2.486935      1.018687     -4.226803
23
Coordinates from ORCA-job input E -2141.882717211283
  Ni     -0.095403      1.404317     -0.054202
  O      -0.073547      1.130191     -2.147370
  H       0.410512      1.408769      2.600826
  H       2.438763      1.676334      0.732936
  H      -0.538818     -1.280662     -0.310212
  H      -0.311372      4.039313      0.295704
  H      -0.647299      3.648862     -1.189683
  O      -0.109270      3.409695     -0.410787
  H      -1.086183      1.721676      2.357873
  O      -0.206548      1.786061      1.955284
  H       2.345701      1.900022     -0.789486
  O       1.952581      1.398680     -0.058349
  H      -0.275074     -0.960933      1.189563
  O      -0.136038     -0.635063      0.288473
  H      -2.742344      2.131573     -0.188204
  O      -2.163854      1.354868     -0.185438
  H      -2.724092      0.577839     -0.044139
  H       0.230254      0.257945     -2.443616
  B      -1.176643      1.572379     -2.876109
  O      -1.497517      2.886030     -2.698613
  O      -1.788313      0.681287     -3.681396
  H      -2.351165      3.153286     -3.067106
  H      -2.472586      1.031097     -4.267434
23
Coordinates from ORCA-job input E -2141.883075423153
  Ni     -0.099745      1.408012     -0.057512
  O      -0.090172      1.119016     -2.144915
  H       0.420266      1.433105      2.594182
  H       2.436464      1.643751      0.738559
  H      -0.540926     -1.270933     -0.315877
  H      -0.323589      4.035511      0.298244
  H      -0.634001      3.661153     -1.190453
  O      -0.102355      3.414019     -0.410027
  H      -1.084806      1.715281      2.363656
  O      -0.210362      1.795092      1.953319
  H       2.338505      1.922355     -0.774857
  O       1.948431      1.394851     -0.060892
  H      -0.266968     -0.960369      1.184282
  O      -0.133460     -0.629584      0.284416
  H      -2.745530      2.118423     -0.175726
  O      -2.162586      1.345196     -0.198445
  H      -2.705125      0.569386      0.005253
  H       0.211371      0.242643     -2.429550
  B      -1.188180      1.565975     -2.880620
  O      -1.504541      2.875928     -2.689778
  O      -1.775971      0.683623     -3.713572
  H      -2.336615      3.169051     -3.085811
  H      -2.468361      1.042079     -4.285363
23
Coordinates from ORCA-job input E -2141.883394377509
  Ni     -0.103862      1.413067     -0.058857
  O      -0.100790      1.111916     -2.141247
  H       0.437693      1.446712      2.586841
  H       2.434870      1.611414      0.743670
  H      -0.553650     -1.257337     -0.327962
  H      -0.345015      4.031543      0.296964
  H      -0.627639      3.670792     -1.195440
  O      -0.101601      3.419871     -0.412935
  H      -1.074861      1.700149      2.376695
  O      -0.207806      1.798154      1.955080
  H       2.332552      1.949728     -0.756732
  O       1.945107      1.393381     -0.063626
  H      -0.274233     -0.962386      1.171380
  O      -0.137746     -0.623344      0.274826
  H      -2.744103      2.117480     -0.152267
  O      -2.162908      1.343810     -0.198585
  H      -2.687533      0.574877      0.069355
  H       0.205793      0.233927     -2.415493
  B      -1.193660      1.555604     -2.888903
  O      -1.519673      2.860110     -2.683205
  O      -1.755097      0.683241     -3.750527
  H      -2.326148      3.171598     -3.115617
  H      -2.457943      1.049257     -4.304900
23
Coordinates from ORCA-job input E -2141.883725993881
  Ni     -0.109711      1.415763     -0.059333
  O      -0.107124      1.103373     -2.138136
  H       0.461555      1.456274      2.578795
  H       2.433358      1.582306      0.745641
  H      -0.574841     -1.246959     -0.334854
  H      -0.373152      4.025117      0.289976
  H      -0.638307      3.671288     -1.205203
  O      -0.110784      3.424054     -0.422632
  H      -1.057818      1.679495      2.396031
  O      -0.200797      1.798459      1.959391
  H       2.325172      1.982893     -0.737742
  O       1.941851      1.395260     -0.068471
  H      -0.285678     -0.967176      1.160392
  O      -0.145208     -0.620615      0.266834
  H      -2.742288      2.120348     -0.118577
  O      -2.167642      1.343585     -0.189910
  H      -2.671977      0.586327      0.143676
  H       0.206485      0.225344     -2.405300
  B      -1.189371      1.547227     -2.901827
  O      -1.526835      2.847738     -2.684118
  O      -1.733571      0.688312     -3.787662
  H      -2.307558      3.173443     -3.151573
  H      -2.444013      1.061709     -4.326883
23
Coordinates from ORCA-job input E -2141.884046615195
  Ni     -0.117306      1.416130     -0.059792
  O      -0.110185      1.095843     -2.136306
  H       0.490414      1.461810      2.568873
  H       2.431373      1.554978      0.745101
  H      -0.605388     -1.238358     -0.336631
  H      -0.402601      4.015402      0.282196
  H      -0.658800      3.664170     -1.216496
  O      -0.123543      3.427576     -0.435455
  H      -1.034887      1.654781      2.419948
  O      -0.190394      1.797307      1.965693
  H       2.316268      2.020126     -0.717203
  O       1.939081      1.398650     -0.075265
  H      -0.300210     -0.972766      1.152960
  O      -0.155611     -0.621909      0.261114
  H      -2.738788      2.129969     -0.079800
  O      -2.176456      1.346950     -0.178640
  H      -2.657558      0.605039      0.218575
  H       0.214785      0.221149     -2.401943
  B      -1.177851      1.542242     -2.916941
  O      -1.533343      2.837719     -2.688677
  O      -1.711030      0.695828     -3.821261
  H      -2.293345      3.168681     -3.185669
  H      -2.422881      1.072247     -4.355865
23
Coordinates from ORCA-job input E -2141.884257507639
  Ni     -0.126491      1.413201     -0.061136
  O      -0.118923      1.090000     -2.135847
  H       0.515535      1.473145      2.557993
  H       2.428186      1.521320      0.740981
  H      -0.634908     -1.234375     -0.325261
  H      -0.419768      4.003743      0.278489
  H      -0.678973      3.651385     -1.221510
  O      -0.130545      3.428005     -0.445127
  H      -1.014440      1.636949      2.440298
  O      -0.182468      1.800321      1.969801
  H       2.303949      2.055344     -0.695443
  O       1.934687      1.398515     -0.084525
  H      -0.301411     -0.974683      1.157904
  O      -0.162540     -0.626327      0.263888
  H      -2.733572      2.136639     -0.045475
  O      -2.186311      1.347353     -0.176047
  H      -2.641753      0.622798      0.279412
  H       0.216292      0.220646     -2.406670
  B      -1.169646      1.543972     -2.931852
  O      -1.545019      2.832604     -2.691674
  O      -1.685586      0.707130     -3.855109
  H      -2.291956      3.164085     -3.207800
  H      -2.392591      1.081795     -4.396771
23
Coordinates from ORCA-job input E -2141.884369358759
  Ni     -0.131971      1.410219     -0.061882
  O      -0.122665      1.086646     -2.135205
  H       0.535448      1.469545      2.547427
  H       2.425627      1.498819      0.736275
  H      -0.659894     -1.227172     -0.321022
  H      -0.439022      3.993003      0.274998
  H      -0.691133      3.637425     -1.227337
  O      -0.135174      3.428460     -0.451646
  H      -0.997129      1.619207      2.453992
  O      -0.173868      1.798005      1.973546
  H       2.293685      2.087934     -0.676782
  O       1.933112      1.401687     -0.093279
  H      -0.308920     -0.973367      1.160167
  O      -0.168035     -0.630843      0.264184
  H      -2.725179      2.153241     -0.032523
  O      -2.193844      1.353635     -0.169986
  H      -2.635699      0.644204      0.322401
  H       0.225068      0.224574     -2.413070
  B      -1.163494      1.545370     -2.939017
  O      -1.552174      2.828633     -2.691878
  O      -1.670423      0.709631     -3.868457
  H      -2.297112      3.154693     -3.214567
  H      -2.365456      1.080016     -4.427826
23
Coordinates from ORCA-job input E -2141.884441336273
  Ni     -0.136777      1.406838     -0.065505
  O      -0.133577      1.078625     -2.136802
  H       0.537419      1.480128      2.541597
  H       2.424491      1.463914      0.729169
  H      -0.669617     -1.227698     -0.304796
  H      -0.435617      3.987944      0.277913
  H      -0.699100      3.630298     -1.222222
  O      -0.132994      3.426788     -0.451897
  H      -0.997326      1.613902      2.454408
  O      -0.177878      1.800405      1.970606
  H       2.282949      2.118873     -0.653890
  O       1.929270      1.403320     -0.102168
  H      -0.284378     -0.969652      1.170781
  O      -0.162945     -0.633639      0.269783
  H      -2.717445      2.152665     -0.029934
  O      -2.197817      1.348316     -0.182954
  H      -2.626595      0.658277      0.347053
  H       0.213831      0.218528     -2.420042
  B      -1.167647      1.547733     -2.944287
  O      -1.555195      2.828623     -2.690872
  O      -1.662329      0.714774     -3.882900
  H      -2.294771      3.162942     -3.215841
  H      -2.354207      1.081661     -4.448684
23
Coordinates from ORCA-job input E -2141.884552864670
  Ni     -0.133987      1.404542     -0.066516
  O      -0.130178      1.077552     -2.137304
  H       0.537482      1.457217      2.536803
  H       2.426930      1.445893      0.722474
  H      -0.680132     -1.219654     -0.303923
  H      -0.440245      3.985745      0.278435
  H      -0.696814      3.619694     -1.222334
  O      -0.129598      3.426725     -0.449709
  H      -0.997450      1.601403      2.448806
  O      -0.175509      1.789822      1.969983
  H       2.277164      2.152284     -0.635118
  O       1.932039      1.412421     -0.110600
  H      -0.281049     -0.961200      1.172609
  O      -0.159185     -0.635768      0.268074
  H      -2.705823      2.177765     -0.061321
  O      -2.198283      1.360024     -0.181302
  H      -2.643104      0.681655      0.350926
  H       0.225239      0.224361     -2.430313
  B      -1.168482      1.546793     -2.940108
  O      -1.554206      2.827231     -2.686766
  O      -1.664762      0.704516     -3.868953
  H      -2.309912      3.152075     -3.194856
  H      -2.348389      1.062467     -4.450471
23
Coordinates from ORCA-job input E -2141.884652863573
  Ni     -0.131333      1.403944     -0.068830
  O      -0.129841      1.073983     -2.138675
  H       0.529737      1.451331      2.535734
  H       2.429824      1.420099      0.717904
  H      -0.681994     -1.217157     -0.297842
  H      -0.434532      3.988353      0.278041
  H      -0.693413      3.617747     -1.220895
  O      -0.125520      3.426330     -0.448436
  H      -1.005209      1.597715      2.439500
  O      -0.180090      1.785514      1.965981
  H       2.273926      2.180001     -0.611100
  O       1.933082      1.419146     -0.114763
  H      -0.263707     -0.955744      1.174169
  O      -0.151272     -0.634989      0.266822
  H      -2.698085      2.184464     -0.080763
  O      -2.196497      1.361250     -0.187896
  H      -2.650890      0.693215      0.349083
  H       0.225494      0.222122     -2.435295
  B      -1.173562      1.541932     -2.937461
  O      -1.553629      2.823191     -2.682600
  O      -1.670793      0.700468     -3.866202
  H      -2.311579      3.152157     -3.184734
  H      -2.358370      1.058492     -4.443227
23
Coordinates from ORCA-job input E -2141.884840230821
  Ni     -0.125486      1.404034     -0.072373
  O      -0.128520      1.069792     -2.141151
  H       0.515621      1.447075      2.535225
  H       2.435895      1.368220      0.709804
  H      -0.682072     -1.213874     -0.286127
  H      -0.423585      3.996535      0.271727
  H      -0.683247      3.617030     -1.223294
  O      -0.117886      3.425780     -0.449275
  H      -1.018743      1.593589      2.422941
  O      -0.188504      1.780811      1.958224
  H       2.270832      2.227198     -0.559029
  O       1.935463      1.430575     -0.118442
  H      -0.234667     -0.947022      1.174686
  O      -0.135260     -0.632110      0.263601
  H      -2.687655      2.189327     -0.106585
  O      -2.192509      1.360245     -0.196582
  H      -2.665414      0.703463      0.337871
  H       0.225195      0.218467     -2.441851
  B      -1.182272      1.531207     -2.933379
  O      -1.554914      2.814992     -2.677069
  O      -1.684915      0.695330     -3.863460
  H      -2.312581      3.152527     -3.173691
  H      -2.383029      1.060372     -4.423258
23
Coordinates from ORCA-job input E -2141.884989625293
  Ni     -0.121867      1.403731     -0.075565
  O      -0.129256      1.066018     -2.143481
  H       0.509165      1.449382      2.532326
  H       2.440530      1.314101      0.697526
  H      -0.684712     -1.210072     -0.274118
  H      -0.418697      4.002659      0.261843
  H      -0.674520      3.614586     -1.230459
  O      -0.112096      3.425521     -0.453690
  H      -1.025480      1.588062      2.412513
  O      -0.193880      1.779666      1.951971
  H       2.266530      2.271043     -0.500074
  O       1.937025      1.440895     -0.121369
  H      -0.212022     -0.939199      1.175247
  O      -0.120894     -0.630561      0.260914
  H      -2.680257      2.190878     -0.120467
  O      -2.191318      1.357181     -0.201505
  H      -2.676354      0.708880      0.332273
  H       0.224074      0.215418     -2.447232
  B      -1.187734      1.524043     -2.931679
  O      -1.556666      2.809651     -2.674466
  O      -1.696070      0.693510     -3.863100
  H      -2.313719      3.152697     -3.168035
  H      -2.400038      1.065475     -4.410858
23
Coordinates from ORCA-job input E -2141.885150960893
  Ni     -0.119705      1.403680     -0.078494
  O      -0.131888      1.064120     -2.146089
  H       0.510525      1.461656      2.527131
  H       2.442520      1.256957      0.684952
  H      -0.687441     -1.205740     -0.264018
  H      -0.416865      4.008739      0.246638
  H      -0.662190      3.613619     -1.244309
  O      -0.106168      3.425672     -0.462363
  H      -1.025317      1.583570      2.407617
  O      -0.196100      1.783969      1.946429
  H       2.263513      2.308688     -0.430666
  O       1.938078      1.449144     -0.120367
  H      -0.196893     -0.932487      1.174101
  O      -0.106990     -0.629651      0.257310
  H      -2.678711      2.185518     -0.121587
  O      -2.192145      1.350349     -0.201795
  H      -2.684955      0.702993      0.325938
  H       0.221233      0.213064     -2.449538
  B      -1.190813      1.520315     -2.932150
  O      -1.560691      2.807180     -2.675127
  O      -1.706184      0.695253     -3.864881
  H      -2.317561      3.151540     -3.167781
  H      -2.413506      1.075418     -4.402438
23
Coordinates from ORCA-job input E -2141.885312815398
  Ni     -0.120371      1.403200     -0.081966
  O      -0.137594      1.063041     -2.149275
  H       0.519745      1.480105      2.518052
  H       2.440366      1.200736      0.670857
  H      -0.693180     -1.199899     -0.255482
  H      -0.416188      4.011595      0.233041
  H      -0.652183      3.612757     -1.257832
  O      -0.100647      3.426171     -0.471964
  H      -1.018432      1.579523      2.408374
  O      -0.195228      1.791913      1.941744
  H       2.259770      2.339014     -0.355971
  O       1.937617      1.455293     -0.118064
  H      -0.184515     -0.925932      1.173082
  O      -0.095333     -0.630253      0.253607
  H      -2.680055      2.178169     -0.116399
  O      -2.195482      1.342202     -0.201573
  H      -2.688691      0.694875      0.326029
  H       0.216576      0.211822     -2.451047
  B      -1.193121      1.521568     -2.935113
  O      -1.566569      2.807825     -2.677747
  O      -1.711818      0.698540     -3.868617
  H      -2.324875      3.149483     -3.169962
  H      -2.418045      1.081817     -4.405261
23
Coordinates from ORCA-job input E -2141.885447202094
  Ni     -0.123699      1.403083     -0.086071
  O      -0.145889      1.062906     -2.153321
  H       0.535846      1.504170      2.505237
  H       2.433586      1.144455      0.656076
  H      -0.701161     -1.192646     -0.249403
  H      -0.414608      4.012124      0.223473
  H      -0.647396      3.614357     -1.268402
  O      -0.097421      3.427223     -0.481305
  H      -1.005376      1.577043      2.413979
  O      -0.191454      1.802629      1.937372
  H       2.256204      2.361194     -0.277153
  O       1.935155      1.459973     -0.113435
  H      -0.171199     -0.919667      1.170976
  O      -0.086087     -0.631328      0.248673
  H      -2.684886      2.168484     -0.105938
  O      -2.200704      1.333161     -0.200814
  H      -2.687411      0.684543      0.331524
  H       0.208449      0.210412     -2.450600
  B      -1.195643      1.527053     -2.940759
  O      -1.572871      2.811571     -2.683258
  O      -1.713624      0.701765     -3.873704
  H      -2.331552      3.148836     -3.177975
  H      -2.416513      1.082224     -4.416657
23
Coordinates from ORCA-job input E -2141.885535669899
  Ni     -0.126618      1.403640     -0.090091
  O      -0.152093      1.060808     -2.156648
  H       0.546492      1.518851      2.493985
  H       2.429117      1.094532      0.631838
  H      -0.709599     -1.185066     -0.240884
  H      -0.412236      4.011919      0.222077
  H      -0.651198      3.615868     -1.269967
  O      -0.098181      3.428413     -0.485227
  H      -0.997045      1.571198      2.416221
  O      -0.190059      1.806975      1.932889
  H       2.250374      2.380296     -0.205275
  O       1.931766      1.468435     -0.111931
  H      -0.148748     -0.911823      1.169710
  O      -0.077965     -0.630653      0.244081
  H      -2.684493      2.167296     -0.108213
  O      -2.204334      1.329546     -0.203577
  H      -2.686816      0.688011      0.341218
  H       0.200931      0.207198     -2.451479
  B      -1.200109      1.528772     -2.945286
  O      -1.575899      2.812119     -2.686090
  O      -1.714070      0.700578     -3.878058
  H      -2.331523      3.150930     -3.184593
  H      -2.415951      1.075722     -4.426188
23
Coordinates from ORCA-job input E -2141.885602758462
  Ni     -0.130615      1.406331     -0.094027
  O      -0.158059      1.061136     -2.161228
  H       0.564831      1.544008      2.480171
  H       2.419996      1.042149      0.610455
  H      -0.716397     -1.178133     -0.237132
  H      -0.408483      4.013363      0.220348
  H      -0.656479      3.624909     -1.273585
  O      -0.103408      3.430218     -0.491052
  H      -0.980760      1.567383      2.423761
  O      -0.184907      1.814844      1.928063
  H       2.249393      2.391070     -0.123872
  O       1.926628      1.476480     -0.102321
  H      -0.126995     -0.906586      1.163218
  O      -0.071344     -0.628472      0.235591
  H      -2.693167      2.159316     -0.101023
  O      -2.208441      1.324811     -0.201007
  H      -2.684778      0.678550      0.343571
  H       0.187263      0.201087     -2.446000
  B      -1.203021      1.531864     -2.952533
  O      -1.577723      2.815245     -2.694671
  O      -1.716758      0.699308     -3.881784
  H      -2.325797      3.155170     -3.203819
  H      -2.419231      1.069512     -4.432612
23
Coordinates from ORCA-job input E -2141.885663647559
  Ni     -0.133055      1.408859     -0.097344
  O      -0.161377      1.059293     -2.164368
  H       0.574764      1.560623      2.470010
  H       2.415525      0.997944      0.578740
  H      -0.722098     -1.172772     -0.227406
  H      -0.406544      4.014134      0.223437
  H      -0.663644      3.630716     -1.271253
  O      -0.109185      3.431398     -0.491415
  H      -0.971908      1.558882      2.426668
  O      -0.184119      1.816692      1.923516
  H       2.247197      2.399829     -0.052177
  O       1.921886      1.487110     -0.097160
  H      -0.098199     -0.900006      1.159684
  O      -0.064598     -0.625161      0.230118
  H      -2.694669      2.161512     -0.111040
  O      -2.210049      1.326178     -0.204014
  H      -2.685863      0.684195      0.346020
  H       0.176503      0.194698     -2.444187
  B      -1.207521      1.529366     -2.956803
  O      -1.579291      2.812871     -2.697008
  O      -1.718272      0.696109     -3.886429
  H      -2.320321      3.158151     -3.212921
  H      -2.423416      1.062943     -4.436153
23
Coordinates from ORCA-job input E -2141.885725778129
  Ni     -0.136649      1.413410     -0.100539
  O      -0.163897      1.058858     -2.168653
  H       0.591966      1.592246      2.457659
  H       2.406195      0.953416      0.552502
  H      -0.725588     -1.170705     -0.220788
  H      -0.408789      4.014341      0.228488
  H      -0.672253      3.642556     -1.269125
  O      -0.120297      3.432978     -0.490939
  H      -0.954698      1.549113      2.436301
  O      -0.181035      1.821992      1.919469
  H       2.253111      2.398564      0.020250
  O       1.915784      1.495050     -0.084501
  H      -0.068105     -0.898137      1.152145
  O      -0.060696     -0.620811      0.222795
  H      -2.703672      2.160556     -0.120271
  O      -2.211158      1.329374     -0.206265
  H      -2.684052      0.682824      0.340714
  H       0.159620      0.185260     -2.437733
  B      -1.210554      1.527213     -2.962625
  O      -1.580176      2.811672     -2.702666
  O      -1.721195      0.693898     -3.891509
  H      -2.312233      3.161865     -3.227974
  H      -2.429882      1.058031     -4.438220
23
Coordinates from ORCA-job input E -2141.885778821782
  Ni     -0.139633      1.418013     -0.103201
  O      -0.164904      1.058111     -2.172467
  H       0.606966      1.627540      2.446537
  H       2.398515      0.912434      0.524080
  H      -0.728864     -1.170076     -0.211888
  H      -0.419712      4.013261      0.234027
  H      -0.680069      3.651416     -1.266931
  O      -0.131972      3.435124     -0.488261
  H      -0.937748      1.533862      2.447182
  O      -0.180461      1.826453      1.917152
  H       2.262148      2.391137      0.086381
  O       1.911298      1.500998     -0.072582
  H      -0.037916     -0.897820      1.145098
  O      -0.057303     -0.616906      0.217073
  H      -2.709708      2.163768     -0.138675
  O      -2.211397      1.335087     -0.212168
  H      -2.682223      0.688887      0.336833
  H       0.146619      0.177745     -2.434108
  B      -1.212532      1.524730     -2.966772
  O      -1.581038      2.810060     -2.707562
  O      -1.723991      0.692083     -3.895297
  H      -2.308576      3.163440     -3.236874
  H      -2.435755      1.054216     -4.439064
23
Coordinates from ORCA-job input E -2141.885829212692
  Ni     -0.141777      1.421990     -0.104410
  O      -0.164646      1.057326     -2.174774
  H       0.618066      1.660909      2.438502
  H       2.393698      0.879697      0.497748
  H      -0.731938     -1.170919     -0.201424
  H      -0.441216      4.011035      0.237688
  H      -0.687514      3.654135     -1.266340
  O      -0.143988      3.437533     -0.484558
  H      -0.922400      1.514331      2.458812
  O      -0.182119      1.829125      1.917651
  H       2.274272      2.379472      0.134210
  O       1.909233      1.503239     -0.064645
  H      -0.013176     -0.899134      1.140295
  O      -0.055218     -0.613980      0.214287
  H      -2.711947      2.170465     -0.161936
  O      -2.211201      1.342070     -0.218587
  H      -2.681360      0.701805      0.337840
  H       0.140590      0.173926     -2.434178
  B      -1.212282      1.523139     -2.968883
  O      -1.580834      2.809351     -2.712101
  O      -1.725435      0.691284     -3.897154
  H      -2.308855      3.163182     -3.240252
  H      -2.438210      1.053583     -4.439277
23
Coordinates from ORCA-job input E -2141.885881913201
  Ni     -0.141533      1.423950     -0.102911
  O      -0.162244      1.057511     -2.173961
  H       0.619711      1.674216      2.439596
  H       2.394000      0.873133      0.497122
  H      -0.732574     -1.174485     -0.196022
  H      -0.468294      4.008126      0.237670
  H      -0.691089      3.647853     -1.267864
  O      -0.151858      3.439398     -0.480382
  H      -0.917239      1.498635      2.466403
  O      -0.185605      1.827855      1.922088
  H       2.289092      2.370468      0.123454
  O       1.911752      1.497467     -0.066450
  H      -0.008169     -0.903643      1.140948
  O      -0.057691     -0.613161      0.216889
  H      -2.708696      2.179362     -0.182274
  O      -2.209649      1.348985     -0.222434
  H      -2.681667      0.718409      0.343475
  H       0.147238      0.177221     -2.439058
  B      -1.209431      1.523094     -2.966930
  O      -1.580321      2.809514     -2.712939
  O      -1.724075      0.692116     -3.895705
  H      -2.315145      3.159846     -3.233823
  H      -2.434768      1.057694     -4.438375
23
Coordinates from ORCA-job input E -2141.885913033262
  Ni     -0.141575      1.425520     -0.101371
  O      -0.163051      1.060023     -2.172414
  H       0.619601      1.688229      2.439407
  H       2.393804      0.859393      0.489279
  H      -0.733056     -1.174337     -0.189417
  H      -0.489491      4.006977      0.232271
  H      -0.687514      3.640156     -1.273375
  O      -0.153095      3.441629     -0.479494
  H      -0.914125      1.488605      2.471582
  O      -0.189946      1.830894      1.925395
  H       2.299217      2.359144      0.124054
  O       1.913964      1.490269     -0.068994
  H      -0.005006     -0.903337      1.144096
  O      -0.056982     -0.611986      0.220381
  H      -2.706140      2.181394     -0.194046
  O      -2.209344      1.349123     -0.224320
  H      -2.682769      0.727146      0.350041
  H       0.157190      0.185768     -2.444107
  B      -1.209194      1.525345     -2.964895
  O      -1.585763      2.809839     -2.710217
  O      -1.720932      0.694801     -3.896673
  H      -2.326635      3.155014     -3.226027
  H      -2.427415      1.063954     -4.442642
23
Coordinates from ORCA-job input E -2141.885929116414
  Ni     -0.141212      1.427892     -0.099986
  O      -0.162309      1.063188     -2.170805
  H       0.617516      1.692498      2.440514
  H       2.393336      0.851563      0.486408
  H      -0.732492     -1.172135     -0.190003
  H      -0.500873      4.008331      0.228252
  H      -0.685240      3.636218     -1.276939
  O      -0.153081      3.444717     -0.479458
  H      -0.914895      1.483235      2.472944
  O      -0.193303      1.832477      1.927757
  H       2.307115      2.351039      0.117937
  O       1.915660      1.484195     -0.071648
  H      -0.006694     -0.902140      1.144752
  O      -0.057447     -0.609642      0.221332
  H      -2.704987      2.181305     -0.197666
  O      -2.209277      1.348180     -0.222765
  H      -2.685020      0.730913      0.354714
  H       0.168273      0.194113     -2.446130
  B      -1.208811      1.527005     -2.962984
  O      -1.589234      2.810034     -2.708065
  O      -1.719057      0.694533     -3.894387
  H      -2.332523      3.151684     -3.222852
  H      -2.423702      1.064363     -4.442407
23
Coordinates from ORCA-job input E -2141.885931215892
  Ni     -0.140695      1.434391     -0.099198
  O      -0.158500      1.072293     -2.169957
  H       0.615601      1.698358      2.439784
  H       2.389793      0.833086      0.478378
  H      -0.734985     -1.164779     -0.196607
  H      -0.501964      4.013923      0.230012
  H      -0.683892      3.640399     -1.274505
  O      -0.149974      3.452400     -0.477290
  H      -0.914331      1.473877      2.473289
  O      -0.197420      1.834781      1.929556
  H       2.319615      2.337147      0.123352
  O       1.916925      1.476624     -0.071128
  H      -0.008347     -0.899394      1.139723
  O      -0.060827     -0.603411      0.217573
  H      -2.703775      2.185989     -0.201152
  O      -2.209064      1.352136     -0.222362
  H      -2.688513      0.738669      0.356072
  H       0.187806      0.210323     -2.447806
  B      -1.209973      1.525765     -2.961461
  O      -1.603863      2.804179     -2.704342
  O      -1.711875      0.687816     -3.892625
  H      -2.351373      3.137309     -3.218764
  H      -2.418624      1.051684     -4.442027
23
Coordinates from ORCA-job input E -2141.885890695069
  Ni     -0.145124      1.441415     -0.096300
  O      -0.160788      1.070712     -2.163542
  H       0.613757      1.719470      2.433385
  H       2.381062      0.801499      0.451014
  H      -0.725172     -1.161004     -0.191658
  H      -0.521710      4.018935      0.218315
  H      -0.715511      3.629773     -1.279479
  O      -0.167038      3.458634     -0.488645
  H      -0.910294      1.464934      2.475630
  O      -0.205511      1.847689      1.930999
  H       2.338276      2.314435      0.123934
  O       1.912989      1.466403     -0.076442
  H       0.008013     -0.891424      1.143893
  O      -0.056730     -0.593758      0.223280
  H      -2.714396      2.163743     -0.204156
  O      -2.213953      1.333014     -0.208248
  H      -2.694265      0.730492      0.380819
  H       0.191567      0.210462     -2.438188
  B      -1.204930      1.532584     -2.960210
  O      -1.579307      2.817824     -2.708369
  O      -1.716280      0.694347     -3.885841
  H      -2.320335      3.157538     -3.228102
  H      -2.412574      1.065846     -4.443575
23
Coordinates from ORCA-job input E -2141.885951205223
  Ni     -0.142154      1.440020     -0.098280
  O      -0.156828      1.075551     -2.167400
  H       0.614574      1.704304      2.435942
  H       2.384093      0.814817      0.465618
  H      -0.730496     -1.160680     -0.200891
  H      -0.505281      4.018639      0.227846
  H      -0.694276      3.641942     -1.275494
  O      -0.155400      3.457748     -0.481019
  H      -0.913114      1.469434      2.472292
  O      -0.200844      1.840791      1.929416
  H       2.331311      2.324949      0.130096
  O       1.914877      1.472416     -0.070073
  H      -0.002779     -0.896040      1.137387
  O      -0.060749     -0.596881      0.216737
  H      -2.708376      2.179332     -0.205575
  O      -2.210647      1.347052     -0.217349
  H      -2.691140      0.738487      0.365375
  H       0.192659      0.213893     -2.442118
  B      -1.208446      1.526833     -2.960795
  O      -1.600545      2.806067     -2.703595
  O      -1.710715      0.686900     -3.889335
  H      -2.347149      3.139029     -3.219537
  H      -2.416831      1.048961     -4.440735
23
Coordinates from ORCA-job input E -2141.885956385901
  Ni     -0.141733      1.441159     -0.098206
  O      -0.155507      1.077543     -2.167130
  H       0.614230      1.700261      2.435576
  H       2.383246      0.814175      0.467080
  H      -0.729919     -1.160143     -0.203789
  H      -0.502005      4.019556      0.229889
  H      -0.694921      3.644556     -1.273703
  O      -0.154894      3.458833     -0.480430
  H      -0.914090      1.470130      2.470719
  O      -0.200568      1.841092      1.929161
  H       2.334420      2.323880      0.129330
  O       1.914835      1.472382     -0.068572
  H      -0.003710     -0.896958      1.135670
  O      -0.061680     -0.595940      0.215647
  H      -2.708022      2.180763     -0.211417
  O      -2.210091      1.348551     -0.217950
  H      -2.691107      0.742286      0.366724
  H       0.193765      0.215521     -2.441166
  B      -1.208929      1.525746     -2.960090
  O      -1.604372      2.803971     -2.701983
  O      -1.708706      0.685527     -3.889367
  H      -2.352175      3.135424     -3.217143
  H      -2.416322      1.045249     -4.440334
23
Coordinates from ORCA-job input E -2141.885966191206
  Ni     -0.140593      1.445804     -0.097345
  O      -0.151322      1.084563     -2.165209
  H       0.612820      1.691990      2.433088
  H       2.379133      0.805623      0.467266
  H      -0.725655     -1.158311     -0.212103
  H      -0.498255      4.022647      0.233380
  H      -0.698379      3.650750     -1.270763
  O      -0.155602      3.463164     -0.480022
  H      -0.916416      1.469902      2.465988
  O      -0.201343      1.844420      1.928769
  H       2.349213      2.315594      0.129269
  O       1.914541      1.470569     -0.063346
  H      -0.003969     -0.899686      1.130838
  O      -0.063280     -0.591767      0.213265
  H      -2.707955      2.180875     -0.240336
  O      -2.208402      1.349936     -0.219267
  H      -2.691884      0.757168      0.376990
  H       0.198405      0.221935     -2.437197
  B      -1.209357      1.524410     -2.957157
  O      -1.614833      2.799313     -2.695435
  O      -1.703328      0.682811     -3.887329
  H      -2.366813      3.125940     -3.207554
  H      -2.414983      1.035919     -4.437274
23
Coordinates from ORCA-job input E -2141.885968608463
  Ni     -0.139993      1.448424     -0.096263
  O      -0.149913      1.089243     -2.163618
  H       0.612708      1.690028      2.431186
  H       2.376533      0.797821      0.464991
  H      -0.723092     -1.157273     -0.214984
  H      -0.498186      4.024119      0.235222
  H      -0.701242      3.653456     -1.268734
  O      -0.156460      3.465764     -0.479497
  H      -0.916517      1.467797      2.464016
  O      -0.202090      1.847054      1.929199
  H       2.359520      2.308685      0.130363
  O       1.914424      1.468712     -0.060262
  H      -0.002550     -0.901618      1.128879
  O      -0.063409     -0.589466      0.212859
  H      -2.708288      2.177518     -0.267259
  O      -2.207460      1.348521     -0.219520
  H      -2.693140      0.770305      0.389018
  H       0.202091      0.227427     -2.435391
  B      -1.210372      1.524544     -2.954799
  O      -1.622028      2.797268     -2.691343
  O      -1.700085      0.682123     -3.886215
  H      -2.375787      3.120961     -3.202732
  H      -2.412918      1.032150     -4.436602
23
Coordinates from ORCA-job input E -2141.885976075099
  Ni     -0.138484      1.451197     -0.094538
  O      -0.148266      1.096365     -2.161331
  H       0.612230      1.688568      2.428616
  H       2.373671      0.786228      0.461682
  H      -0.719649     -1.155709     -0.217835
  H      -0.497911      4.025813      0.236081
  H      -0.702253      3.656580     -1.267339
  O      -0.155817      3.468726     -0.479479
  H      -0.917084      1.464723      2.460468
  O      -0.203458      1.851395      1.929835
  H       2.374262      2.298530      0.132697
  O       1.914910      1.465767     -0.055285
  H      -0.001317     -0.904877      1.127425
  O      -0.062772     -0.587145      0.213368
  H      -2.708330      2.166406     -0.321202
  O      -2.205450      1.343489     -0.220972
  H      -2.696096      0.795687      0.411105
  H       0.209373      0.237228     -2.434299
  B      -1.212097      1.526064     -2.950577
  O      -1.635922      2.793264     -2.679910
  O      -1.695227      0.683119     -3.884947
  H      -2.392227      3.112887     -3.190169
  H      -2.410339      1.029259     -4.434880
23
Coordinates from ORCA-job input E -2141.885982378504
  Ni     -0.136748      1.451473     -0.093723
  O      -0.147755      1.100947     -2.160751
  H       0.611563      1.689824      2.428014
  H       2.373904      0.780218      0.460144
  H      -0.720559     -1.153976     -0.217321
  H      -0.493273      4.026459      0.237047
  H      -0.701050      3.658443     -1.264861
  O      -0.152034      3.469662     -0.479202
  H      -0.917645      1.461761      2.458269
  O      -0.204657      1.853244      1.930318
  H       2.380991      2.293713      0.135185
  O       1.916319      1.463872     -0.052382
  H      -0.001701     -0.906990      1.127676
  O      -0.062303     -0.587213      0.214256
  H      -2.706477      2.155681     -0.365608
  O      -2.203371      1.339031     -0.223953
  H      -2.699179      0.817801      0.426192
  H       0.217546      0.246164     -2.437074
  B      -1.214708      1.526799     -2.947112
  O      -1.649712      2.788180     -2.668179
  O      -1.691705      0.684402     -3.885547
  H      -2.407041      3.105324     -3.178565
  H      -2.408661      1.028747     -4.434306
23
Coordinates from ORCA-job input E -2141.885999813762
  Ni     -0.136720      1.446935     -0.094721
  O      -0.150503      1.096175     -2.162841
  H       0.611656      1.693294      2.430695
  H       2.378892      0.789279      0.462090
  H      -0.725550     -1.154525     -0.211447
  H      -0.488826      4.024252      0.235643
  H      -0.697509      3.655509     -1.265052
  O      -0.148385      3.465746     -0.479715
  H      -0.917671      1.462646      2.459927
  O      -0.203956      1.850047      1.930064
  H       2.368658      2.302768      0.134797
  O       1.917190      1.466243     -0.055585
  H      -0.003920     -0.905751      1.131624
  O      -0.061452     -0.591423      0.216068
  H      -2.705750      2.155590     -0.354478
  O      -2.203703      1.336210     -0.224583
  H      -2.699197      0.810132      0.421916
  H       0.216402      0.243074     -2.441870
  B      -1.215557      1.527012     -2.948623
  O      -1.646837      2.789054     -2.668740
  O      -1.694886      0.686271     -3.888049
  H      -2.400369      3.110159     -3.182324
  H      -2.410261      1.034869     -4.436280
23
Coordinates from ORCA-job input E -2141.886005542015
  Ni     -0.135749      1.445376     -0.095349
  O      -0.149897      1.095837     -2.164270
  H       0.610710      1.692689      2.432500
  H       2.381763      0.793827      0.465155
  H      -0.729543     -1.152729     -0.211398
  H      -0.482008      4.024130      0.236599
  H      -0.694004      3.656730     -1.263636
  O      -0.144130      3.464843     -0.479430
  H      -0.918391      1.461287      2.459509
  O      -0.203997      1.847833      1.929963
  H       2.364258      2.306601      0.134094
  O       1.918335      1.467000     -0.055857
  H      -0.007517     -0.905762      1.132028
  O      -0.062420     -0.593004      0.215794
  H      -2.703598      2.153951     -0.364733
  O      -2.202655      1.335209     -0.226428
  H      -2.700528      0.816330      0.424097
  H       0.221115      0.245484     -2.446108
  B      -1.216629      1.525598     -2.948251
  O      -1.652503      2.784892     -2.662962
  O      -1.694220      0.686153     -3.889790
  H      -2.405300      3.106583     -3.177273
  H      -2.411349      1.034709     -4.435739
23
Coordinates from ORCA-job input E -2141.886009641980
  Ni     -0.135617      1.444248     -0.095817
  O      -0.149420      1.093905     -2.165447
  H       0.610815      1.690423      2.434100
  H       2.384073      0.799925      0.467946
  H      -0.732826     -1.151224     -0.211916
  H      -0.477346      4.023719      0.238452
  H      -0.692776      3.658168     -1.262196
  O      -0.142671      3.464048     -0.478766
  H      -0.917891      1.460193      2.460291
  O      -0.203078      1.845113      1.930086
  H       2.359123      2.311364      0.131916
  O       1.918459      1.468687     -0.056782
  H      -0.010142     -0.905686      1.132075
  O      -0.063721     -0.594053      0.215420
  H      -2.702543      2.152893     -0.369012
  O      -2.202296      1.334540     -0.225713
  H      -2.701278      0.820296      0.427703
  H       0.222187      0.244295     -2.448784
  B      -1.216963      1.523378     -2.948780
  O      -1.653531      2.782261     -2.661123
  O      -1.694045      0.686061     -3.892053
  H      -2.404623      3.105935     -3.176677
  H      -2.412144      1.035076     -4.436409
23
Coordinates from ORCA-job input E -2141.886010942712
  Ni     -0.135698      1.444637     -0.095967
  O      -0.148236      1.093200     -2.165862
  H       0.610961      1.689393      2.434572
  H       2.384654      0.801351      0.468177
  H      -0.734723     -1.149592     -0.213183
  H      -0.476630      4.023750      0.239395
  H      -0.692744      3.659114     -1.261738
  O      -0.142736      3.464461     -0.478441
  H      -0.917292      1.459182      2.461136
  O      -0.202845      1.844067      1.930345
  H       2.358108      2.312278      0.131089
  O       1.918304      1.469053     -0.057282
  H      -0.011384     -0.905726      1.131221
  O      -0.064984     -0.593684      0.214739
  H      -2.701706      2.152213     -0.373637
  O      -2.202000      1.334528     -0.224712
  H      -2.701977      0.824475      0.431198
  H       0.223606      0.243940     -2.450029
  B      -1.216169      1.522021     -2.949103
  O      -1.654419      2.780101     -2.659135
  O      -1.692743      0.686064     -3.893421
  H      -2.405656      3.104092     -3.174271
  H      -2.411947      1.034647     -4.436577
23
Coordinates from ORCA-job input E -2141.886012006042
  Ni     -0.136124      1.444946     -0.095799
  O      -0.148231      1.092462     -2.165679
  H       0.611550      1.689265      2.434466
  H       2.384580      0.801368      0.467007
  H      -0.735383     -1.149044     -0.213101
  H      -0.478110      4.023480      0.239574
  H      -0.693572      3.658793     -1.261799
  O      -0.143660      3.464606     -0.478311
  H      -0.916687      1.459653      2.462125
  O      -0.202489      1.844039      1.930633
  H       2.357723      2.312258      0.130538
  O       1.917859      1.469105     -0.058103
  H      -0.011267     -0.905779      1.131029
  O      -0.065346     -0.593395      0.214694
  H      -2.701685      2.151917     -0.372638
  O      -2.202195      1.334231     -0.223084
  H      -2.702132      0.824651      0.433204
  H       0.222863      0.242883     -2.449918
  B      -1.215543      1.521790     -2.949441
  O      -1.653435      2.780111     -2.659621
  O      -1.691775      0.686603     -3.894479
  H      -2.404585      3.104255     -3.174784
  H      -2.410609      1.035365     -4.437998
23
Coordinates from ORCA-job input E -2141.886013129467
  Ni     -0.136376      1.445237     -0.095557
  O      -0.148256      1.092218     -2.165347
  H       0.611930      1.689205      2.434252
  H       2.384519      0.800792      0.465630
  H      -0.736061     -1.148391     -0.213075
  H      -0.479169      4.023172      0.239612
  H      -0.693908      3.658392     -1.261791
  O      -0.143892      3.464737     -0.478235
  H      -0.916568      1.460728      2.462780
  O      -0.202302      1.844385      1.930871
  H       2.357778      2.311829      0.130247
  O       1.917569      1.468930     -0.058782
  H      -0.011358     -0.906142      1.130750
  O      -0.065528     -0.593218      0.214596
  H      -2.701235      2.151225     -0.373894
  O      -2.202174      1.333733     -0.221895
  H      -2.702535      0.825823      0.435332
  H       0.222739      0.242686     -2.449883
  B      -1.215084      1.521885     -2.949412
  O      -1.653851      2.779715     -2.658906
  O      -1.690317      0.687266     -3.895466
  H      -2.405274      3.103468     -3.173922
  H      -2.408904      1.035888     -4.439391
23
Coordinates from ORCA-job input E -2141.886013599515
  Ni     -0.136501      1.445314     -0.095476
  O      -0.148379      1.092143     -2.165148
  H       0.611997      1.689199      2.434050
  H       2.384436      0.800614      0.465033
  H      -0.736190     -1.148221     -0.213241
  H      -0.479440      4.022950      0.239629
  H      -0.693752      3.658222     -1.261794
  O      -0.143750      3.464696     -0.478180
  H      -0.916803      1.461789      2.462953
  O      -0.202278      1.844647      1.930844
  H       2.357531      2.311834      0.130468
  O       1.917411      1.468988     -0.059006
  H      -0.011278     -0.906461      1.130393
  O      -0.065398     -0.593261      0.214322
  H      -2.700950      2.151557     -0.372621
  O      -2.202171      1.333714     -0.221625
  H      -2.702636      0.825134      0.434995
  H       0.222264      0.242414     -2.449547
  B      -1.214908      1.522101     -2.949406
  O      -1.653788      2.779834     -2.658957
  O      -1.689922      0.687331     -3.895511
  H      -2.405381      3.103289     -3.173914
  H      -2.408371      1.035738     -4.439745
23
Coordinates from ORCA-job input E -2141.886013854548
  Ni     -0.136544      1.445217     -0.095404
  O      -0.148595      1.092069     -2.165001
  H       0.612022      1.689163      2.433921
  H       2.384519      0.800803      0.464804
  H      -0.736351     -1.148112     -0.213356
  H      -0.479071      4.022686      0.239908
  H      -0.693476      3.658320     -1.261513
  O      -0.143392      3.464554     -0.478015
  H      -0.916997      1.462483      2.463046
  O      -0.202270      1.844747      1.930799
  H       2.357135      2.312168      0.130697
  O       1.917325      1.469219     -0.059022
  H      -0.011068     -0.906926      1.130057
  O      -0.065174     -0.593492      0.214060
  H      -2.700627      2.151449     -0.373155
  O      -2.202099      1.333539     -0.221661
  H      -2.702893      0.825377      0.435034
  H       0.221927      0.242271     -2.449341
  B      -1.215095      1.522139     -2.949232
  O      -1.654018      2.779806     -2.658794
  O      -1.689862      0.687267     -3.895436
  H      -2.405463      3.103255     -3.173983
  H      -2.408189      1.035563     -4.439896
