25
XYZ file generated by Avogadro.
Ni    -0.0889451291    1.0346071404    0.2115761483
H      1.9580030031    1.9017669695    0.8068128163
H      0.7274368081    0.5901228585    2.3303220663
H     -0.3456354370    3.1496567027    1.1310590022
O     -1.8995818113    0.9138875215    0.2775796570
H     -0.8452538252   -1.1652041712    0.0988684330
H      0.5933428836   -1.0551617478   -0.5266626618
O      0.0424116199   -0.7524162599    0.2390188319
H     -0.8109378905    0.4044986930    2.3096626447
O     -0.1006756414    1.0240532379    2.0044417516
H      2.1016591307    0.3583571074    0.5793829830
O      1.6945952698    1.1729029427    0.1896359784
H     -0.9810142272    3.1260413243   -0.2959175519
O     -0.1850050716    2.8257428779    0.2092156942
H     -0.2705828320    1.8857844322   -1.9923097382
O      0.0164686417    1.0352136586   -1.5773114022
H     -0.4612568731    0.2860526150   -2.0093397006
B     -2.8226973824    0.8389884374   -0.8850421720
O     -4.2078052229    0.9047340248   -0.3798781714
O     -2.6437560110   -0.4384033749   -1.6009735281
H     -4.8001412523    0.8034778966   -1.1679340556
H     -2.9662927868   -1.1485581116   -0.9897225435
O     -2.6125007536    1.9758996240   -1.7982234444
H     -3.0531335041    1.7387903224   -2.6535100198
H     -2.2439852047    1.6335204848    0.8660120676
