25
Coordinates from ORCA-job input E -2217.623335430680
  Ni     -0.088945      1.034607      0.211576
  H       1.958003      1.901767      0.806813
  H       0.727437      0.590123      2.330322
  H      -0.345635      3.149657      1.131059
  O      -1.899582      0.913888      0.277580
  H      -0.845254     -1.165204      0.098868
  H       0.593343     -1.055162     -0.526663
  O       0.042412     -0.752416      0.239019
  H      -0.810938      0.404499      2.309663
  O      -0.100676      1.024053      2.004442
  H       2.101659      0.358357      0.579383
  O       1.694595      1.172903      0.189636
  H      -0.981014      3.126041     -0.295918
  O      -0.185005      2.825743      0.209216
  H      -0.270583      1.885784     -1.992310
  O       0.016469      1.035214     -1.577311
  H      -0.461257      0.286053     -2.009340
  B      -2.822697      0.838988     -0.885042
  O      -4.207805      0.904734     -0.379878
  O      -2.643756     -0.438403     -1.600974
  H      -4.800141      0.803478     -1.167934
  H      -2.966293     -1.148558     -0.989723
  O      -2.612501      1.975900     -1.798223
  H      -3.053134      1.738790     -2.653510
  H      -2.243985      1.633520      0.866012
25
Coordinates from ORCA-job input E -2217.685443890970
  Ni     -0.103451      1.028775      0.217580
  H       2.017532      1.892154      0.752203
  H       0.714133      0.620882      2.397825
  H      -0.351041      3.205426      1.101364
  O      -1.949054      0.897645      0.304622
  H      -0.846708     -1.216136      0.129060
  H       0.557523     -1.128635     -0.504484
  O       0.028898     -0.801349      0.247096
  H      -0.795381      0.434129      2.381301
  O      -0.098567      1.034552      2.054997
  H       2.159553      0.379903      0.531859
  O       1.724912      1.171911      0.163517
  H      -1.002751      3.162698     -0.291445
  O      -0.211179      2.861964      0.198489
  H      -0.362298      1.832871     -2.037789
  O      -0.060612      1.010044     -1.615835
  H      -0.553059      0.273366     -2.024900
  B      -2.831578      0.836865     -0.882921
  O      -4.224483      0.866234     -0.403302
  O      -2.563001     -0.400861     -1.629494
  H      -4.787540      0.790936     -1.186259
  H      -2.889676     -1.131258     -1.082666
  O      -2.546514      2.006588     -1.726943
  H      -2.920054      1.825983     -2.601975
  H      -2.310886      1.589668      0.884864
25
Coordinates from ORCA-job input E -2217.735294039484
  Ni     -0.103733      1.026303      0.223509
  H       2.100523      1.891878      0.735810
  H       0.720158      0.636162      2.480827
  H      -0.357893      3.277862      1.087114
  O      -2.000713      0.888079      0.325478
  H      -0.839165     -1.280731      0.141163
  H       0.549759     -1.214085     -0.493578
  O       0.031671     -0.864365      0.248967
  H      -0.777284      0.445300      2.463392
  O      -0.087136      1.037771      2.122572
  H       2.242325      0.396399      0.517953
  O       1.787153      1.175841      0.160555
  H      -1.018831      3.215884     -0.290198
  O      -0.226551      2.918312      0.194590
  H      -0.405256      1.798389     -2.101825
  O      -0.093971      0.991163     -1.668385
  H      -0.595739      0.256101     -2.062914
  B      -2.856039      0.837772     -0.888726
  O      -4.247118      0.843050     -0.428012
  O      -2.542287     -0.372406     -1.656224
  H      -4.804071      0.782470     -1.210178
  H      -2.868813     -1.123989     -1.149871
  O      -2.544706      2.029707     -1.693612
  H      -2.884958      1.887074     -2.583195
  H      -2.382605      1.564414      0.901551
25
Coordinates from ORCA-job input E -2217.765603765445
  Ni     -0.099132      1.022615      0.228370
  H       2.181802      1.898661      0.731842
  H       0.731921      0.649723      2.563958
  H      -0.369839      3.350435      1.069691
  O      -2.048279      0.878431      0.343029
  H      -0.833503     -1.343605      0.148493
  H       0.553055     -1.300630     -0.484279
  O       0.038922     -0.929611      0.250649
  H      -0.763466      0.452886      2.541388
  O      -0.074238      1.040365      2.190261
  H       2.327538      0.408968      0.514243
  O       1.854823      1.181593      0.164660
  H      -1.037439      3.257217     -0.302571
  O      -0.241809      2.973475      0.184463
  H      -0.432929      1.764680     -2.164863
  O      -0.109052      0.967624     -1.721582
  H      -0.623769      0.230525     -2.096754
  B      -2.883554      0.842560     -0.895455
  O      -4.271067      0.821278     -0.446685
  O      -2.530788     -0.339445     -1.687172
  H      -4.831584      0.776588     -1.228022
  H      -2.854355     -1.117014     -1.218928
  O      -2.560791      2.059630     -1.662099
  H      -2.878659      1.954297     -2.565272
  H      -2.449091      1.543109      0.919399
25
Coordinates from ORCA-job input E -2217.781417961233
  Ni     -0.096015      1.014463      0.233643
  H       2.251310      1.907849      0.721835
  H       0.752957      0.672978      2.636773
  H      -0.394150      3.416850      1.036213
  O      -2.091011      0.860749      0.365744
  H      -0.830540     -1.402286      0.165037
  H       0.557448     -1.385911     -0.467839
  O       0.046032     -0.994361      0.258572
  H      -0.745655      0.467929      2.616236
  O      -0.056237      1.048243      2.253127
  H       2.402601      0.418305      0.505504
  O       1.915086      1.186260      0.165015
  H      -1.072473      3.269439     -0.331716
  O      -0.269028      3.017308      0.160762
  H      -0.479342      1.719693     -2.212373
  O      -0.131008      0.932501     -1.768091
  H      -0.671230      0.193625     -2.106614
  B      -2.900711      0.852483     -0.899307
  O      -4.288979      0.793656     -0.474755
  O      -2.500640     -0.288584     -1.726398
  H      -4.848265      0.775587     -1.259002
  H      -2.824783     -1.096816     -1.312405
  O      -2.564593      2.103792     -1.606304
  H      -2.857394      2.048766     -2.523007
  H      -2.508665      1.511836      0.946112
25
Coordinates from ORCA-job input E -2217.788371788163
  Ni     -0.089152      0.997080      0.234761
  H       2.294163      1.922159      0.718199
  H       0.772023      0.710713      2.687864
  H      -0.440475      3.458059      0.974853
  O      -2.115011      0.826841      0.381857
  H      -0.811906     -1.457570      0.194029
  H       0.581348     -1.460469     -0.434964
  O       0.065913     -1.051336      0.278140
  H      -0.731377      0.492945      2.669181
  O      -0.041414      1.064110      2.294495
  H       2.460952      0.429795      0.504505
  O       1.961284      1.192346      0.171066
  H      -1.121232      3.231139     -0.390223
  O      -0.308913      3.031664      0.113950
  H      -0.514409      1.658677     -2.236883
  O      -0.132976      0.881791     -1.801929
  H      -0.710955      0.146460     -2.089927
  B      -2.909374      0.869876     -0.899780
  O      -4.297338      0.767255     -0.496070
  O      -2.481078     -0.215801     -1.784774
  H      -4.857366      0.794112     -1.279398
  H      -2.812820     -1.052869     -1.440547
  O      -2.569078      2.165667     -1.522395
  H      -2.855086      2.180261     -2.442915
  H      -2.541004      1.461450      0.973669
25
Coordinates from ORCA-job input E -2217.792110567211
  Ni     -0.080153      0.978552      0.231661
  H       2.313729      1.950701      0.724426
  H       0.788442      0.742029      2.718782
  H      -0.514366      3.474553      0.913643
  O      -2.124390      0.780950      0.391779
  H      -0.777964     -1.505043      0.205697
  H       0.623618     -1.512018     -0.416528
  O       0.098630     -1.095539      0.284830
  H      -0.720164      0.507853      2.700398
  O      -0.030224      1.073279      2.318076
  H       2.507737      0.455192      0.507783
  O       1.994495      1.211725      0.182247
  H      -1.189848      3.157416     -0.448693
  O      -0.366746      3.026956      0.067050
  H      -0.535884      1.627560     -2.235265
  O      -0.119288      0.852338     -1.828515
  H      -0.746735      0.134283     -2.065224
  B      -2.909780      0.878041     -0.896706
  O      -4.301160      0.792247     -0.509641
  O      -2.506383     -0.188685     -1.815895
  H      -4.860229      0.871955     -1.290299
  H      -2.879903     -1.026365     -1.517562
  O      -2.516109      2.186362     -1.461548
  H      -2.803930      2.263830     -2.378673
  H      -2.548678      1.406185      0.994939
25
Coordinates from ORCA-job input E -2217.794022646384
  Ni     -0.070515      0.956965      0.226264
  H       2.320322      1.957475      0.729575
  H       0.794191      0.776797      2.730542
  H      -0.566843      3.472286      0.836050
  O      -2.120027      0.745562      0.390678
  H      -0.760415     -1.534882      0.233421
  H       0.649907     -1.553823     -0.379198
  O       0.116504     -1.125812      0.308006
  H      -0.720101      0.539506      2.712540
  O      -0.025718      1.092099      2.320795
  H       2.530037      0.456938      0.515724
  O       2.012033      1.210742      0.192839
  H      -1.233202      3.063147     -0.518563
  O      -0.402897      3.001145      0.006255
  H      -0.537936      1.580948     -2.220547
  O      -0.098170      0.803624     -1.840526
  H      -0.775210      0.110792     -2.024204
  B      -2.907681      0.902446     -0.891894
  O      -4.296131      0.771538     -0.514627
  O      -2.481823     -0.103596     -1.865236
  H      -4.858057      0.896719     -1.286781
  H      -2.850599     -0.960215     -1.621646
  O      -2.534585      2.246089     -1.389428
  H      -2.851462      2.384522     -2.289946
  H      -2.536906      1.353346      1.016668
25
Coordinates from ORCA-job input E -2217.795223792913
  Ni     -0.053124      0.954922      0.220531
  H       2.334823      1.960522      0.764867
  H       0.795399      0.772922      2.738378
  H      -0.597966      3.474152      0.809140
  O      -2.107159      0.732109      0.379245
  H      -0.752542     -1.537395      0.207677
  H       0.668882     -1.565267     -0.391108
  O       0.127217     -1.136352      0.288485
  H      -0.727711      0.550940      2.711889
  O      -0.020924      1.088865      2.322754
  H       2.551016      0.455161      0.536479
  O       2.036004      1.214345      0.222886
  H      -1.256614      2.993374     -0.542426
  O      -0.417623      2.996626     -0.012736
  H      -0.499762      1.630175     -2.179601
  O      -0.055761      0.828774     -1.854242
  H      -0.800446      0.190188     -1.999728
  B      -2.911152      0.895457     -0.894148
  O      -4.294236      0.805353     -0.498453
  O      -2.521390     -0.140468     -1.849199
  H      -4.865281      0.944940     -1.261462
  H      -2.928103     -0.976398     -1.594536
  O      -2.517617      2.216875     -1.441344
  H      -2.877793      2.360386     -2.325067
  H      -2.513418      1.334147      1.018484
25
Coordinates from ORCA-job input E -2217.796299574148
  Ni     -0.059771      0.941658      0.217451
  H       2.313402      1.974670      0.741952
  H       0.798914      0.797601      2.726468
  H      -0.630650      3.454023      0.775855
  O      -2.102871      0.691877      0.378533
  H      -0.737093     -1.549807      0.242538
  H       0.682271     -1.571270     -0.366022
  O       0.139643     -1.139031      0.311740
  H      -0.725463      0.571186      2.712512
  O      -0.021411      1.103870      2.309776
  H       2.542377      0.466913      0.524923
  O       2.018846      1.219788      0.208425
  H      -1.298473      2.935649     -0.557699
  O      -0.448727      2.967779     -0.041446
  H      -0.477933      1.620439     -2.175782
  O      -0.074571      0.795538     -1.850100
  H      -0.851857      0.188958     -1.984813
  B      -2.901330      0.899932     -0.885253
  O      -4.290312      0.817772     -0.512563
  O      -2.493014     -0.108356     -1.862966
  H      -4.847782      1.006867     -1.276559
  H      -2.911385     -0.950570     -1.644772
  O      -2.478002      2.226295     -1.394280
  H      -2.846212      2.413955     -2.266406
  H      -2.503878      1.268618      1.045249
25
Coordinates from ORCA-job input E -2217.797124512176
  Ni     -0.061983      0.944597      0.214773
  H       2.309948      1.946249      0.733556
  H       0.787995      0.802716      2.710168
  H      -0.586531      3.450916      0.771185
  O      -2.093514      0.693298      0.364457
  H      -0.758190     -1.527815      0.268063
  H       0.658560     -1.561782     -0.343032
  O       0.120468     -1.120499      0.332619
  H      -0.738263      0.606058      2.701904
  O      -0.026169      1.121114      2.290283
  H       2.517573      0.434923      0.527354
  O       2.004428      1.192365      0.204555
  H      -1.260774      2.950722     -0.564644
  O      -0.407774      2.963589     -0.046403
  H      -0.400591      1.634947     -2.183893
  O      -0.077945      0.783261     -1.840071
  H      -0.883689      0.213266     -1.995007
  B      -2.908213      0.896025     -0.883647
  O      -4.291190      0.758803     -0.512411
  O      -2.450082     -0.076948     -1.878988
  H      -4.854655      0.963540     -1.268133
  H      -2.822832     -0.944524     -1.675394
  O      -2.541049      2.241707     -1.379733
  H      -2.947743      2.442009     -2.230920
  H      -2.493068      1.235818      1.060123
25
Coordinates from ORCA-job input E -2217.797894089210
  Ni     -0.061145      0.938588      0.209278
  H       2.302837      1.954021      0.738558
  H       0.781880      0.821671      2.706813
  H      -0.600488      3.444599      0.745305
  O      -2.089816      0.662307      0.349551
  H      -0.742040     -1.534681      0.285064
  H       0.674044     -1.567222     -0.324683
  O       0.134078     -1.122255      0.346301
  H      -0.741661      0.621903      2.702446
  O      -0.032166      1.132472      2.281999
  H       2.518410      0.444081      0.539950
  O       2.002271      1.196849      0.212243
  H      -1.273025      2.922466     -0.581197
  O      -0.416601      2.952323     -0.067744
  H      -0.320035      1.629997     -2.198180
  O      -0.060650      0.763589     -1.845205
  H      -0.895873      0.228858     -2.008867
  B      -2.914646      0.893884     -0.884256
  O      -4.292545      0.765659     -0.503375
  O      -2.479630     -0.071727     -1.902993
  H      -4.861832      1.012952     -1.240942
  H      -2.842303     -0.943596     -1.702726
  O      -2.537746      2.244467     -1.360357
  H      -2.968524      2.481185     -2.189595
  H      -2.488079      1.171968      1.069375
25
Coordinates from ORCA-job input E -2217.798417100528
  Ni     -0.065345      0.937478      0.208711
  H       2.307528      1.954377      0.732984
  H       0.790209      0.831953      2.707595
  H      -0.599750      3.450452      0.737365
  O      -2.096472      0.642187      0.344311
  H      -0.742673     -1.537128      0.303796
  H       0.667413     -1.576504     -0.317620
  O       0.134639     -1.126114      0.355155
  H      -0.731831      0.638321      2.721029
  O      -0.025962      1.140578      2.285403
  H       2.521664      0.445273      0.534357
  O       2.002332      1.197072      0.209918
  H      -1.292162      2.910018     -0.572115
  O      -0.424237      2.954074     -0.074662
  H      -0.257426      1.633125     -2.209805
  O      -0.068668      0.752949     -1.851773
  H      -0.942387      0.274910     -2.013375
  B      -2.917695      0.887299     -0.888343
  O      -4.295865      0.760129     -0.516417
  O      -2.483889     -0.077421     -1.913588
  H      -4.864210      1.041332     -1.241991
  H      -2.826212     -0.955798     -1.710003
  O      -2.530176      2.238560     -1.355226
  H      -2.965357      2.497966     -2.175518
  H      -2.498751      1.129265      1.076574
25
Coordinates from ORCA-job input E -2217.798915389084
  Ni     -0.068901      0.933291      0.206225
  H       2.305590      1.959535      0.733249
  H       0.792055      0.851268      2.705600
  H      -0.598683      3.450566      0.722557
  O      -2.101019      0.614238      0.329413
  H      -0.732114     -1.541727      0.330507
  H       0.672908     -1.583908     -0.298765
  O       0.144379     -1.128071      0.373629
  H      -0.726521      0.655423      2.735889
  O      -0.027230      1.152088      2.283561
  H       2.523186      0.452146      0.539116
  O       1.999404      1.200340      0.213474
  H      -1.299789      2.900951     -0.578845
  O      -0.426469      2.950392     -0.087850
  H      -0.177978      1.605787     -2.240677
  O      -0.059039      0.725330     -1.856921
  H      -0.947919      0.276527     -2.035202
  B      -2.930186      0.890006     -0.891137
  O      -4.306024      0.749599     -0.516125
  O      -2.504211     -0.051331     -1.944317
  H      -4.881624      1.076077     -1.216257
  H      -2.810375     -0.943437     -1.744335
  O      -2.546459      2.249880     -1.330456
  H      -2.988784      2.536372     -2.137439
  H      -2.509478      1.063014      1.081870
25
Coordinates from ORCA-job input E -2217.799301305719
  Ni     -0.074069      0.930368      0.206171
  H       2.302519      1.962774      0.727447
  H       0.797722      0.868776      2.699645
  H      -0.592577      3.447609      0.718629
  O      -2.105032      0.591022      0.315301
  H      -0.726186     -1.540249      0.359224
  H       0.671227     -1.585811     -0.285593
  O       0.150727     -1.126053      0.390691
  H      -0.719161      0.669882      2.751795
  O      -0.027112      1.160785      2.281666
  H       2.520210      0.454916      0.537661
  O       1.992562      1.201142      0.213088
  H      -1.299751      2.896664     -0.581150
  O      -0.423737      2.946808     -0.092347
  H      -0.110787      1.580529     -2.262613
  O      -0.061053      0.702757     -1.856915
  H      -0.968531      0.296169     -2.047317
  B      -2.938928      0.891129     -0.895356
  O      -4.314177      0.738397     -0.519805
  O      -2.509498     -0.028345     -1.967770
  H      -4.893215      1.105175     -1.196996
  H      -2.785595     -0.931567     -1.770684
  O      -2.563530      2.256061     -1.315527
  H      -3.005466      2.554796     -2.118055
  H      -2.521846      1.000620      1.085573
25
Coordinates from ORCA-job input E -2217.799638756710
  Ni     -0.080836      0.926236      0.209007
  H       2.295918      1.974598      0.717480
  H       0.807322      0.888875      2.692240
  H      -0.588996      3.438991      0.725325
  O      -2.110832      0.565774      0.299666
  H      -0.712219     -1.539700      0.392595
  H       0.674092     -1.583825     -0.275150
  O       0.164453     -1.123653      0.409361
  H      -0.706904      0.676742      2.773243
  O      -0.027316      1.165459      2.282907
  H       2.518201      0.466212      0.533395
  O       1.983111      1.208440      0.211452
  H      -1.300101      2.896188     -0.577584
  O      -0.423807      2.941866     -0.088648
  H      -0.053945      1.542584     -2.288487
  O      -0.066267      0.677403     -1.853181
  H      -0.983023      0.302625     -2.058586
  B      -2.946797      0.894943     -0.902626
  O      -4.322322      0.736113     -0.522617
  O      -2.521099     -0.003292     -1.994229
  H      -4.902004      1.145030     -1.174605
  H      -2.779425     -0.912880     -1.800329
  O      -2.576819      2.263385     -1.303405
  H      -3.004087      2.562958     -2.113712
  H      -2.541581      0.933281      1.083250
25
Coordinates from ORCA-job input E -2217.799919443391
  Ni     -0.085536      0.919700      0.212212
  H       2.287748      1.990775      0.706627
  H       0.815866      0.913167      2.684011
  H      -0.595776      3.424106      0.729189
  O      -2.114061      0.541449      0.283175
  H      -0.694678     -1.540042      0.425320
  H       0.679658     -1.581385     -0.267133
  O       0.181784     -1.122897      0.427145
  H      -0.695786      0.680980      2.792982
  O      -0.029742      1.168863      2.283919
  H       2.518018      0.480424      0.532619
  O       1.974772      1.217262      0.212199
  H      -1.298144      2.885172     -0.583457
  O      -0.426007      2.932090     -0.086902
  H      -0.006795      1.504051     -2.305867
  O      -0.068570      0.652676     -1.847603
  H      -0.995227      0.311419     -2.063127
  B      -2.953031      0.899725     -0.909651
  O      -4.327636      0.735234     -0.522266
  O      -2.533130      0.023586     -2.020406
  H      -4.906124      1.189246     -1.144786
  H      -2.792445     -0.888140     -1.836281
  O      -2.589686      2.273761     -1.288608
  H      -2.991895      2.566477     -2.114112
  H      -2.558861      0.866658      1.077565
25
Coordinates from ORCA-job input E -2217.800200334888
  Ni     -0.088937      0.912000      0.215761
  H       2.278966      2.012675      0.692151
  H       0.821864      0.938991      2.676290
  H      -0.600151      3.405477      0.736516
  O      -2.116522      0.519891      0.265834
  H      -0.673149     -1.541093      0.457687
  H       0.687196     -1.577478     -0.261688
  O       0.202901     -1.123110      0.444796
  H      -0.686683      0.683858      2.812198
  O      -0.034579      1.171273      2.285601
  H       2.520870      0.500126      0.533900
  O       1.967587      1.229060      0.213245
  H      -1.300070      2.873887     -0.581551
  O      -0.428311      2.920749     -0.083314
  H       0.028307      1.461255     -2.322433
  O      -0.069524      0.626616     -1.840807
  H      -1.001312      0.308316     -2.065959
  B      -2.959782      0.905193     -0.917538
  O      -4.332614      0.733000     -0.521579
  O      -2.548620      0.052496     -2.048589
  H      -4.908495      1.237226     -1.106663
  H      -2.820654     -0.858530     -1.879555
  O      -2.603895      2.286850     -1.271965
  H      -2.962751      2.563036     -2.123058
  H      -2.576926      0.802590      1.067483
25
Coordinates from ORCA-job input E -2217.800455769020
  Ni     -0.089269      0.903342      0.217495
  H       2.272276      2.034359      0.675653
  H       0.821044      0.962904      2.670608
  H      -0.605201      3.385070      0.737999
  O      -2.115952      0.503263      0.249658
  H      -0.652775     -1.542863      0.487277
  H       0.693955     -1.574775     -0.256869
  O       0.223106     -1.125133      0.461609
  H      -0.686033      0.693225      2.825299
  O      -0.042367      1.176173      2.285134
  H       2.527068      0.519463      0.538734
  O       1.963888      1.239024      0.214988
  H      -1.303861      2.856551     -0.581754
  O      -0.429829      2.907204     -0.085107
  H       0.060289      1.420003     -2.334519
  O      -0.067975      0.600649     -1.834859
  H      -1.006607      0.306632     -2.066867
  B      -2.966899      0.910773     -0.922199
  O      -4.336350      0.724725     -0.519712
  O      -2.561336      0.084965     -2.074824
  H      -4.910528      1.275071     -1.063453
  H      -2.854231     -0.823862     -1.930479
  O      -2.622354      2.303216     -1.248406
  H      -2.926777      2.560605     -2.126537
  H      -2.588564      0.743771      1.057895
25
Coordinates from ORCA-job input E -2217.800676047540
  Ni     -0.085897      0.893670      0.217384
  H       2.269799      2.054981      0.656477
  H       0.813935      0.985361      2.668853
  H      -0.606622      3.364070      0.734005
  O      -2.112601      0.492439      0.234697
  H      -0.633323     -1.547088      0.516192
  H       0.699160     -1.574771     -0.252269
  O       0.242503     -1.130273      0.478498
  H      -0.693284      0.709875      2.833027
  O      -0.052437      1.184792      2.283138
  H       2.538801      0.538390      0.547437
  O       1.965408      1.246464      0.217119
  H      -1.312039      2.835202     -0.579274
  O      -0.430220      2.892266     -0.092443
  H       0.087340      1.380297     -2.343930
  O      -0.063802      0.573794     -1.830384
  H      -1.008778      0.300408     -2.066757
  B      -2.975009      0.918201     -0.923414
  O      -4.339066      0.711364     -0.516423
  O      -2.572901      0.124105     -2.099741
  H      -4.915195      1.295485     -1.021244
  H      -2.891686     -0.780908     -1.991174
  O      -2.647784      2.324390     -1.219044
  H      -2.887706      2.561496     -2.123011
  H      -2.593878      0.690345      1.049043
25
Coordinates from ORCA-job input E -2217.800848706311
  Ni     -0.080582      0.884502      0.214967
  H       2.271308      2.070672      0.635248
  H       0.801906      1.006350      2.670323
  H      -0.601676      3.346096      0.725527
  O      -2.107043      0.484798      0.220444
  H      -0.617803     -1.552882      0.546591
  H       0.698457     -1.577893     -0.247769
  O       0.257723     -1.136922      0.494964
  H      -0.706331      0.733874      2.835156
  O      -0.063539      1.198043      2.278540
  H       2.552778      0.553595      0.560343
  O       1.970386      1.248861      0.219036
  H      -1.323018      2.816164     -0.574315
  O      -0.429162      2.878355     -0.104369
  H       0.119552      1.344047     -2.350638
  O      -0.058896      0.548941     -1.828425
  H      -1.010624      0.299314     -2.070047
  B      -2.983040      0.925210     -0.921231
  O      -4.339986      0.693799     -0.511043
  O      -2.580956      0.165193     -2.120896
  H      -4.922777      1.298737     -0.982227
  H      -2.924879     -0.734749     -2.056126
  O      -2.677137      2.344970     -1.188712
  H      -2.857903      2.567103     -2.110446
  H      -2.592043      0.638178      1.041867
25
Coordinates from ORCA-job input E -2217.800985859612
  Ni     -0.075529      0.876511      0.210677
  H       2.274675      2.081385      0.611840
  H       0.787086      1.026271      2.674120
  H      -0.589346      3.333307      0.715691
  O      -2.100755      0.476517      0.205806
  H      -0.605425     -1.560112      0.581803
  H       0.690247     -1.584188     -0.243374
  O       0.268635     -1.143835      0.510968
  H      -0.721774      0.761938      2.833213
  O      -0.074557      1.214501      2.271823
  H       2.565975      0.565607      0.577154
  O       1.976285      1.246721      0.220099
  H      -1.335070      2.806133     -0.567053
  O      -0.427971      2.867312     -0.117846
  H       0.161762      1.307895     -2.357011
  O      -0.054819      0.526224     -1.829098
  H      -1.011602      0.304281     -2.079776
  B      -2.989823      0.930959     -0.917715
  O      -4.339101      0.674497     -0.504124
  O      -2.586365      0.206020     -2.139549
  H      -4.932586      1.291603     -0.944996
  H      -2.948265     -0.688790     -2.119737
  O      -2.705928      2.361934     -1.160318
  H      -2.845696      2.578772     -2.090514
  H      -2.585334      0.582891      1.034681
25
Coordinates from ORCA-job input E -2217.801097997265
  Ni     -0.070588      0.870991      0.205259
  H       2.279874      2.084247      0.589533
  H       0.771751      1.038942      2.681444
  H      -0.571999      3.329141      0.705745
  O      -2.093915      0.472019      0.195748
  H      -0.598587     -1.569554      0.614935
  H       0.674919     -1.593960     -0.242090
  O       0.272270     -1.151186      0.521334
  H      -0.737965      0.786035      2.824411
  O      -0.082695      1.229563      2.264505
  H       2.576218      0.571006      0.596758
  O       1.983378      1.238778      0.219968
  H      -1.344788      2.807616     -0.560765
  O      -0.427524      2.861368     -0.130167
  H       0.196908      1.284983     -2.359121
  O      -0.052394      0.512209     -1.832546
  H      -1.011078      0.312508     -2.090812
  B      -2.991959      0.934852     -0.913791
  O      -4.335027      0.657622     -0.497578
  O      -2.585313      0.236780     -2.150702
  H      -4.941705      1.272704     -0.922945
  H      -2.953632     -0.655293     -2.164601
  O      -2.726158      2.372984     -1.139876
  H      -2.862431      2.595354     -2.069250
  H      -2.572843      0.544647      1.031366
25
Coordinates from ORCA-job input E -2217.801157811492
  Ni     -0.068709      0.865223      0.200063
  H       2.280488      2.086942      0.564470
  H       0.759736      1.056188      2.685405
  H      -0.555691      3.326007      0.696472
  O      -2.088490      0.459648      0.180031
  H      -0.587963     -1.577602      0.659210
  H       0.656621     -1.604881     -0.237554
  O       0.277460     -1.156256      0.534523
  H      -0.749750      0.808083      2.817935
  O      -0.089819      1.243376      2.256692
  H       2.580211      0.576694      0.618680
  O       1.985944      1.230283      0.219780
  H      -1.345715      2.814169     -0.566060
  O      -0.426110      2.856322     -0.140685
  H       0.247895      1.248599     -2.363966
  O      -0.049636      0.494332     -1.835477
  H      -1.009573      0.329214     -2.106694
  B      -2.994388      0.939674     -0.913560
  O      -4.332353      0.639483     -0.493336
  O      -2.587778      0.273854     -2.167793
  H      -4.951498      1.257633     -0.895539
  H      -2.949619     -0.620261     -2.203694
  O      -2.746837      2.383126     -1.114522
  H      -2.895540      2.622761     -2.037472
  H      -2.564170      0.491745      1.019854
25
Coordinates from ORCA-job input E -2217.801199844883
  Ni     -0.063992      0.860002      0.195233
  H       2.283010      2.085370      0.535324
  H       0.748741      1.064262      2.693776
  H      -0.532111      3.326757      0.688838
  O      -2.081096      0.459689      0.172854
  H      -0.578894     -1.590146      0.698291
  H       0.635968     -1.618460     -0.238042
  O       0.278733     -1.164247      0.541142
  H      -0.762944      0.822048      2.802861
  O      -0.092735      1.252457      2.249964
  H       2.584098      0.578536      0.641440
  O       1.991947      1.217522      0.216765
  H      -1.352421      2.820745     -0.557085
  O      -0.426775      2.852642     -0.148880
  H       0.267463      1.235994     -2.361364
  O      -0.047933      0.485011     -1.838436
  H      -1.008430      0.336530     -2.111650
  B      -2.990552      0.944894     -0.914983
  O      -4.324999      0.625215     -0.494516
  O      -2.580660      0.298087     -2.176921
  H      -4.956505      1.229196     -0.898911
  H      -2.938871     -0.596894     -2.224343
  O      -2.757794      2.392364     -1.099862
  H      -2.947074      2.648507     -2.010729
  H      -2.551459      0.478274      1.015997
25
Coordinates from ORCA-job input E -2217.801240276586
  Ni     -0.063363      0.854772      0.192999
  H       2.279214      2.088722      0.508982
  H       0.745125      1.077100      2.694287
  H      -0.519552      3.322681      0.685911
  O      -2.077855      0.452900      0.161317
  H      -0.564521     -1.596203      0.735296
  H       0.623883     -1.626144     -0.234274
  O       0.286033     -1.167284      0.550775
  H      -0.767928      0.830641      2.798039
  O      -0.095264      1.257252      2.245468
  H       2.581861      0.584528      0.658331
  O       1.991196      1.211501      0.214459
  H      -1.350458      2.823487     -0.558656
  O      -0.424747      2.848216     -0.152633
  H       0.292934      1.209741     -2.363685
  O      -0.044912      0.470780     -1.837751
  H      -1.006730      0.344372     -2.117024
  B      -2.991124      0.949811     -0.919489
  O      -4.323175      0.611831     -0.499916
  O      -2.581532      0.323960     -2.190877
  H      -4.960224      1.216620     -0.894344
  H      -2.937596     -0.571893     -2.242785
  O      -2.769742      2.400350     -1.078966
  H      -2.975726      2.672326     -1.981675
  H      -2.551082      0.454289      1.002974
25
Coordinates from ORCA-job input E -2217.801304802862
  Ni     -0.062814      0.850071      0.191793
  H       2.274111      2.090163      0.475903
  H       0.746059      1.084924      2.695431
  H      -0.506065      3.320089      0.686875
  O      -2.075396      0.452996      0.154863
  H      -0.547671     -1.604313      0.769788
  H       0.612241     -1.633451     -0.234376
  O       0.293403     -1.170494      0.556115
  H      -0.769981      0.831314      2.791394
  O      -0.093672      1.256542      2.242718
  H       2.574856      0.588838      0.677399
  O       1.989766      1.202966      0.209370
  H      -1.347356      2.826556     -0.554867
  O      -0.421004      2.845747     -0.152605
  H       0.299473      1.197780     -2.363218
  O      -0.041204      0.461214     -1.835970
  H      -1.006173      0.347115     -2.114987
  B      -2.989794      0.954217     -0.925912
  O      -4.321279      0.600427     -0.512907
  O      -2.576958      0.338103     -2.199864
  H      -4.960735      1.198467     -0.914133
  H      -2.935391     -0.557444     -2.245722
  O      -2.773805      2.406425     -1.062190
  H      -3.011523      2.697153     -1.951408
  H      -2.554371      0.458949      0.993274
25
Coordinates from ORCA-job input E -2217.801327947181
  Ni     -0.063035      0.848136      0.191469
  H       2.272161      2.091863      0.461652
  H       0.746650      1.088154      2.695895
  H      -0.503293      3.317662      0.688065
  O      -2.075438      0.452874      0.152940
  H      -0.538592     -1.607328      0.783223
  H       0.608221     -1.635199     -0.235807
  O       0.298370     -1.171589      0.557865
  H      -0.769792      0.831647      2.791336
  O      -0.093268      1.255845      2.242205
  H       2.571703      0.592913      0.686058
  O       1.988837      1.200821      0.207332
  H      -1.347306      2.825445     -0.550899
  O      -0.418843      2.844945     -0.152470
  H       0.302169      1.192045     -2.364301
  O      -0.038903      0.456910     -1.835301
  H      -1.005285      0.345053     -2.114495
  B      -2.990560      0.955641     -0.927053
  O      -4.321292      0.596841     -0.518325
  O      -2.575885      0.342774     -2.202611
  H      -4.960941      1.194219     -0.920329
  H      -2.940253     -0.550204     -2.251494
  O      -2.775057      2.408660     -1.056091
  H      -3.018315      2.705427     -1.941846
  H      -2.557337      0.460800      0.989746
25
Coordinates from ORCA-job input E -2217.801363432419
  Ni     -0.064240      0.846380      0.191210
  H       2.269864      2.092937      0.441278
  H       0.747885      1.089742      2.697576
  H      -0.504240      3.314829      0.690674
  O      -2.076819      0.454879      0.154164
  H      -0.525693     -1.611921      0.799576
  H       0.600399     -1.636196     -0.242149
  O       0.304650     -1.172774      0.557059
  H      -0.768175      0.830008      2.792676
  O      -0.091993      1.253266      2.242333
  H       2.565248      0.598562      0.699443
  O       1.986936      1.197139      0.203690
  H      -1.345174      2.824563     -0.547759
  O      -0.415061      2.845624     -0.151598
  H       0.302174      1.188345     -2.365850
  O      -0.037132      0.453960     -1.834792
  H      -1.005161      0.341537     -2.112933
  B      -2.991037      0.956430     -0.926663
  O      -4.321292      0.593686     -0.525937
  O      -2.570682      0.343918     -2.202510
  H      -4.960906      1.188887     -0.931380
  H      -2.944099     -0.544812     -2.258194
  O      -2.773926      2.410005     -1.050902
  H      -3.025178      2.714809     -1.931629
  H      -2.561632      0.470552      0.989381
25
Coordinates from ORCA-job input E -2217.801383206761
  Ni     -0.065539      0.845356      0.190821
  H       2.268123      2.093825      0.428102
  H       0.747428      1.090709      2.699195
  H      -0.507026      3.312705      0.692025
  O      -2.078077      0.455051      0.155316
  H      -0.515444     -1.615144      0.811367
  H       0.593110     -1.636028     -0.248756
  O       0.309405     -1.173369      0.555303
  H      -0.767487      0.828729      2.794586
  O      -0.092233      1.251214      2.242409
  H       2.560164      0.603780      0.710199
  O       1.985254      1.195053      0.201755
  H      -1.343135      2.823904     -0.547901
  O      -0.412934      2.846419     -0.151458
  H       0.306378      1.183661     -2.367735
  O      -0.036146      0.452012     -1.834875
  H      -1.004496      0.340363     -2.113555
  B      -2.991052      0.956811     -0.925638
  O      -4.321288      0.593448     -0.528807
  O      -2.568010      0.345133     -2.202270
  H      -4.961360      1.189091     -0.932827
  H      -2.945557     -0.541340     -2.264239
  O      -2.772816      2.410287     -1.049407
  H      -3.029112      2.719441     -1.927078
  H      -2.563433      0.473243      0.990232
25
Coordinates from ORCA-job input E -2217.801406417570
  Ni     -0.067368      0.844468      0.190516
  H       2.265493      2.095227      0.413727
  H       0.745813      1.090717      2.701614
  H      -0.511678      3.310175      0.694298
  O      -2.079797      0.455756      0.157994
  H      -0.501958     -1.619410      0.824300
  H       0.582535     -1.634112     -0.260327
  O       0.315241     -1.173906      0.550823
  H      -0.767513      0.825269      2.797113
  O      -0.093587      1.247366      2.242900
  H       2.553517      0.610777      0.723244
  O       1.982974      1.193230      0.199714
  H      -1.339901      2.824219     -0.550207
  O      -0.411154      2.847723     -0.150687
  H       0.309778      1.179156     -2.370134
  O      -0.036144      0.450885     -1.834854
  H      -1.004118      0.339188     -2.113941
  B      -2.990102      0.957041     -0.924426
  O      -4.321224      0.595372     -0.530378
  O      -2.564910      0.344738     -2.200813
  H      -4.961538      1.192521     -0.931637
  H      -2.945246     -0.540067     -2.268385
  O      -2.770319      2.409980     -1.050312
  H      -3.029300      2.720962     -1.926445
  H      -2.564777      0.477076      0.993066
25
Coordinates from ORCA-job input E -2217.801425239975
  Ni     -0.068883      0.843437      0.190014
  H       2.262335      2.097416      0.401795
  H       0.742672      1.091517      2.703733
  H      -0.514330      3.307399      0.696242
  O      -2.080944      0.455487      0.159267
  H      -0.487119     -1.623658      0.837481
  H       0.570948     -1.631233     -0.273085
  O       0.321591     -1.174389      0.545709
  H      -0.769405      0.822029      2.799059
  O      -0.096529      1.243444      2.243037
  H       2.547575      0.618248      0.735517
  O       1.980944      1.192489      0.198692
  H      -1.338045      2.824356     -0.552021
  O      -0.410502      2.848327     -0.150200
  H       0.315646      1.172795     -2.372559
  O      -0.035996      0.449122     -1.834760
  H      -1.003435      0.339787     -2.115162
  B      -2.989189      0.957663     -0.923981
  O      -4.321342      0.598323     -0.529974
  O      -2.564327      0.345345     -2.200126
  H      -4.961528      1.199327     -0.925467
  H      -2.944876     -0.539132     -2.270396
  O      -2.768739      2.410119     -1.052021
  H      -3.026828      2.719816     -1.928839
  H      -2.564977      0.476323      0.994807
25
Coordinates from ORCA-job input E -2217.801446528316
  Ni     -0.070264      0.841903      0.189311
  H       2.257964      2.100654      0.388433
  H       0.737536      1.093105      2.706408
  H      -0.515194      3.303789      0.698690
  O      -2.081868      0.455590      0.160040
  H      -0.465972     -1.629817      0.854871
  H       0.554816     -1.626800     -0.290522
  O       0.330287     -1.175273      0.538410
  H      -0.773672      0.817982      2.800456
  O      -0.101344      1.238306      2.243025
  H       2.541025      0.627606      0.749585
  O       1.978982      1.192234      0.197850
  H      -1.337191      2.824790     -0.553105
  O      -0.410541      2.848432     -0.149631
  H       0.321404      1.164774     -2.375321
  O      -0.036072      0.446404     -1.834373
  H      -1.002986      0.340288     -2.116089
  B      -2.988306      0.958849     -0.924245
  O      -4.321722      0.602008     -0.529226
  O      -2.564655      0.346498     -2.199586
  H      -4.960850      1.209111     -0.916888
  H      -2.943954     -0.538490     -2.270235
  O      -2.767787      2.411140     -1.053633
  H      -3.020181      2.716645     -1.933610
  H      -2.564735      0.474628      0.996148
25
Coordinates from ORCA-job input E -2217.801462639578
  Ni     -0.070964      0.840470      0.188536
  H       2.254088      2.103605      0.380641
  H       0.732644      1.095495      2.708193
  H      -0.513479      3.301052      0.700050
  O      -2.082203      0.455240      0.158964
  H      -0.446064     -1.635494      0.870463
  H       0.540758     -1.622793     -0.304897
  O       0.338168     -1.176009      0.532225
  H      -0.778431      0.815721      2.800908
  O      -0.105989      1.234511      2.242613
  H       2.536653      0.634292      0.759032
  O       1.977898      1.192770      0.197796
  H      -1.338421      2.824552     -0.552302
  O      -0.411339      2.847864     -0.149655
  H       0.327170      1.156871     -2.377341
  O      -0.035920      0.443194     -1.834028
  H      -1.002895      0.341568     -2.117049
  B      -2.988536      0.960147     -0.925203
  O      -4.322672      0.604855     -0.528837
  O      -2.566430      0.348180     -2.200033
  H      -4.959734      1.219194     -0.908398
  H      -2.942987     -0.538193     -2.268331
  O      -2.768315      2.412646     -1.054331
  H      -3.014036      2.713945     -1.937734
  H      -2.564247      0.470672      0.995482
25
Coordinates from ORCA-job input E -2217.801476207143
  Ni     -0.070955      0.839723      0.188140
  H       2.251690      2.105470      0.381151
  H       0.729426      1.097262      2.709196
  H      -0.511365      3.300093      0.700307
  O      -2.082234      0.455507      0.157545
  H      -0.431679     -1.640155      0.880150
  H       0.532214     -1.619596     -0.314548
  O       0.343592     -1.176382      0.527689
  H      -0.782100      0.815043      2.800741
  O      -0.109031      1.232488      2.242327
  H       2.535303      0.636138      0.761476
  O       1.977934      1.193954      0.198277
  H      -1.340488      2.824258     -0.550958
  O      -0.412512      2.847215     -0.149892
  H       0.328613      1.152750     -2.378201
  O      -0.036271      0.440991     -1.833683
  H      -1.003656      0.341520     -2.116838
  B      -2.989533      0.960916     -0.926275
  O      -4.323896      0.606608     -0.529276
  O      -2.568126      0.348438     -2.200548
  H      -4.958180      1.227318     -0.903180
  H      -2.941915     -0.539436     -2.264994
  O      -2.769375      2.413789     -1.054883
  H      -3.008803      2.711837     -1.941204
  H      -2.563932      0.468604      0.994245
25
Coordinates from ORCA-job input E -2217.801489470956
  Ni     -0.070604      0.839499      0.187968
  H       2.250237      2.106250      0.389068
  H       0.727315      1.099010      2.709693
  H      -0.509704      3.300526      0.699329
  O      -2.082158      0.455761      0.155404
  H      -0.419350     -1.644666      0.887472
  H       0.526883     -1.616779     -0.321538
  O       0.347975     -1.176229      0.524176
  H      -0.784866      0.816251      2.800482
  O      -0.110946      1.232032      2.241954
  H       2.535758      0.633946      0.758875
  O       1.978615      1.195547      0.199307
  H      -1.342884      2.823680     -0.549777
  O      -0.413869      2.846536     -0.150573
  H       0.329065      1.149789     -2.378385
  O      -0.036911      0.439029     -1.833365
  H      -1.004954      0.341186     -2.116373
  B      -2.991174      0.961286     -0.927421
  O      -4.325345      0.607541     -0.530468
  O      -2.569793      0.348074     -2.201578
  H      -4.956401      1.235218     -0.898317
  H      -2.940987     -0.541221     -2.261966
  O      -2.771004      2.414482     -1.055708
  H      -3.006427      2.710979     -1.943679
  H      -2.563754      0.466629      0.992182
25
Coordinates from ORCA-job input E -2217.801503387911
  Ni     -0.070205      0.839304      0.187946
  H       2.249067      2.105915      0.401691
  H       0.725274      1.101329      2.710479
  H      -0.509391      3.301528      0.697325
  O      -2.082186      0.456165      0.152556
  H      -0.402857     -1.650815      0.897725
  H       0.521049     -1.613956     -0.328442
  O       0.353649     -1.175742      0.520827
  H      -0.787523      0.819408      2.800355
  O      -0.112458      1.232666      2.241379
  H       2.536691      0.629319      0.753789
  O       1.979576      1.197056      0.200471
  H      -1.344894      2.823138     -0.549689
  O      -0.415214      2.845702     -0.151770
  H       0.329494      1.145588     -2.378532
  O      -0.037996      0.436154     -1.832852
  H      -1.006669      0.339760     -2.115740
  B      -2.993019      0.961659     -0.928791
  O      -4.326768      0.607332     -0.533180
  O      -2.570624      0.348573     -2.203648
  H      -4.954624      1.243510     -0.891956
  H      -2.940902     -0.541280     -2.262051
  O      -2.773421      2.415186     -1.056113
  H      -3.007336      2.712312     -1.944279
  H      -2.563996      0.464545      0.989264
25
Coordinates from ORCA-job input E -2217.801519860703
  Ni     -0.070161      0.839399      0.188237
  H       2.248154      2.103965      0.419602
  H       0.723781      1.103302      2.711467
  H      -0.511662      3.303275      0.694658
  O      -2.082719      0.456800      0.149547
  H      -0.381641     -1.658381      0.910481
  H       0.515062     -1.610859     -0.335446
  O       0.360724     -1.174469      0.517233
  H      -0.789502      0.824074      2.800811
  O      -0.113195      1.233927      2.240814
  H       2.537137      0.621874      0.746155
  O       1.980326      1.198434      0.201714
  H      -1.345891      2.822656     -0.551356
  O      -0.416494      2.845094     -0.153079
  H       0.330071      1.140634     -2.378747
  O      -0.039419      0.432974     -1.832112
  H      -1.008579      0.337745     -2.115114
  B      -2.994535      0.961962     -0.930555
  O      -4.328168      0.606713     -0.537483
  O      -2.570387      0.348796     -2.206232
  H      -4.953159      1.252704     -0.883591
  H      -2.942081     -0.540492     -2.264706
  O      -2.775534      2.415419     -1.057546
  H      -3.012316      2.715294     -1.943968
  H      -2.565094      0.463513      0.985978
25
Coordinates from ORCA-job input E -2217.801534269355
  Ni     -0.070641      0.839793      0.188858
  H       2.248030      2.100975      0.435217
  H       0.723478      1.103313      2.712448
  H      -0.515929      3.304995      0.692862
  O      -2.083764      0.457944      0.148156
  H      -0.363139     -1.664526      0.921095
  H       0.511251     -1.608579     -0.340246
  O       0.366770     -1.172831      0.514493
  H      -0.790159      0.828335      2.801672
  O      -0.112728      1.235026      2.240659
  H       2.536484      0.614496      0.739056
  O       1.980435      1.199047      0.202345
  H      -1.345348      2.822852     -0.554207
  O      -0.417310      2.845084     -0.153590
  H       0.329422      1.137572     -2.379056
  O      -0.040694      0.431057     -1.831322
  H      -1.009810      0.335244     -2.114575
  B      -2.994774      0.962210     -0.932193
  O      -4.328901      0.606063     -0.541817
  O      -2.569044      0.348422     -2.207980
  H      -4.952949      1.258622     -0.877019
  H      -2.944424     -0.539141     -2.268846
  O      -2.776318      2.415199     -1.059725
  H      -3.018302      2.717949     -1.943671
  H      -2.566918      0.465234      0.984148
25
Coordinates from ORCA-job input E -2217.801543745074
  Ni     -0.071392      0.840414      0.189432
  H       2.248866      2.098223      0.444335
  H       0.724311      1.101331      2.712629
  H      -0.519736      3.306200      0.692239
  O      -2.084815      0.458825      0.148250
  H      -0.354384     -1.666828      0.925998
  H       0.511475     -1.607815     -0.341139
  O       0.369627     -1.171251      0.513614
  H      -0.789800      0.831481      2.802304
  O      -0.111416      1.235845      2.240703
  H       2.535214      0.609043      0.734117
  O       1.979950      1.199009      0.202472
  H      -1.344409      2.823184     -0.556547
  O      -0.417771      2.845458     -0.153390
  H       0.329024      1.137123     -2.379219
  O      -0.041008      0.430989     -1.830881
  H      -1.009720      0.334191     -2.114779
  B      -2.994162      0.962350     -0.933257
  O      -4.329014      0.605667     -0.544185
  O      -2.567966      0.347794     -2.208417
  H      -4.954027      1.260086     -0.873671
  H      -2.946803     -0.538058     -2.272085
  O      -2.776113      2.414769     -1.061734
  H      -3.022671      2.718822     -1.943908
  H      -2.568543      0.467506      0.983881
25
Coordinates from ORCA-job input E -2217.801548395802
  Ni     -0.072102      0.840703      0.189670
  H       2.250091      2.096249      0.447654
  H       0.724812      1.098934      2.712417
  H      -0.521538      3.306536      0.692115
  O      -2.085588      0.459347      0.148447
  H      -0.349175     -1.667400      0.929965
  H       0.512612     -1.608165     -0.340133
  O       0.371567     -1.170117      0.513975
  H      -0.790190      0.834767      2.802191
  O      -0.110412      1.236675      2.240493
  H       2.533797      0.605576      0.731363
  O       1.979336      1.198554      0.202215
  H      -1.344406      2.823394     -0.557467
  O      -0.418353      2.845520     -0.153222
  H       0.329568      1.136682     -2.379434
  O      -0.040655      0.430957     -1.830681
  H      -1.008892      0.333950     -2.115451
  B      -2.993687      0.962752     -0.934065
  O      -4.328961      0.604838     -0.545503
  O      -2.567459      0.348809     -2.208777
  H      -4.955631      1.259176     -0.871777
  H      -2.948869     -0.535659     -2.275519
  O      -2.776674      2.415079     -1.061866
  H      -3.024731      2.719083     -1.943636
  H      -2.569746      0.468118      0.983787
25
Coordinates from ORCA-job input E -2217.801553004683
  Ni     -0.072921      0.841203      0.189769
  H       2.251891      2.094007      0.450491
  H       0.725510      1.095401      2.711838
  H      -0.522261      3.307081      0.692244
  O      -2.086442      0.460058      0.148840
  H      -0.344912     -1.667277      0.933447
  H       0.514431     -1.608768     -0.338669
  O       0.373167     -1.168786      0.514364
  H      -0.790954      0.838629      2.801648
  O      -0.109157      1.237447      2.240209
  H       2.532088      0.601359      0.727891
  O       1.978655      1.197987      0.201788
  H      -1.345367      2.823631     -0.557254
  O      -0.419329      2.845732     -0.152924
  H       0.329804      1.137416     -2.379437
  O      -0.040160      0.431559     -1.830687
  H      -1.008131      0.334583     -2.116007
  B      -2.993734      0.963043     -0.934817
  O      -4.329301      0.604059     -0.546748
  O      -2.567111      0.349366     -2.208672
  H      -4.957146      1.257915     -0.871590
  H      -2.949708     -0.534413     -2.277178
  O      -2.777555      2.415481     -1.061837
  H      -3.025709      2.718682     -1.943889
  H      -2.570931      0.468958      0.983942
25
Coordinates from ORCA-job input E -2217.801556715352
  Ni     -0.073885      0.841596      0.189497
  H       2.254353      2.091303      0.452345
  H       0.725463      1.091219      2.711266
  H      -0.521829      3.307481      0.692176
  O      -2.087325      0.460705      0.148665
  H      -0.336976     -1.667461      0.940306
  H       0.514871     -1.609834     -0.337285
  O       0.376057     -1.167288      0.514773
  H      -0.793088      0.844448      2.800468
  O      -0.108193      1.238523      2.239486
  H       2.529715      0.596446      0.724450
  O       1.977954      1.197008      0.201118
  H      -1.347595      2.823906     -0.556050
  O      -0.420862      2.845813     -0.153026
  H       0.331352      1.137152     -2.379546
  O      -0.039400      0.431634     -1.830913
  H      -1.007255      0.335763     -2.116812
  B      -2.994588      0.963569     -0.935578
  O      -4.330012      0.602655     -0.548349
  O      -2.567016      0.351435     -2.209119
  H      -4.958644      1.256699     -0.871234
  H      -2.949819     -0.532068     -2.279581
  O      -2.779915      2.416554     -1.060533
  H      -3.026584      2.718887     -1.943353
  H      -2.572063      0.468211      0.983592
25
Coordinates from ORCA-job input E -2217.801560743553
  Ni     -0.074808      0.842520      0.189119
  H       2.257738      2.087997      0.455304
  H       0.725796      1.085905      2.710528
  H      -0.521482      3.308484      0.692135
  O      -2.088134      0.461573      0.148859
  H      -0.331471     -1.666790      0.945277
  H       0.516116     -1.611027     -0.335542
  O       0.377891     -1.165496      0.515002
  H      -0.794941      0.850276      2.799172
  O      -0.106772      1.239529      2.238861
  H       2.527429      0.590361      0.719709
  O       1.977435      1.196005      0.200422
  H      -1.350191      2.824449     -0.554622
  O      -0.422706      2.846392     -0.153064
  H       0.331716      1.139106     -2.379290
  O      -0.038835      0.432891     -1.831450
  H      -1.006807      0.337440     -2.117135
  B      -2.995829      0.963647     -0.935824
  O      -4.330942      0.601537     -0.549475
  O      -2.566777      0.352133     -2.208934
  H      -4.959536      1.255311     -0.873022
  H      -2.948235     -0.531932     -2.279594
  O      -2.782112      2.417151     -1.059888
  H      -3.026949      2.718611     -1.943555
  H      -2.572879      0.468282      0.983770
25
Coordinates from ORCA-job input E -2217.801562163168
  Ni     -0.075542      0.843043      0.188402
  H       2.260757      2.085395      0.455770
  H       0.725016      1.082114      2.710341
  H      -0.520973      3.308795      0.691919
  O      -2.088542      0.461850      0.148182
  H      -0.323197     -1.666665      0.952802
  H       0.514173     -1.612294     -0.334891
  O       0.380606     -1.164125      0.514989
  H      -0.797348      0.855670      2.798062
  O      -0.106341      1.240279      2.238050
  H       2.525027      0.586144      0.717529
  O       1.977090      1.194854      0.199675
  H      -1.352755      2.825051     -0.553315
  O      -0.424440      2.846802     -0.153575
  H       0.333708      1.138790     -2.379425
  O      -0.038404      0.433031     -1.832081
  H      -1.006558      0.339063     -2.117677
  B      -2.997166      0.963966     -0.935798
  O      -4.331648      0.600260     -0.550280
  O      -2.566738      0.354368     -2.209687
  H      -4.959820      1.254751     -0.873312
  H      -2.946508     -0.530403     -2.280819
  O      -2.784937      2.418091     -1.058462
  H      -3.027526      2.719486     -1.942782
  H      -2.573218      0.466037      0.983146
25
Coordinates from ORCA-job input E -2217.801563516818
  Ni     -0.075773      0.844073      0.188036
  H       2.263627      2.083352      0.457380
  H       0.725395      1.078810      2.710171
  H      -0.521848      3.309582      0.692136
  O      -2.088544      0.462418      0.148548
  H      -0.323159     -1.665251      0.953634
  H       0.514359     -1.613076     -0.333988
  O       0.380298     -1.163060      0.514827
  H      -0.797676      0.857637      2.797741
  O      -0.105392      1.240358      2.237998
  H       2.523969      0.582784      0.715087
  O       1.977189      1.194284      0.199281
  H      -1.353811      2.825896     -0.553092
  O      -0.425518      2.847793     -0.153494
  H       0.332473      1.141922     -2.379143
  O      -0.038528      0.434880     -1.832703
  H      -1.006882      0.340088     -2.117368
  B      -2.997569      0.963641     -0.935224
  O      -4.331806      0.600080     -0.549767
  O      -2.566419      0.353494     -2.209204
  H      -4.959461      1.253536     -0.875979
  H      -2.944392     -0.532206     -2.278709
  O      -2.785580      2.417807     -1.059196
  H      -3.027196      2.718945     -1.943845
  H      -2.573039      0.466569      0.983636
25
Coordinates from ORCA-job input E -2217.801562776613
  Ni     -0.075770      0.844330      0.187553
  H       2.265218      2.082438      0.457091
  H       0.724668      1.078129      2.710516
  H      -0.522654      3.309331      0.692078
  O      -2.088193      0.462360      0.147806
  H      -0.319148     -1.665019      0.957621
  H       0.511529     -1.613582     -0.334349
  O       0.381461     -1.162585      0.514574
  H      -0.798535      0.858976      2.797732
  O      -0.105666      1.240296      2.237742
  H       2.522988      0.581727      0.715421
  O       1.977348      1.193806      0.199068
  H      -1.354412      2.826337     -0.553332
  O      -0.426160      2.848134     -0.153865
  H       0.333376      1.141376     -2.379411
  O      -0.038613      0.434794     -1.833046
  H      -1.007051      0.340687     -2.117689
  B      -2.997577      0.963902     -0.935035
  O      -4.331559      0.599619     -0.549435
  O      -2.566448      0.354719     -2.209950
  H      -4.959182      1.253320     -0.875261
  H      -2.943993     -0.531191     -2.279390
  O      -2.786598      2.418137     -1.058953
  H      -3.027616      2.719604     -1.943626
  H      -2.572699      0.464709      0.982901
25
Coordinates from ORCA-job input E -2217.801562857082
  Ni     -0.075607      0.844863      0.187328
  H       2.266845      2.081520      0.458123
  H       0.724743      1.077421      2.710707
  H      -0.524014      3.309357      0.692369
  O      -2.087792      0.462690      0.147669
  H      -0.318416     -1.664161      0.958886
  H       0.510152     -1.613808     -0.334443
  O       0.381477     -1.162078      0.514303
  H      -0.798435      0.859148      2.798072
  O      -0.105479      1.239998      2.237860
  H       2.522450      0.580347      0.714816
  O       1.977621      1.193636      0.199012
  H      -1.354469      2.826847     -0.553833
  O      -0.426560      2.848714     -0.153779
  H       0.332415      1.142627     -2.379513
  O      -0.038868      0.435562     -1.833283
  H      -1.007323      0.340866     -2.117733
  B      -2.997099      0.963958     -0.934951
  O      -4.331122      0.599549     -0.548898
  O      -2.566382      0.354441     -2.210047
  H      -4.959043      1.252474     -0.875695
  H      -2.943891     -0.531552     -2.278767
  O      -2.786584      2.418021     -1.059693
  H      -3.027482      2.719301     -1.944444
  H      -2.572419      0.464615      0.982695
25
Coordinates from ORCA-job input E -2217.801562794789
  Ni     -0.075404      0.845397      0.187026
  H       2.268668      2.080378      0.459683
  H       0.724818      1.077036      2.710812
  H      -0.525250      3.309301      0.692645
  O      -2.087302      0.463034      0.147273
  H      -0.316671     -1.663149      0.961252
  H       0.508269     -1.614083     -0.334511
  O       0.381835     -1.161447      0.514080
  H      -0.798458      0.859750      2.798443
  O      -0.105330      1.239782      2.237894
  H       2.521683      0.578433      0.713888
  O       1.977904      1.193454      0.199018
  H      -1.354736      2.827226     -0.554175
  O      -0.427023      2.849248     -0.153743
  H       0.331798      1.143503     -2.379712
  O      -0.039028      0.436163     -1.833516
  H      -1.007472      0.341197     -2.118091
  B      -2.996634      0.964140     -0.935142
  O      -4.330646      0.599252     -0.548555
  O      -2.566485      0.354560     -2.210377
  H      -4.959171      1.251410     -0.875691
  H      -2.944127     -0.531410     -2.278688
  O      -2.786763      2.418091     -1.060184
  H      -3.027616      2.719096     -1.945036
  H      -2.572142      0.463992      0.982171
25
Coordinates from ORCA-job input E -2217.801562702320
  Ni     -0.075181      0.845883      0.186663
  H       2.270429      2.079117      0.461455
  H       0.724929      1.077039      2.710819
  H      -0.525932      3.309300      0.692827
  O      -2.086798      0.463392      0.146798
  H      -0.314649     -1.662068      0.964081
  H       0.506147     -1.614443     -0.334511
  O       0.382252     -1.160830      0.513920
  H      -0.798560      0.860716      2.798707
  O      -0.105171      1.239742      2.237819
  H       2.520830      0.576202      0.712739
  O       1.978177      1.193207      0.199048
  H      -1.355133      2.827515     -0.554224
  O      -0.427404      2.849717     -0.153787
  H       0.331450      1.144158     -2.379924
  O      -0.039113      0.436649     -1.833765
  H      -1.007534      0.341627     -2.118576
  B      -2.996388      0.964295     -0.935462
  O      -4.330248      0.598665     -0.548483
  O      -2.566586      0.354935     -2.210794
  H      -4.959477      1.250053     -0.875770
  H      -2.944230     -0.531036     -2.279044
  O      -2.787143      2.418267     -1.060239
  H      -3.028129      2.719121     -1.945113
  H      -2.571821      0.463132      0.981580
