25
Coordinates from ORCA-job input
  Ni  -0.07518063008430      0.84588317463151      0.18666253129008
  H   2.27042893651961      2.07911714515356      0.46145518085244
  H   0.72492883825204      1.07703910441822      2.71081897556426
  H   -0.52593151521043      3.30930032961761      0.69282656756438
  O   -2.08679825496867      0.46339228399800      0.14679825872531
  H   -0.31464920222100     -1.66206759249443      0.96408089096306
  H   0.50614731675254     -1.61444336074664     -0.33451108085709
  O   0.38225200226542     -1.16083035215160      0.51391971465415
  H   -0.79856046654920      0.86071602879267      2.79870716189046
  O   -0.10517055063857      1.23974239277459      2.23781867492959
  H   2.52082959678361      0.57620200717187      0.71273882207676
  O   1.97817727405152      1.19320673409301      0.19904794922973
  H   -1.35513268832906      2.82751549734875     -0.55422414175050
  O   -0.42740364919633      2.84971738410973     -0.15378711374869
  H   0.33145002281164      1.14415776842948     -2.37992379962761
  O   -0.03911305369250      0.43664855674405     -1.83376532649031
  H   -1.00753362663166      0.34162659739861     -2.11857607759922
  B   -2.99638849170305      0.96429499570921     -0.93546174159311
  O   -4.33024793205017      0.59866472617346     -0.54848256308140
  O   -2.56658567626827      0.35493489539047     -2.21079386770189
  H   -4.95947749027657      1.25005270590909     -0.87576988732789
  H   -2.94423009542235     -0.53103564062782     -2.27904410806154
  O   -2.78714331684388      2.41826659271260     -1.06023854164357
  H   -3.02812941875357      2.71912093908253     -1.94511319489453
  H   -2.57182142789675      0.46313229256143      0.98157980163714
