22
XYZ file generated by Avogadro.
Ni    -0.5395874063    0.6060416010    0.0986683315
O     -0.3724898629    0.0874396511   -1.5991068128
H     -1.1052225682    2.7106766990   -0.7899732862
H     -0.7804075653    2.0779465441    1.8865465871
O     -2.2421939316    0.6877329379   -0.4056339799
H      1.4900029752    1.3035618370    0.9310986455
H      0.4588074287    2.4627976843   -0.9376547149
O     -0.3129934349    2.3375286430   -0.3299709596
H      1.6971120784    0.4821151737   -0.3871078966
O      1.2040738794    0.4736478646    0.4716955163
H     -0.2258098823    0.7115061859    2.3977601515
O     -0.8985422862    1.1002823810    1.7838123852
H     -0.3275846677   -1.2563505599    1.4606093271
O     -0.7375802775   -1.1140651349    0.5708815572
H     -0.1706178202   -1.6631903117   -0.0280197598
B     -1.8521295887    0.1432105493   -1.7335630803
H     -2.7476352041   -0.0104103604    0.0829336289
O     -2.3915663851   -1.2146922426   -1.9268383715
O     -2.2997135487    1.0181619379   -2.8353184020
H     -2.0266424011   -1.5293190049   -2.7926241516
H     -1.9313746144    1.9225237441   -2.6756197518
H      0.0110602731    0.8043846157   -2.1630005729
