22
Coordinates from ORCA-job input E -2141.260780270351
  Ni     -0.539587      0.606042      0.098668
  O      -0.372490      0.087440     -1.599107
  H      -1.105223      2.710677     -0.789973
  H      -0.780408      2.077947      1.886547
  O      -2.242194      0.687733     -0.405634
  H       1.490003      1.303562      0.931099
  H       0.458807      2.462798     -0.937655
  O      -0.312993      2.337529     -0.329971
  H       1.697112      0.482115     -0.387108
  O       1.204074      0.473648      0.471696
  H      -0.225810      0.711506      2.397760
  O      -0.898542      1.100282      1.783812
  H      -0.327585     -1.256351      1.460609
  O      -0.737580     -1.114065      0.570882
  H      -0.170618     -1.663190     -0.028020
  B      -1.852130      0.143211     -1.733563
  H      -2.747635     -0.010410      0.082934
  O      -2.391566     -1.214692     -1.926838
  O      -2.299714      1.018162     -2.835318
  H      -2.026642     -1.529319     -2.792624
  H      -1.931375      1.922524     -2.675620
  H       0.011060      0.804385     -2.163001
22
Coordinates from ORCA-job input E -2141.324481546114
  Ni     -0.528843      0.611260      0.096351
  O      -0.371631      0.081574     -1.642526
  H      -1.092766      2.780416     -0.762011
  H      -0.798696      2.076661      1.938433
  O      -2.266757      0.681393     -0.430187
  H       1.572583      1.280106      0.927818
  H       0.438584      2.570151     -0.915411
  O      -0.313698      2.394496     -0.324644
  H       1.768901      0.473879     -0.363923
  O       1.262906      0.478052      0.468935
  H      -0.254084      0.745590      2.454958
  O      -0.897745      1.114159      1.824762
  H      -0.335697     -1.318800      1.452620
  O      -0.730447     -1.153167      0.579828
  H      -0.187977     -1.706607     -0.009811
  B      -1.867966      0.132573     -1.761142
  H      -2.769514      0.000050      0.043272
  O      -2.401170     -1.207972     -1.929000
  O      -2.310917      0.989867     -2.855379
  H      -2.053391     -1.532426     -2.770413
  H      -1.962899      1.882101     -2.725564
  H       0.000189      0.768173     -2.217393
22
Coordinates from ORCA-job input E -2141.374504117124
  Ni     -0.522965      0.615319      0.098038
  O      -0.377452      0.070286     -1.691303
  H      -1.082479      2.855859     -0.758933
  H      -0.811838      2.091712      2.002735
  O      -2.305414      0.673926     -0.456929
  H       1.661328      1.268144      0.935290
  H       0.435138      2.667303     -0.916561
  O      -0.308595      2.459683     -0.329022
  H       1.847423      0.472956     -0.348173
  O       1.330007      0.480634      0.473800
  H      -0.274543      0.776939      2.532360
  O      -0.902032      1.132465      1.882761
  H      -0.342387     -1.391853      1.465377
  O      -0.729383     -1.206935      0.596266
  H      -0.196225     -1.766660      0.009598
  B      -1.890112      0.121819     -1.790438
  H      -2.809326     -0.005277      0.009933
  O      -2.413269     -1.209384     -1.941643
  O      -2.329304      0.971016     -2.875482
  H      -2.074912     -1.548808     -2.776649
  H      -1.992622      1.866066     -2.765961
  H      -0.012072      0.746320     -2.275491
22
Coordinates from ORCA-job input E -2141.405584785013
  Ni     -0.517541      0.620249      0.101642
  O      -0.387234      0.059448     -1.738743
  H      -1.072711      2.934124     -0.752331
  H      -0.820729      2.112300      2.064681
  O      -2.343840      0.666391     -0.485978
  H       1.745829      1.261466      0.947543
  H       0.438117      2.758171     -0.913238
  O      -0.301091      2.526640     -0.328912
  H       1.922844      0.472469     -0.334881
  O       1.397250      0.483866      0.481663
  H      -0.288147      0.805836      2.609090
  O      -0.904631      1.152291      1.943692
  H      -0.348896     -1.465562      1.482139
  O      -0.729472     -1.261609      0.613519
  H      -0.202912     -1.825318      0.024419
  B      -1.913537      0.110738     -1.821691
  H      -2.850238     -0.014383     -0.023358
  O      -2.429050     -1.218252     -1.955495
  O      -2.349098      0.954928     -2.902871
  H      -2.098555     -1.576812     -2.786013
  H      -2.021356      1.855161     -2.811537
  H      -0.026037      0.729386     -2.333765
22
Coordinates from ORCA-job input E -2141.422298075486
  Ni     -0.511112      0.625796      0.107052
  O      -0.401968      0.050750     -1.783249
  H      -1.068303      3.006206     -0.746012
  H      -0.827200      2.132723      2.123536
  O      -2.377919      0.656547     -0.519018
  H       1.826524      1.257520      0.961620
  H       0.440533      2.841193     -0.910489
  O      -0.295391      2.592134     -0.328863
  H       1.996360      0.471650     -0.323118
  O       1.464756      0.489504      0.489535
  H      -0.298301      0.828311      2.681949
  O      -0.904102      1.171617      2.005345
  H      -0.354039     -1.530445      1.504465
  O      -0.727672     -1.313683      0.634962
  H      -0.209789     -1.879878      0.040281
  B      -1.938280      0.099282     -1.856906
  H      -2.887621     -0.025695     -0.061664
  O      -2.449951     -1.230015     -1.973039
  O      -2.365212      0.944810     -2.934130
  H      -2.127267     -1.609681     -2.797327
  H      -2.041113      1.848020     -2.848528
  H      -0.043969      0.714865     -2.386825
22
Coordinates from ORCA-job input E -2141.428874027332
  Ni     -0.502539      0.631437      0.114235
  O      -0.420188      0.045886     -1.818051
  H      -1.071567      3.065451     -0.728276
  H      -0.830169      2.152093      2.171985
  O      -2.400369      0.645958     -0.553064
  H       1.895041      1.256417      0.976291
  H       0.439901      2.911549     -0.903788
  O      -0.293394      2.648564     -0.325110
  H       2.060496      0.469084     -0.316757
  O       1.525869      0.499131      0.493255
  H      -0.303955      0.842438      2.745168
  O      -0.897228      1.189729      2.059788
  H      -0.357106     -1.580103      1.527897
  O      -0.723776     -1.355587      0.658121
  H      -0.225223     -1.925484      0.051010
  B      -1.961166      0.088005     -1.893504
  H      -2.915984     -0.035716     -0.101041
  O      -2.475328     -1.240545     -1.990736
  O      -2.373654      0.935761     -2.971661
  H      -2.157683     -1.643992     -2.805812
  H      -2.052867      1.839315     -2.881894
  H      -0.060148      0.702141     -2.428481
22
Coordinates from ORCA-job input E -2141.430187073663
  Ni     -0.496122      0.633838      0.119925
  O      -0.431665      0.043625     -1.829023
  H      -1.078910      3.087281     -0.713965
  H      -0.828393      2.164033      2.190175
  O      -2.403951      0.638731     -0.572589
  H       1.923705      1.259465      0.984789
  H       0.438016      2.940236     -0.897165
  O      -0.294850      2.671614     -0.321470
  H       2.089726      0.466292     -0.314700
  O       1.554513      0.508259      0.493679
  H      -0.303853      0.848812      2.772836
  O      -0.888841      1.201129      2.083721
  H      -0.352107     -1.599927      1.540779
  O      -0.720917     -1.371400      0.673642
  H      -0.246814     -1.945996      0.052462
  B      -1.971362      0.081382     -1.914972
  H      -2.925942     -0.040002     -0.123503
  O      -2.490678     -1.245256     -2.004640
  O      -2.373772      0.931806     -2.994542
  H      -2.173520     -1.661096     -2.813724
  H      -2.061082      1.836935     -2.888580
  H      -0.064217      0.691770     -2.443561
22
Coordinates from ORCA-job input E -2141.430747201505
  Ni     -0.490827      0.634597      0.125445
  O      -0.439802      0.041505     -1.829152
  H      -1.087369      3.092064     -0.702477
  H      -0.822475      2.174013      2.195508
  O      -2.399866      0.632820     -0.585558
  H       1.935677      1.265578      0.990601
  H       0.435047      2.950993     -0.891273
  O      -0.298127      2.679857     -0.317733
  H       2.104918      0.463489     -0.312178
  O       1.568623      0.517523      0.494145
  H      -0.301019      0.853599      2.785815
  O      -0.879685      1.210724      2.094374
  H      -0.339431     -1.608881      1.547749
  O      -0.718981     -1.375828      0.686993
  H      -0.275311     -1.956760      0.050025
  B      -1.975833      0.076800     -1.930143
  H      -2.929703     -0.040974     -0.138294
  O      -2.500585     -1.247785     -2.019571
  O      -2.370513      0.930380     -3.010546
  H      -2.182458     -1.669306     -2.825425
  H      -2.071823      1.837356     -2.881451
  H      -0.061490      0.679769     -2.447282
22
Coordinates from ORCA-job input E -2141.431219947968
  Ni     -0.485116      0.634154      0.132638
  O      -0.447104      0.038202     -1.821747
  H      -1.099254      3.085994     -0.691104
  H      -0.809499      2.185560      2.193939
  O      -2.390354      0.625932     -0.596990
  H       1.939825      1.276551      0.995547
  H       0.428821      2.952411     -0.885222
  O      -0.304219      2.679887     -0.312739
  H       2.115557      0.461051     -0.306925
  O       1.576169      0.529821      0.495588
  H      -0.295633      0.859409      2.792770
  O      -0.867261      1.222038      2.098821
  H      -0.315204     -1.614907      1.550603
  O      -0.717536     -1.373745      0.702972
  H      -0.319815     -1.964362      0.045271
  B      -1.977235      0.072398     -1.944786
  H      -2.932333     -0.039245     -0.151548
  O      -2.508706     -1.249592     -2.040101
  O      -2.363044      0.930862     -3.025241
  H      -2.189209     -1.672453     -2.844752
  H      -2.087672      1.840140     -2.862744
  H      -0.052212      0.661425     -2.444676
22
Coordinates from ORCA-job input E -2141.431545971050
  Ni     -0.481013      0.632498      0.139657
  O      -0.450485      0.033751     -1.809681
  H      -1.111616      3.071345     -0.684737
  H      -0.791047      2.195664      2.187178
  O      -2.380295      0.619498     -0.602893
  H       1.936137      1.290464      0.997931
  H       0.419380      2.945502     -0.881913
  O      -0.312275      2.672533     -0.308062
  H       2.120282      0.461171     -0.298883
  O       1.575410      0.542271      0.498459
  H      -0.289939      0.865161      2.793369
  O      -0.855250      1.232211      2.096741
  H      -0.282921     -1.619620      1.545589
  O      -0.716960     -1.366770      0.717349
  H      -0.371630     -1.967818      0.039799
  B      -1.975176      0.069468     -1.954027
  H      -2.936132     -0.035286     -0.159346
  O      -2.512455     -1.250016     -2.059761
  O      -2.352587      0.934002     -3.033020
  H      -2.192703     -1.668878     -2.866420
  H      -2.101550      1.844527     -2.839675
  H      -0.038210      0.639852     -2.438081
22
Coordinates from ORCA-job input E -2141.431774917042
  Ni     -0.478999      0.630477      0.145736
  O      -0.449821      0.028528     -1.797478
  H      -1.123126      3.054979     -0.683143
  H      -0.769744      2.203516      2.179882
  O      -2.374044      0.614046     -0.603599
  H       1.929496      1.305232      0.998273
  H       0.407287      2.936467     -0.882047
  O      -0.321287      2.663180     -0.304264
  H       2.122341      0.464244     -0.288623
  O       1.570172      0.553639      0.502816
  H      -0.286003      0.870264      2.791939
  O      -0.845540      1.240549      2.092271
  H      -0.246481     -1.626795      1.531828
  O      -0.716800     -1.358992      0.728312
  H      -0.424868     -1.968998      0.033703
  B      -1.971451      0.067738     -1.957212
  H      -2.943777     -0.030132     -0.162461
  O      -2.512454     -1.249694     -2.073789
  O      -2.341472      0.938220     -3.033775
  H      -2.194670     -1.661492     -2.884865
  H      -2.106759      1.848957     -2.821683
  H      -0.023036      0.617597     -2.432248
22
Coordinates from ORCA-job input E -2141.431996556075
  Ni     -0.478196      0.628801      0.151845
  O      -0.446429      0.022381     -1.786513
  H      -1.135449      3.040844     -0.682304
  H      -0.744397      2.210809      2.174893
  O      -2.372366      0.608918     -0.601812
  H       1.923901      1.321462      0.998186
  H       0.391510      2.929721     -0.885099
  O      -0.331603      2.655641     -0.300466
  H       2.125817      0.469518     -0.275190
  O       1.564407      0.565505      0.509158
  H      -0.284348      0.875146      2.792754
  O      -0.836785      1.248928      2.089075
  H      -0.203734     -1.640206      1.507655
  O      -0.716258     -1.352501      0.737282
  H      -0.484436     -1.969436      0.026055
  B      -1.967285      0.066020     -1.956548
  H      -2.957663     -0.023501     -0.164555
  O      -2.510559     -1.249678     -2.082437
  O      -2.329689      0.941432     -3.030831
  H      -2.197794     -1.653307     -2.899541
  H      -2.101960      1.852140     -2.812175
  H      -0.007720      0.592894     -2.429858
22
Coordinates from ORCA-job input E -2141.432264381254
  Ni     -0.477967      0.628354      0.157872
  O      -0.441376      0.016356     -1.778563
  H      -1.148955      3.033284     -0.677719
  H      -0.717097      2.217570      2.174269
  O      -2.375411      0.604812     -0.599414
  H       1.922111      1.337084      0.999382
  H       0.372564      2.928487     -0.891010
  O      -0.342204      2.653097     -0.296375
  H       2.132406      0.475542     -0.259591
  O       1.560986      0.577334      0.517032
  H      -0.285003      0.879157      2.797952
  O      -0.828628      1.257412      2.089580
  H      -0.158888     -1.660282      1.473430
  O      -0.714883     -1.348798      0.743255
  H      -0.547495     -1.968386      0.016248
  B      -1.963500      0.063707     -1.953025
  H      -2.977553     -0.015218     -0.168009
  O      -2.507659     -1.251003     -2.083863
  O      -2.318308      0.941077     -3.026989
  H      -2.202765     -1.647931     -2.907165
  H      -2.086247      1.851859     -2.814934
  H       0.004839      0.568016     -2.432789
22
Coordinates from ORCA-job input E -2141.432556172634
  Ni     -0.477338      0.629864      0.163589
  O      -0.435874      0.012244     -1.774086
  H      -1.163859      3.033837     -0.665876
  H      -0.690415      2.223799      2.178108
  O      -2.381110      0.602599     -0.598176
  H       1.925044      1.349559      1.003374
  H       0.352014      2.933899     -0.898428
  O      -0.352052      2.656804     -0.291683
  H       2.141897      0.480120     -0.244088
  O       1.561530      0.588155      0.525200
  H      -0.286715      0.881403      2.807385
  O      -0.820137      1.265740      2.094449
  H      -0.117495     -1.684412      1.431767
  O      -0.713198     -1.347554      0.745472
  H      -0.612849     -1.964360      0.003558
  B      -1.960101      0.060520     -1.947972
  H      -3.000433     -0.005291     -0.174599
  O      -2.503150     -1.254708     -2.077433
  O      -2.308552      0.935254     -3.025195
  H      -2.207373     -1.648493     -2.905519
  H      -2.063259      1.845933     -2.829521
  H       0.012391      0.546618     -2.440750
22
Coordinates from ORCA-job input E -2141.432808340133
  Ni     -0.475508      0.633235      0.169012
  O      -0.430699      0.011404     -1.770987
  H      -1.179795      3.038050     -0.648375
  H      -0.664595      2.229388      2.183951
  O      -2.385281      0.602516     -0.599058
  H       1.930155      1.358728      1.010025
  H       0.332212      2.943132     -0.904386
  O      -0.361049      2.664175     -0.286168
  H       2.151724      0.481740     -0.230549
  O       1.564733      0.597914      0.532470
  H      -0.288810      0.880548      2.818079
  O      -0.810538      1.273604      2.101349
  H      -0.081251     -1.708108      1.385337
  O      -0.711832     -1.346169      0.744749
  H      -0.681716     -1.955651     -0.009675
  B      -1.956069      0.056658     -1.943102
  H      -3.021409      0.006257     -0.184433
  O      -2.496273     -1.260681     -2.065522
  O      -2.300992      0.924308     -3.027150
  H      -2.209464     -1.654789     -2.896605
  H      -2.040545      1.834405     -2.849299
  H       0.015967      0.530866     -2.450088
22
Coordinates from ORCA-job input E -2141.433086654529
  Ni     -0.472660      0.638656      0.173855
  O      -0.425240      0.015238     -1.768089
  H      -1.195163      3.042984     -0.628858
  H      -0.640124      2.233542      2.190833
  O      -2.386290      0.605778     -0.601280
  H       1.935472      1.363675      1.019082
  H       0.315069      2.954113     -0.907827
  O      -0.368721      2.673489     -0.280097
  H       2.159442      0.479760     -0.219342
  O       1.568560      0.605499      0.538892
  H      -0.291774      0.875733      2.827761
  O      -0.800690      1.280214      2.108452
  H      -0.050955     -1.729424      1.333210
  O      -0.711834     -1.342877      0.739597
  H      -0.753400     -1.939981     -0.024675
  B      -1.950414      0.052424     -1.937794
  H      -3.038150      0.020653     -0.195544
  O      -2.484974     -1.269186     -2.046918
  O      -2.296802      0.907560     -3.032215
  H      -2.206500     -1.666888     -2.879165
  H      -2.022493      1.817020     -2.871787
  H       0.016605      0.523547     -2.458516
22
Coordinates from ORCA-job input E -2141.433528390262
  Ni     -0.469069      0.648638      0.177239
  O      -0.418213      0.028701     -1.767292
  H      -1.208041      3.052731     -0.606284
  H      -0.620769      2.235124      2.201753
  O      -2.384438      0.617126     -0.604668
  H       1.942811      1.357923      1.033338
  H       0.303123      2.970580     -0.908400
  O      -0.372933      2.688810     -0.273335
  H       2.163344      0.469784     -0.211304
  O       1.573487      0.606506      0.545270
  H      -0.297050      0.864463      2.836943
  O      -0.792483      1.284171      2.117478
  H      -0.032074     -1.748314      1.270587
  O      -0.716069     -1.337491      0.721817
  H      -0.824579     -1.910886     -0.054732
  B      -1.941953      0.047982     -1.929053
  H      -3.049912      0.041638     -0.207099
  O      -2.463640     -1.282540     -2.009335
  O      -2.300187      0.877459     -3.041503
  H      -2.192357     -1.691994     -2.838365
  H      -2.010761      1.786754     -2.905777
  H       0.010728      0.534367     -2.467704
22
Coordinates from ORCA-job input E -2141.434154839613
  Ni     -0.464696      0.663447      0.179127
  O      -0.409991      0.053674     -1.767312
  H      -1.216533      3.064981     -0.582691
  H      -0.610202      2.234339      2.215755
  O      -2.377155      0.637860     -0.608867
  H       1.951428      1.338937      1.051019
  H       0.299001      2.991000     -0.904626
  O      -0.372382      2.709084     -0.265444
  H       2.160362      0.448791     -0.208100
  O       1.578121      0.598098      0.551152
  H      -0.302910      0.847920      2.843368
  O      -0.786911      1.285088      2.127240
  H      -0.031607     -1.762608      1.199572
  O      -0.728713     -1.328363      0.687801
  H      -0.891250     -1.864300     -0.106823
  B      -1.929523      0.044642     -1.917189
  H      -3.051629      0.068688     -0.216609
  O      -2.428104     -1.299576     -1.950401
  O      -2.312517      0.831361     -3.055595
  H      -2.159843     -1.730709     -2.769632
  H      -2.016056      1.742844     -2.948053
  H       0.000075      0.566330     -2.474119
22
Coordinates from ORCA-job input E -2141.434870009083
  Ni     -0.459912      0.679688      0.180918
  O      -0.401142      0.084002     -1.766071
  H      -1.222683      3.075261     -0.558421
  H      -0.602290      2.232124      2.230930
  O      -2.365429      0.663012     -0.613589
  H       1.960190      1.314797      1.066405
  H       0.297580      3.011933     -0.897015
  O      -0.369809      2.729789     -0.254499
  H       2.152714      0.423217     -0.207871
  O       1.581097      0.584788      0.556194
  H      -0.307521      0.830131      2.847021
  O      -0.782491      1.284534      2.136168
  H      -0.043136     -1.774596      1.123589
  O      -0.748399     -1.315824      0.646798
  H      -0.956682     -1.807910     -0.166528
  B      -1.914148      0.042849     -1.905548
  H      -3.046018      0.098889     -0.223654
  O      -2.383025     -1.315757     -1.883168
  O      -2.327657      0.774701     -3.072549
  H      -2.116230     -1.771949     -2.689534
  H      -2.038065      1.691891     -2.994027
  H      -0.007980      0.605962     -2.475975
22
Coordinates from ORCA-job input E -2141.435646517894
  Ni     -0.454718      0.696836      0.183524
  O      -0.392105      0.119344     -1.760856
  H      -1.226840      3.078931     -0.536055
  H      -0.595851      2.228924      2.247165
  O      -2.347105      0.691744     -0.617634
  H       1.968602      1.286514      1.076201
  H       0.298481      3.031364     -0.884580
  O      -0.365690      2.748877     -0.239503
  H       2.138146      0.394470     -0.212610
  O       1.580997      0.566441      0.559268
  H      -0.309611      0.812475      2.846734
  O      -0.779238      1.283234      2.143383
  H      -0.071418     -1.783974      1.043667
  O      -0.778704     -1.298003      0.599158
  H      -1.022810     -1.739033     -0.235916
  B      -1.895128      0.044183     -1.895649
  H      -3.028852      0.130015     -0.225271
  O      -2.325120     -1.329924     -1.809405
  O      -2.344762      0.706535     -3.091718
  H      -2.059064     -1.812813     -2.600726
  H      -2.081845      1.634125     -3.040648
  H      -0.008399      0.651265     -2.468953
22
Coordinates from ORCA-job input E -2141.435997686611
  Ni     -0.448966      0.710867      0.188183
  O      -0.383364      0.148014     -1.750828
  H      -1.235211      3.071419     -0.520499
  H      -0.581189      2.228330      2.260442
  O      -2.327491      0.712412     -0.620187
  H       1.975698      1.266556      1.081158
  H       0.292836      3.044390     -0.876509
  O      -0.365920      2.761724     -0.226273
  H       2.124922      0.372490     -0.216073
  O       1.579557      0.553305      0.561816
  H      -0.309066      0.800344      2.845729
  O      -0.772875      1.285385      2.148433
  H      -0.097946     -1.795213      0.960472
  O      -0.809128     -1.277989      0.560602
  H      -1.105061     -1.666701     -0.286407
  B      -1.875867      0.043964     -1.888998
  H      -3.011439      0.154948     -0.224763
  O      -2.267884     -1.344959     -1.754377
  O      -2.355059      0.648397     -3.102489
  H      -2.005343     -1.844142     -2.537109
  H      -2.122681      1.585421     -3.065562
  H       0.000440      0.682565     -2.457189
22
Coordinates from ORCA-job input E -2141.436359867329
  Ni     -0.444765      0.709062      0.194104
  O      -0.380656      0.141446     -1.741539
  H      -1.248571      3.053695     -0.523367
  H      -0.557312      2.234320      2.258479
  O      -2.321558      0.701651     -0.621214
  H       1.976267      1.282973      1.081374
  H       0.278266      3.039385     -0.880431
  O      -0.376054      2.756293     -0.225782
  H       2.132175      0.379276     -0.207660
  O       1.581706      0.566628      0.565032
  H      -0.308636      0.804671      2.849343
  O      -0.762511      1.293924      2.148450
  H      -0.079611     -1.807852      0.924308
  O      -0.804926     -1.274470      0.574214
  H      -1.168774     -1.654614     -0.251046
  B      -1.870958      0.040223     -1.894224
  H      -3.015405      0.152686     -0.231064
  O      -2.269433     -1.349547     -1.775250
  O      -2.345358      0.657220     -3.102001
  H      -2.011468     -1.840501     -2.564838
  H      -2.119209      1.594653     -3.044841
  H       0.015755      0.660409     -2.452473
22
Coordinates from ORCA-job input E -2141.436810551305
  Ni     -0.442648      0.714974      0.192325
  O      -0.372328      0.149280     -1.751806
  H      -1.255049      3.063297     -0.524039
  H      -0.545370      2.231286      2.269238
  O      -2.328526      0.704787     -0.627497
  H       1.983547      1.276786      1.098992
  H       0.271388      3.054004     -0.889126
  O      -0.379267      2.770669     -0.231121
  H       2.142688      0.377442     -0.197618
  O       1.589559      0.567982      0.572121
  H      -0.322703      0.792374      2.858562
  O      -0.760780      1.293628      2.156544
  H      -0.054458     -1.819769      0.868113
  O      -0.794186     -1.277291      0.566724
  H      -1.213694     -1.639107     -0.241993
  B      -1.866540      0.029899     -1.885163
  H      -3.036032      0.167684     -0.244543
  O      -2.269697     -1.357001     -1.755208
  O      -2.347562      0.647458     -3.091447
  H      -2.011648     -1.857106     -2.539013
  H      -2.088567      1.577675     -3.052400
  H       0.000839      0.672577     -2.472071
22
Coordinates from ORCA-job input E -2141.437680986409
  Ni     -0.444901      0.712708      0.189427
  O      -0.356597      0.150574     -1.756795
  H      -1.241946      3.039661     -0.589790
  H      -0.554204      2.224533      2.291773
  O      -2.331761      0.699364     -0.620724
  H       1.997933      1.284344      1.080373
  H       0.271510      3.047090     -0.919234
  O      -0.373673      2.766640     -0.251944
  H       2.149762      0.400418     -0.198783
  O       1.589567      0.565789      0.574341
  H      -0.337628      0.796698      2.860240
  O      -0.782170      1.291653      2.155776
  H      -0.065103     -1.829778      0.884705
  O      -0.805055     -1.280362      0.594568
  H      -1.204752     -1.664049     -0.231906
  B      -1.862969      0.021012     -1.888380
  H      -3.029878      0.171114     -0.209146
  O      -2.278723     -1.372110     -1.788982
  O      -2.346585      0.676064     -3.053555
  H      -2.017522     -1.860464     -2.578948
  H      -2.105931      1.610500     -3.005672
  H       0.029591      0.690131     -2.457769
22
Coordinates from ORCA-job input E -2141.438780562838
  Ni     -0.441511      0.724812      0.189854
  O      -0.351623      0.176137     -1.759177
  H      -1.252599      3.050662     -0.550017
  H      -0.546627      2.215464      2.318510
  O      -2.325375      0.721947     -0.619947
  H       2.015909      1.263442      1.076924
  H       0.253651      3.068974     -0.925143
  O      -0.371820      2.782952     -0.241223
  H       2.147476      0.377322     -0.202506
  O       1.591523      0.554021      0.571393
  H      -0.337936      0.778136      2.863141
  O      -0.776999      1.286006      2.163966
  H      -0.088836     -1.845660      0.811671
  O      -0.826637     -1.269346      0.570116
  H      -1.272793     -1.616284     -0.248826
  B      -1.853689      0.023011     -1.881440
  H      -3.030369      0.205660     -0.207337
  O      -2.223602     -1.377874     -1.734222
  O      -2.346795      0.622245     -3.071630
  H      -1.961540     -1.883816     -2.513612
  H      -2.126391      1.561628     -3.071289
  H       0.025549      0.722091     -2.459632
22
Coordinates from ORCA-job input E -2141.439137947042
  Ni     -0.442692      0.724556      0.190610
  O      -0.356619      0.188254     -1.760842
  H      -1.230995      3.040712     -0.566685
  H      -0.555192      2.206259      2.335737
  O      -2.317859      0.728153     -0.622176
  H       2.022096      1.248094      1.064230
  H       0.274130      3.072633     -0.898065
  O      -0.360730      2.782051     -0.226777
  H       2.142496      0.388962     -0.214019
  O       1.587783      0.542247      0.564243
  H      -0.335267      0.772671      2.857162
  O      -0.783336      1.279820      2.164039
  H      -0.121969     -1.855028      0.817017
  O      -0.851509     -1.267668      0.575189
  H      -1.262497     -1.614299     -0.242804
  B      -1.853992      0.034868     -1.893231
  H      -3.014674      0.212637     -0.195309
  O      -2.188457     -1.358400     -1.713354
  O      -2.361141      0.598715     -3.100378
  H      -1.915569     -1.875221     -2.481800
  H      -2.205857      1.549556     -3.123820
  H       0.030815      0.741960     -2.449394
22
Coordinates from ORCA-job input E -2141.439775894617
  Ni     -0.438156      0.730988      0.189029
  O      -0.348098      0.201615     -1.769778
  H      -1.237435      3.051403     -0.543374
  H      -0.548019      2.197761      2.353311
  O      -2.316293      0.740263     -0.631453
  H       2.033962      1.246442      1.069316
  H       0.260735      3.086764     -0.909949
  O      -0.358214      2.793117     -0.224475
  H       2.153439      0.381404     -0.206209
  O       1.593663      0.544638      0.567394
  H      -0.344180      0.756072      2.860984
  O      -0.780692      1.274775      2.168778
  H      -0.109885     -1.865471      0.765897
  O      -0.844040     -1.265426      0.577613
  H      -1.313063     -1.601126     -0.226372
  B      -1.848066      0.026908     -1.890126
  H      -3.030240      0.245888     -0.208629
  O      -2.181484     -1.368208     -1.696811
  O      -2.357124      0.573382     -3.099557
  H      -1.911975     -1.894171     -2.459732
  H      -2.200160      1.522937     -3.145047
  H       0.024288      0.761577     -2.461236
22
Coordinates from ORCA-job input E -2141.439980704414
  Ni     -0.437580      0.727242      0.186406
  O      -0.349777      0.200360     -1.780730
  H      -1.220868      3.058053     -0.551350
  H      -0.555389      2.193767      2.348872
  O      -2.318856      0.741948     -0.646432
  H       2.025256      1.256600      1.079967
  H       0.284057      3.083559     -0.893420
  O      -0.348419      2.789549     -0.219172
  H       2.162366      0.396698     -0.199711
  O       1.594109      0.552983      0.570561
  H      -0.349027      0.748867      2.856906
  O      -0.783498      1.269408      2.164326
  H      -0.073778     -1.858535      0.792973
  O      -0.818868     -1.271035      0.606868
  H      -1.289759     -1.631279     -0.194018
  B      -1.853933      0.020498     -1.895202
  H      -3.045796      0.263204     -0.228467
  O      -2.214787     -1.374017     -1.721194
  O      -2.359650      0.575818     -3.100100
  H      -1.950050     -1.896355     -2.487617
  H      -2.206156      1.526419     -3.136917
  H       0.009368      0.767778     -2.472974
22
Coordinates from ORCA-job input E -2141.440491857794
  Ni     -0.434027      0.733892      0.185591
  O      -0.345850      0.218742     -1.786164
  H      -1.217019      3.063389     -0.528485
  H      -0.545609      2.181703      2.365074
  O      -2.311597      0.757762     -0.656950
  H       2.029610      1.246905      1.083889
  H       0.283044      3.094645     -0.884256
  O      -0.341424      2.797299     -0.205001
  H       2.163416      0.391795     -0.196834
  O       1.593419      0.549973      0.570834
  H      -0.357058      0.727622      2.852702
  O      -0.780652      1.262625      2.164950
  H      -0.075374     -1.866028      0.733543
  O      -0.820613     -1.264068      0.601707
  H      -1.333306     -1.601194     -0.180480
  B      -1.846768      0.020685     -1.894693
  H      -3.053277      0.297979     -0.242244
  O      -2.186851     -1.373794     -1.685799
  O      -2.366818      0.534080     -3.113212
  H      -1.923680     -1.910604     -2.442975
  H      -2.232344      1.485886     -3.182122
  H       0.001743      0.792234     -2.479501
22
Coordinates from ORCA-job input E -2141.440862820798
  Ni     -0.434207      0.738352      0.182092
  O      -0.347897      0.237304     -1.795771
  H      -1.194110      3.071819     -0.520161
  H      -0.544867      2.166824      2.373812
  O      -2.307412      0.777412     -0.670491
  H       2.020469      1.233229      1.092966
  H       0.309497      3.098677     -0.854176
  O      -0.324987      2.799973     -0.185227
  H       2.157666      0.395377     -0.197630
  O       1.585711      0.543067      0.570207
  H      -0.367199      0.703779      2.840146
  O      -0.784010      1.252293      2.159138
  H      -0.066884     -1.858619      0.702747
  O      -0.818222     -1.257883      0.601140
  H      -1.336766     -1.581782     -0.178641
  B      -1.845358      0.022895     -1.894226
  H      -3.062170      0.337179     -0.257859
  O      -2.162204     -1.372465     -1.650498
  O      -2.384195      0.488981     -3.125782
  H      -1.902912     -1.920678     -2.400854
  H      -2.272947      1.441045     -3.225044
  H      -0.018030      0.824750     -2.486314
22
Coordinates from ORCA-job input E -2141.441134046888
  Ni     -0.434167      0.740209      0.178436
  O      -0.351044      0.250416     -1.808574
  H      -1.168825      3.080126     -0.516145
  H      -0.537580      2.151021      2.380952
  O      -2.306150      0.793295     -0.687989
  H       2.007548      1.228700      1.106790
  H       0.339484      3.098572     -0.822201
  O      -0.308320      2.799409     -0.166094
  H       2.158392      0.407967     -0.192966
  O       1.579200      0.543828      0.571759
  H      -0.383189      0.678188      2.828039
  O      -0.786578      1.242685      2.151918
  H      -0.039477     -1.849485      0.671022
  O      -0.800785     -1.254812      0.615338
  H      -1.341773     -1.572914     -0.154472
  B      -1.847095      0.021588     -1.896902
  H      -3.080500      0.381194     -0.282759
  O      -2.153692     -1.373737     -1.629589
  O      -2.398233      0.451338     -3.136815
  H      -1.902068     -1.930405     -2.376314
  H      -2.305478      1.402950     -3.257217
  H      -0.040703      0.851396     -2.496643
22
Coordinates from ORCA-job input E -2141.441322219527
  Ni     -0.439715      0.738468      0.173703
  O      -0.360970      0.254027     -1.819002
  H      -1.133867      3.088043     -0.532991
  H      -0.538753      2.141293      2.376237
  O      -2.311881      0.804072     -0.696927
  H       1.984743      1.219005      1.119531
  H       0.384412      3.088201     -0.780791
  O      -0.291576      2.792761     -0.151893
  H       2.149908      0.425203     -0.195556
  O       1.567763      0.538101      0.570632
  H      -0.396320      0.664400      2.814027
  O      -0.795274      1.236477      2.141475
  H      -0.012299     -1.825659      0.683198
  O      -0.791225     -1.254239      0.622305
  H      -1.302361     -1.574358     -0.166143
  B      -1.855369      0.023493     -1.898819
  H      -3.093012      0.403973     -0.292706
  O      -2.145767     -1.373204     -1.612841
  O      -2.416316      0.429756     -3.143559
  H      -1.903659     -1.931581     -2.361510
  H      -2.336122      1.381990     -3.270137
  H      -0.063374      0.871308     -2.498659
22
Coordinates from ORCA-job input E -2141.441458779293
  Ni     -0.441373      0.738048      0.171850
  O      -0.364148      0.254160     -1.825687
  H      -1.119858      3.092392     -0.543400
  H      -0.529411      2.135169      2.378577
  O      -2.316450      0.807790     -0.702394
  H       1.976349      1.216522      1.130130
  H       0.402840      3.084902     -0.765012
  O      -0.285619      2.791443     -0.148410
  H       2.152129      0.437296     -0.193030
  O       1.565875      0.538724      0.572019
  H      -0.411054      0.654893      2.811325
  O      -0.798509      1.235172      2.138845
  H       0.007300     -1.815809      0.667314
  O      -0.781040     -1.255583      0.625963
  H      -1.301461     -1.569404     -0.163720
  B      -1.858736      0.020125     -1.900351
  H      -3.105330      0.419836     -0.301978
  O      -2.143625     -1.377402     -1.604188
  O      -2.422081      0.419217     -3.144418
  H      -1.909513     -1.938248     -2.353631
  H      -2.344999      1.371857     -3.270465
  H      -0.072321      0.880430     -2.499765
22
Coordinates from ORCA-job input E -2141.441584300587
  Ni     -0.443899      0.736325      0.170889
  O      -0.368585      0.248516     -1.830697
  H      -1.104831      3.095705     -0.564378
  H      -0.515302      2.131201      2.380216
  O      -2.323534      0.807253     -0.704580
  H       1.967805      1.212833      1.143035
  H       0.423757      3.079187     -0.748827
  O      -0.281927      2.788902     -0.150300
  H       2.156412      0.455742     -0.191027
  O       1.566087      0.539191      0.573299
  H      -0.431603      0.649384      2.812461
  O      -0.803105      1.237629      2.137709
  H       0.027811     -1.802664      0.650155
  O      -0.772763     -1.259425      0.624832
  H      -1.298816     -1.564363     -0.168722
  B      -1.863615      0.015409     -1.902896
  H      -3.117738      0.427827     -0.307117
  O      -2.142267     -1.382047     -1.596982
  O      -2.427286      0.415457     -3.144031
  H      -1.917156     -1.945441     -2.347483
  H      -2.354665      1.369620     -3.261420
  H      -0.075816      0.885289     -2.494561
22
Coordinates from ORCA-job input E -2141.441641292162
  Ni     -0.444896      0.735389      0.170962
  O      -0.370988      0.245002     -1.832770
  H      -1.094328      3.097701     -0.578447
  H      -0.505344      2.128569      2.382167
  O      -2.326375      0.807067     -0.706024
  H       1.963260      1.209025      1.152672
  H       0.437922      3.075426     -0.737925
  O      -0.279199      2.786889     -0.152394
  H       2.160555      0.470402     -0.189626
  O       1.567363      0.539480      0.573977
  H      -0.447384      0.645739      2.814127
  O      -0.806094      1.239840      2.137563
  H       0.039425     -1.794195      0.633951
  O      -0.768578     -1.261717      0.622391
  H      -1.298711     -1.561037     -0.171323
  B      -1.866172      0.012334     -1.904396
  H      -3.124010      0.432962     -0.310580
  O      -2.141926     -1.383880     -1.592025
  O      -2.430901      0.411171     -3.144571
  H      -1.921100     -1.950558     -2.341367
  H      -2.366992      1.366371     -3.258389
  H      -0.076563      0.889551     -2.488399
22
Coordinates from ORCA-job input E -2141.441708042581
  Ni     -0.445513      0.734258      0.171812
  O      -0.373488      0.240040     -1.833627
  H      -1.080813      3.100244     -0.595862
  H      -0.492723      2.125617      2.384496
  O      -2.328150      0.806840     -0.707252
  H       1.957959      1.202947      1.166487
  H       0.455576      3.070080     -0.725308
  O      -0.275415      2.783326     -0.156571
  H       2.166991      0.491960     -0.187539
  O       1.569895      0.540332      0.574617
  H      -0.469246      0.641687      2.816997
  O      -0.809633      1.243223      2.137602
  H       0.053567     -1.783138      0.609342
  O      -0.763232     -1.264130      0.618567
  H      -1.299300     -1.559058     -0.172320
  B      -1.869031      0.008602     -1.905002
  H      -3.130075      0.438865     -0.314781
  O      -2.144056     -1.385520     -1.587490
  O      -2.435010      0.405393     -3.145059
  H      -1.926820     -1.956549     -2.334558
  H      -2.385133      1.361558     -3.256773
  H      -0.077385      0.894954     -2.478205
22
Coordinates from ORCA-job input E -2141.441764887680
  Ni     -0.445635      0.733563      0.172947
  O      -0.375068      0.235559     -1.832763
  H      -1.068691      3.102920     -0.610393
  H      -0.483056      2.123267      2.386104
  O      -2.328103      0.807185     -0.707428
  H       1.953259      1.195329      1.180442
  H       0.470577      3.065023     -0.716183
  O      -0.271489      2.779208     -0.161730
  H       2.173024      0.513350     -0.185690
  O       1.572406      0.541089      0.574724
  H      -0.489373      0.638601      2.819606
  O      -0.812764      1.246169      2.137382
  H       0.065579     -1.772685      0.584045
  O      -0.758183     -1.265301      0.614481
  H      -1.300087     -1.559624     -0.171601
  B      -1.871159      0.005720     -1.903262
  H      -3.133543      0.443913     -0.317676
  O      -2.147752     -1.386839     -1.584407
  O      -2.438141      0.399655     -3.144276
  H      -1.932250     -1.960865     -2.329575
  H      -2.400493      1.356058     -3.257286
  H      -0.080093      0.900235     -2.467889
22
Coordinates from ORCA-job input E -2141.441801606670
  Ni     -0.445481      0.733506      0.173744
  O      -0.375336      0.232715     -1.830625
  H      -1.062471      3.104896     -0.618064
  H      -0.480572      2.122829      2.386181
  O      -2.326796      0.807462     -0.706194
  H       1.950763      1.188330      1.189839
  H       0.477687      3.062382     -0.714069
  O      -0.269177      2.776132     -0.166387
  H       2.176399      0.527130     -0.185240
  O       1.573933      0.541215      0.574071
  H      -0.499776      0.637999      2.821205
  O      -0.814702      1.247602      2.136916
  H       0.071517     -1.766878      0.568580
  O      -0.755302     -1.264999      0.611539
  H      -1.300721     -1.562540     -0.170228
  B      -1.872020      0.004652     -1.899969
  H      -3.133276      0.445341     -0.317373
  O      -2.151336     -1.387721     -1.583731
  O      -2.439033      0.396982     -3.142264
  H      -1.935634     -1.961693     -2.328784
  H      -2.405569      1.353105     -3.257965
  H      -0.084131      0.903085     -2.461609
22
Coordinates from ORCA-job input E -2141.441820748910
  Ni     -0.445407      0.733889      0.173704
  O      -0.375015      0.231739     -1.829089
  H      -1.060512      3.106436     -0.620539
  H      -0.483656      2.123386      2.385559
  O      -2.325572      0.807644     -0.704856
  H       1.950025      1.182553      1.194738
  H       0.479232      3.062373     -0.715609
  O      -0.268154      2.774772     -0.169276
  H       2.177395      0.533371     -0.186027
  O       1.574385      0.540552      0.572942
  H      -0.501575      0.638703      2.821563
  O      -0.815830      1.247441      2.136189
  H       0.073014     -1.765325      0.563670
  O      -0.754151     -1.264091      0.610297
  H      -1.300842     -1.565341     -0.169260
  B      -1.872176      0.004718     -1.897174
  H      -3.131353      0.444748     -0.315227
  O      -2.153180     -1.388366     -1.583664
  O      -2.438807      0.396359     -3.140373
  H      -1.936961     -1.960511     -2.329941
  H      -2.403192      1.352173     -3.257958
  H      -0.088702      0.904309     -2.460095
22
Coordinates from ORCA-job input E -2141.441831458057
  Ni     -0.445516      0.734294      0.173013
  O      -0.374965      0.231411     -1.828918
  H      -1.058685      3.108031     -0.622449
  H      -0.487925      2.123690      2.385180
  O      -2.325101      0.807658     -0.704301
  H       1.949606      1.176868      1.198679
  H       0.480463      3.063508     -0.716081
  O      -0.267258      2.774290     -0.170963
  H       2.178027      0.537988     -0.186957
  O       1.574549      0.539616      0.571675
  H      -0.501348      0.639315      2.821268
  O      -0.816907      1.246684      2.135227
  H       0.074198     -1.764848      0.562246
  O      -0.752865     -1.263496      0.610210
  H      -1.300619     -1.566755     -0.168282
  B      -1.872518      0.004668     -1.895842
  H      -3.130070      0.444476     -0.313265
  O      -2.153786     -1.389076     -1.582947
  O      -2.438927      0.395834     -3.139427
  H      -1.937982     -1.959522     -2.330677
  H      -2.400237      1.351572     -3.257172
  H      -0.093174      0.905326     -2.460643
22
Coordinates from ORCA-job input E -2141.441840082828
  Ni     -0.445748      0.734699      0.171840
  O      -0.375297      0.231010     -1.829646
  H      -1.055730      3.110035     -0.625761
  H      -0.492943      2.123890      2.385025
  O      -2.325107      0.807394     -0.704199
  H       1.949241      1.169470      1.203738
  H       0.483087      3.065387     -0.714743
  O      -0.266104      2.774112     -0.172669
  H       2.179239      0.544179     -0.187913
  O       1.574964      0.538392      0.570066
  H      -0.501425      0.639945      2.820795
  O      -0.818351      1.245825      2.134017
  H       0.076094     -1.764323      0.561534
  O      -0.751095     -1.263279      0.610398
  H      -1.299915     -1.567317     -0.167424
  B      -1.873271      0.004147     -1.895540
  H      -3.129204      0.444442     -0.311206
  O      -2.154023     -1.389948     -1.581743
  O      -2.439631      0.395119     -3.139114
  H      -1.939445     -1.959159     -2.330829
  H      -2.398876      1.351024     -3.255473
  H      -0.097495      0.906487     -2.461579
22
Coordinates from ORCA-job input E -2141.441847106668
  Ni     -0.445997      0.735106      0.170397
  O      -0.375956      0.230533     -1.830914
  H      -1.051848      3.112205     -0.630275
  H      -0.498060      2.124126      2.384930
  O      -2.325319      0.806963     -0.704425
  H       1.948943      1.160739      1.209753
  H       0.487191      3.067697     -0.711412
  O      -0.264760      2.774083     -0.174441
  H       2.181035      0.551885     -0.188749
  O       1.575662      0.537079      0.568216
  H      -0.502253      0.640490      2.820194
  O      -0.819942      1.245116      2.132637
  H       0.078443     -1.763631      0.561061
  O      -0.749110     -1.263326      0.610543
  H      -1.298805     -1.567122     -0.166792
  B      -1.874301      0.003200     -1.896057
  H      -3.128618      0.444617     -0.309287
  O      -2.154068     -1.390776     -1.580452
  O      -2.440926      0.394131     -3.139324
  H      -1.941184     -1.959618     -2.330358
  H      -2.400460      1.350392     -3.253388
  H      -0.100702      0.907642     -2.462283
22
Coordinates from ORCA-job input E -2141.441853252353
  Ni     -0.446204      0.735548      0.168827
  O      -0.376814      0.230103     -1.832372
  H      -1.047454      3.114310     -0.635457
  H      -0.502989      2.124486      2.384635
  O      -2.325525      0.806533     -0.704775
  H       1.948643      1.151239      1.216294
  H       0.492381      3.070223     -0.706343
  O      -0.263355      2.774079     -0.176194
  H       2.183099      0.560514     -0.189445
  O       1.576447      0.535876      0.566203
  H      -0.503665      0.640836      2.819337
  O      -0.821412      1.244600      2.131062
  H       0.080906     -1.762846      0.560829
  O      -0.747089     -1.263395      0.610598
  H      -1.297337     -1.566527     -0.166281
  B      -1.875420      0.002048     -1.896912
  H      -3.128172      0.444916     -0.307669
  O      -2.154049     -1.391424     -1.579398
  O      -2.442703      0.392961     -3.139709
  H      -1.942973     -1.960742     -2.329477
  H      -2.404859      1.349626     -3.251470
  H      -0.102492      0.908567     -2.462707
22
Coordinates from ORCA-job input E -2141.441858522184
  Ni     -0.446352      0.736043      0.167336
  O      -0.377685      0.229944     -1.833686
  H      -1.043233      3.116027     -0.640501
  H      -0.507116      2.124889      2.384039
  O      -2.325623      0.806310     -0.705066
  H       1.948276      1.142331      1.222371
  H       0.497752      3.072688     -0.700238
  O      -0.262143      2.774069     -0.177599
  H       2.184853      0.568652     -0.190023
  O       1.576991      0.535039      0.564257
  H      -0.505211      0.640807      2.818164
  O      -0.822435      1.244233      2.129397
  H       0.082985     -1.762141      0.560823
  O      -0.745315     -1.263267      0.610590
  H      -1.295803     -1.565888     -0.165854
  B      -1.876371      0.001032     -1.897553
  H      -3.127881      0.445285     -0.306629
  O      -2.153940     -1.391817     -1.578663
  O      -2.444699      0.391738     -3.139875
  H      -1.944394     -1.962196     -2.328343
  H      -2.410722      1.348679     -3.250275
  H      -0.102970      0.909074     -2.463097
22
Coordinates from ORCA-job input E -2141.441862748854
  Ni     -0.446469      0.736509      0.166207
  O      -0.378402      0.230080     -1.834545
  H      -1.039939      3.117002     -0.644795
  H      -0.509650      2.125191      2.383287
  O      -2.325660      0.806288     -0.705127
  H       1.947858      1.135828      1.226801
  H       0.502133      3.074741     -0.694268
  O      -0.261472      2.774052     -0.178378
  H       2.185800      0.574727     -0.190527
  O       1.577079      0.534809      0.562710
  H      -0.506414      0.640433      2.816918
  O      -0.822800      1.244007      2.127950
  H       0.084250     -1.761702      0.560973
  O      -0.744102     -1.262928      0.610590
  H      -1.294636     -1.565571     -0.165499
  B      -1.876964      0.000452     -1.897644
  H      -3.127823      0.445465     -0.306294
  O      -2.153792     -1.391991     -1.578279
  O      -2.446470      0.390817     -3.139592
  H      -1.945156     -1.963467     -2.327325
  H      -2.415792      1.347826     -3.249896
  H      -0.102613      0.908963     -2.463692
22
Coordinates from ORCA-job input E -2141.441866113175
  Ni     -0.446617      0.736869      0.165514
  O      -0.378975      0.230268     -1.834930
  H      -1.037511      3.117288     -0.648752
  H      -0.510478      2.125295      2.382663
  O      -2.325785      0.806253     -0.704913
  H       1.947448      1.131969      1.229550
  H       0.505293      3.076338     -0.688950
  O      -0.261418      2.774026     -0.178699
  H       2.186034      0.578826     -0.190995
  O       1.576826      0.535158      0.561615
  H      -0.507314      0.639932      2.815947
  O      -0.822680      1.243929      2.126920
  H       0.084842     -1.761471      0.560956
  O      -0.743431     -1.262558      0.610622
  H      -1.294014     -1.565695     -0.165200
  B      -1.877294      0.000273     -1.897267
  H      -3.128027      0.445228     -0.306405
  O      -2.153749     -1.392123     -1.578121
  O      -2.447815      0.390380     -3.138940
  H      -1.945424     -1.964269     -2.326692
  H      -2.418770      1.347321     -3.249846
  H      -0.102175      0.908295     -2.464502
22
Coordinates from ORCA-job input E -2141.441869143717
  Ni     -0.446835      0.737185      0.165083
  O      -0.379549      0.230494     -1.835133
  H      -1.035236      3.117263     -0.653193
  H      -0.510140      2.125125      2.382415
  O      -2.326078      0.806166     -0.704584
  H       1.947133      1.129604      1.231367
  H       0.507962      3.077901     -0.683527
  O      -0.261781      2.774115     -0.178746
  H       2.185904      0.581986     -0.191496
  O       1.576431      0.535881      0.560744
  H      -0.508176      0.639327      2.815324
  O      -0.822349      1.243895      2.126275
  H       0.085062     -1.761303      0.560534
  O      -0.743137     -1.262279      0.610597
  H      -1.293851     -1.565985     -0.165082
  B      -1.877551      0.000268     -1.896704
  H      -3.128473      0.444752     -0.306735
  O      -2.153740     -1.392347     -1.577805
  O      -2.448971      0.390003     -3.138174
  H      -1.945339     -1.964788     -2.326097
  H      -2.420157      1.346829     -3.249909
  H      -0.102164      0.907437     -2.465578
22
Coordinates from ORCA-job input E -2141.441872658916
  Ni     -0.447198      0.737520      0.164728
  O      -0.380383      0.230633     -1.835317
  H      -1.032079      3.117111     -0.659856
  H      -0.509010      2.124724      2.382551
  O      -2.326649      0.805817     -0.704123
  H       1.946938      1.127385      1.233174
  H       0.511303      3.080027     -0.676081
  O      -0.262562      2.774338     -0.178779
  H       2.185692      0.585845     -0.192199
  O       1.576006      0.537067      0.559694
  H      -0.509344      0.638665      2.815027
  O      -0.821918      1.243913      2.125852
  H       0.085225     -1.761060      0.559718
  O      -0.743018     -1.262151      0.610527
  H      -1.293961     -1.566416     -0.165049
  B      -1.877992      0.000215     -1.896128
  H      -3.129167      0.443830     -0.307047
  O      -2.153926     -1.392793     -1.577359
  O      -2.450306      0.389552     -3.137378
  H      -1.945171     -1.965211     -2.325559
  H      -2.420836      1.346279     -3.249792
  H      -0.102678      0.906242     -2.467028
22
Coordinates from ORCA-job input E -2141.441876857003
  Ni     -0.447748      0.737910      0.164383
  O      -0.381574      0.230695     -1.835616
  H      -1.027395      3.117038     -0.669384
  H      -0.507422      2.124037      2.383207
  O      -2.327539      0.805202     -0.703632
  H       1.946927      1.124770      1.235221
  H       0.515938      3.082944     -0.665651
  O      -0.263638      2.774733     -0.178898
  H       2.185524      0.590964     -0.193200
  O       1.575630      0.538659      0.558286
  H      -0.510991      0.637908      2.815104
  O      -0.821556      1.243904      2.125672
  H       0.085521     -1.760546      0.558434
  O      -0.743026     -1.262229      0.610358
  H      -1.294210     -1.566784     -0.165208
  B      -1.878769     -0.000085     -1.895708
  H      -3.130083      0.442644     -0.307137
  O      -2.154309     -1.393530     -1.576657
  O      -2.451974      0.388659     -3.136747
  H      -1.944987     -1.965682     -2.324917
  H      -2.421429      1.345327     -3.249596
  H      -0.103925      0.904992     -2.468739
22
Coordinates from ORCA-job input E -2141.441881140818
  Ni     -0.448425      0.738290      0.164117
  O      -0.382937      0.230678     -1.835956
  H      -1.021659      3.117071     -0.680433
  H      -0.506001      2.123222      2.384253
  O      -2.328586      0.804377     -0.703229
  H       1.947159      1.122237      1.236983
  H       0.521355      3.086215     -0.653349
  O      -0.264805      2.775210     -0.179109
  H       2.185357      0.596471     -0.194480
  O       1.575352      0.540420      0.556640
  H      -0.512676      0.637198      2.815548
  O      -0.821386      1.243797      2.125805
  H       0.085924     -1.759781      0.557146
  O      -0.743175     -1.262492      0.610171
  H      -1.294483     -1.566952     -0.165475
  B      -1.879829     -0.000699     -1.895606
  H      -3.130969      0.441420     -0.306774
  O      -2.154868     -1.394442     -1.575975
  O      -2.453692      0.387392     -3.136508
  H      -1.944866     -1.966152     -2.324419
  H      -2.422183      1.344051     -3.249507
  H      -0.105643      0.904000     -2.470268
22
Coordinates from ORCA-job input E -2141.441885137530
  Ni     -0.449218      0.738643      0.164097
  O      -0.384138      0.230817     -1.836084
  H      -1.015438      3.117015     -0.691694
  H      -0.506116      2.122482      2.385465
  O      -2.329661      0.803566     -0.703008
  H       1.947658      1.121622      1.236888
  H       0.527045      3.089465     -0.639819
  O      -0.265995      2.775716     -0.179067
  H       2.184691      0.599708     -0.196146
  O       1.574904      0.542205      0.555028
  H      -0.513090      0.636602      2.816301
  O      -0.821511      1.243225      2.126446
  H       0.086314     -1.758927      0.555690
  O      -0.743378     -1.262763      0.609895
  H      -1.294978     -1.566703     -0.165698
  B      -1.880944     -0.001558     -1.895632
  H      -3.131800      0.440579     -0.306089
  O      -2.155345     -1.395392     -1.575341
  O      -2.455014      0.385797     -3.136614
  H      -1.944661     -1.966694     -2.323940
  H      -2.422817      1.342419     -3.249951
  H      -0.107541      0.903709     -2.471152
22
Coordinates from ORCA-job input E -2141.441888941359
  Ni     -0.450266      0.738948      0.164360
  O      -0.385251      0.231096     -1.835911
  H      -1.008259      3.116750     -0.703686
  H      -0.508648      2.121981      2.386648
  O      -2.330881      0.802760     -0.702994
  H       1.948332      1.123395      1.234475
  H       0.533376      3.092634     -0.624227
  O      -0.267193      2.776169     -0.178683
  H       2.183213      0.600039     -0.198377
  O       1.574059      0.544029      0.553414
  H      -0.511564      0.636208      2.817313
  O      -0.822033      1.242001      2.127653
  H       0.086987     -1.757791      0.554994
  O      -0.743482     -1.263007      0.609624
  H      -1.294752     -1.566461     -0.166267
  B      -1.882230     -0.002587     -1.895762
  H      -3.132709      0.440135     -0.305119
  O      -2.155946     -1.396271     -1.574979
  O      -2.456033      0.384075     -3.137015
  H      -1.944684     -1.967312     -2.323646
  H      -2.423495      1.340616     -3.251009
  H      -0.109575      0.904123     -2.471231
22
Coordinates from ORCA-job input E -2141.441890067966
  Ni     -0.450839      0.739070      0.164747
  O      -0.385424      0.231456     -1.835502
  H      -1.005006      3.116543     -0.708351
  H      -0.512112      2.122151      2.386896
  O      -2.331386      0.802391     -0.703162
  H       1.948715      1.126507      1.231353
  H       0.536279      3.093555     -0.617159
  O      -0.267542      2.776292     -0.178161
  H       2.181880      0.597116     -0.199602
  O       1.573354      0.544722      0.552958
  H      -0.508762      0.636338      2.817821
  O      -0.822544      1.240923      2.128612
  H       0.087208     -1.757455      0.554021
  O      -0.743345     -1.262930      0.609635
  H      -1.295583     -1.566015     -0.165613
  B      -1.882640     -0.003124     -1.895797
  H      -3.133003      0.440108     -0.304560
  O      -2.155658     -1.396661     -1.575196
  O      -2.456013      0.383321     -3.137283
  H      -1.944379     -1.967710     -2.323851
  H      -2.423929      1.339785     -3.251869
  H      -0.110307      0.905146     -2.470363
22
Coordinates from ORCA-job input E -2141.441889593577
  Ni     -0.451258      0.739033      0.165038
  O      -0.385328      0.231726     -1.835137
  H      -1.004185      3.116401     -0.708749
  H      -0.515333      2.122518      2.386527
  O      -2.331628      0.802514     -0.703469
  H       1.948614      1.129380      1.228627
  H       0.537159      3.092950     -0.615802
  O      -0.267333      2.776154     -0.177722
  H       2.180718      0.593136     -0.199989
  O       1.572663      0.544511      0.553212
  H      -0.506036      0.636613      2.817822
  O      -0.823109      1.240097      2.129166
  H       0.087647     -1.757007      0.555999
  O      -0.743207     -1.262776      0.609564
  H      -1.293510     -1.566561     -0.166724
  B      -1.882796     -0.003100     -1.895830
  H      -3.133170      0.440520     -0.304452
  O      -2.155708     -1.396438     -1.575530
  O      -2.455765      0.383523     -3.137437
  H      -1.944785     -1.967857     -2.323973
  H      -2.424288      1.339936     -3.252373
  H      -0.110398      0.906255     -2.469193
22
Coordinates from ORCA-job input E -2141.441889718659
  Ni     -0.451293      0.739093      0.165037
  O      -0.385173      0.231877     -1.835074
  H      -1.004219      3.116552     -0.708248
  H      -0.515893      2.122754      2.386128
  O      -2.331621      0.802418     -0.703489
  H       1.948439      1.129761      1.228470
  H       0.537147      3.092617     -0.616377
  O      -0.267127      2.776097     -0.177669
  H       2.180536      0.592503     -0.199806
  O       1.572505      0.544413      0.553454
  H      -0.505221      0.636756      2.817546
  O      -0.823117      1.240045      2.129101
  H       0.087441     -1.757283      0.555085
  O      -0.743056     -1.262546      0.609718
  H      -1.294629     -1.566438     -0.165689
  B      -1.882566     -0.003038     -1.895714
  H      -3.133103      0.440150     -0.304603
  O      -2.155073     -1.396542     -1.575756
  O      -2.455709      0.383647     -3.137237
  H      -1.944430     -1.968001     -2.324231
  H      -2.424661      1.340059     -3.252199
  H      -0.110211      0.906637     -2.468873
