
# Read simulation box and atom positions
read_data       nickel.data
Reading data file ...
  orthogonal box = (0.0040776171 0.0040776171 0.0040776171) to (30.990022 30.990022 30.990022)
  1 by 1 by 1 MPI processor grid
  reading atoms ...
  3108 atoms
  reading velocities ...
  3108 velocities
  scanning bonds ...
  4 = max bonds/atom
  scanning angles ...
  6 = max angles/atom
  reading bonds ...
  2072 bonds
  reading angles ...
  1108 angles
Finding 1-2 1-3 1-4 neighbors ...
  special bond factors lj:    0        0        0       
  special bond factors coul:  0        0        0       
     4 = max # of 1-2 neighbors
     3 = max # of 1-3 neighbors
     3 = max # of 1-4 neighbors
     4 = max # of special neighbors
  special bonds CPU = 0.001 seconds
  read_data CPU = 0.022 seconds

# Mass of each atom type
mass            1 15.9994   # Oxygen
mass            2 1.008   # Hydrogen
mass            3 58.693    #Ni
mass            4 32.06      #S
mass            5 15.9994   # Oxygen in SO4

# Neighbor list settings
neighbor        2.0 bin
neigh_modify    delay 0 every 1 check yes

pair_style   lj/cut/coul/long 10.0 10.0
kspace_style pppm  1e-4
pair_modify     tail yes
pair_modify     mix arithmetic  # Lorentz–Berthelot mixing rule
bond_style      harmonic
angle_style     harmonic

# parameters for lennard jones potential
pair_coeff      1 1 0.1553        3.166   # water O-O SPC/E
pair_coeff      2 2 0.0000        0.000      # H-H
pair_coeff      3 3 0.0366       1.9495      #Ni J. Phys. Chem. A 2006, 110, 691-699
pair_coeff      4 4 0.25         3.55  #S
pair_coeff      5 5 0.20         3.15  # O in SO4

bond_coeff      1 1000.0   1.00  # O-H (water)
bond_coeff      2 250.0   1.49    # S-O
angle_coeff     1 100.0  109.47   # H-O-H (water)
angle_coeff     2 100.0  109.47   # O-S-O


# Initial velocity distribution
velocity        all create ${temp} 1904378 dist gaussian
velocity        all create 298.15 1904378 dist gaussian

min_style       cg
minimize        1e-6 1e-8 2000 20000
PPPM initialization ...
  using 12-bit tables for long-range coulomb (src/kspace.cpp:340)
  G vector (1/distance) = 0.27356808
  grid = 18 18 18
  stencil order = 5
  estimated absolute RMS force accuracy = 0.022456967
  estimated relative force accuracy = 6.762849e-05
  using double precision KISS FFT
  3d grid and FFT values/proc = 15625 5832
Last active /omp style is kspace_style pppm/omp
Neighbor list info ...
  update every 1 steps, delay 0 steps, check yes
  max neighbors/atom: 2000, page size: 100000
  master list distance cutoff = 12
  ghost atom cutoff = 12
  binsize = 6, bins = 6 6 6
  1 neighbor lists, perpetual/occasional/extra = 1 0 0
  (1) pair lj/cut/coul/long/omp, perpetual
      attributes: half, newton on, omp
      pair build: half/bin/newton/omp
      stencil: half/bin/3d
      bin: standard
Per MPI rank memory allocation (min/avg/max) = 41.41 | 41.41 | 41.41 Mbytes
Step Temp E_pair E_mol TotEng Press 
       0       298.15   -25237.883    114.21442   -22362.389    34429.186 
     588       298.15   -28597.413    590.72759   -25245.406   -1533.3684 
Loop time of 7.06876 on 16 procs for 588 steps with 3108 atoms

1586.5% CPU use with 1 MPI tasks x 16 OpenMP threads

Minimization stats:
  Stopping criterion = energy tolerance
  Energy initial, next-to-last, final = 
     -25123.6689007011   -28006.678363416  -28006.6855834699
  Force two-norm initial, final = 1701.7849 9.0630591
  Force max component initial, final = 73.128112 3.1851605
  Final line search alpha, max atom move = 0.010343972 0.032947210
  Iterations, force evaluations = 588 1175

MPI task timing breakdown:
Section |  min time  |  avg time  |  max time  |%varavg| %total
---------------------------------------------------------------
Pair    | 3.0683     | 3.0683     | 3.0683     |   0.0 | 43.41
Bond    | 0.067383   | 0.067383   | 0.067383   |   0.0 |  0.95
Kspace  | 3.1041     | 3.1041     | 3.1041     |   0.0 | 43.91
Neigh   | 0.0424     | 0.0424     | 0.0424     |   0.0 |  0.60
Comm    | 0.30364    | 0.30364    | 0.30364    |   0.0 |  4.30
Output  | 0          | 0          | 0          |   0.0 |  0.00
Modify  | 0.36654    | 0.36654    | 0.36654    |   0.0 |  5.19
Other   |            | 0.1164     |            |       |  1.65

Nlocal:        3108.00 ave        3108 max        3108 min
Histogram: 1 0 0 0 0 0 0 0 0 0
Nghost:        14178.0 ave       14178 max       14178 min
Histogram: 1 0 0 0 0 0 0 0 0 0
Neighs:    1.17467e+06 ave 1.17467e+06 max 1.17467e+06 min
Histogram: 1 0 0 0 0 0 0 0 0 0

Total # of neighbors = 1174667
Ave neighs/atom = 377.94949
Ave special neighs/atom = 2.0463320
Neighbor list builds = 12
Dangerous builds = 0

fix   1 all shake 0.0001 20 0 b 1 a 1
       0 = # of size 2 clusters
       0 = # of size 3 clusters
       0 = # of size 4 clusters
    1000 = # of frozen angles
  find clusters CPU = 0.003 seconds
fix   2 all nvt temp ${temp} ${temp} 100.0
fix   2 all nvt temp 298.15 ${temp} 100.0
fix   2 all nvt temp 298.15 298.15 100.0
fix   3 all efield  0.20 0.00 0.00   #apply electric field in the x-direction
fix   4 all momentum 100 linear 1 1 1  #remove center of mass motion

timestep	${dt}
timestep	1
thermo_style    custom step temp press etotal pe ke density lx ly lz vol
thermo          ${thermo_freq}
thermo          1000
thermo_modify   flush yes

# dumps for analysis
#First dump file with wrapped coordinates (x y z)
dump            1 all custom 1000 wrapped.lammpstrj id type x y z
dump_modify     1 sort id

# Second dump file with unwrapped coordinates and velocities
dump            2 all custom 1000 unwrapped.lammpstrj id type xu yu zu
dump_modify     2 sort id

run             ${nsteps}
run             6000000
PPPM initialization ...
  using 12-bit tables for long-range coulomb (src/kspace.cpp:340)
  G vector (1/distance) = 0.27356808
  grid = 18 18 18
  stencil order = 5
  estimated absolute RMS force accuracy = 0.022456967
  estimated relative force accuracy = 6.762849e-05
  using double precision KISS FFT
  3d grid and FFT values/proc = 15625 5832
Last active /omp style is kspace_style pppm/omp
Per MPI rank memory allocation (min/avg/max) = 40.91 | 40.91 | 40.91 Mbytes
Step Temp Press TotEng PotEng KinEng Density Lx Ly Lz Volume 
     588    439.65451   -1927.5012   -25784.302   -28545.582    2761.2795    1.1610133    30.985945    30.985945    30.985945    29750.497 
    1000    232.02654    146.89485   -24153.038   -25610.296    1457.2582    1.1610133    30.985945    30.985945    30.985945    29750.497 
    2000    306.02422   -476.31098   -22927.535   -24849.541    1922.0056    1.1610133    30.985945    30.985945    30.985945    29750.497 
    3000    302.17272   -951.10872   -23005.609   -24903.425    1897.8159    1.1610133    30.985945    30.985945    30.985945    29750.497 
    4000    303.23429   -563.25705   -23066.291   -24970.774    1904.4832    1.1610133    30.985945    30.985945    30.985945    29750.497 
    5000    291.25544   -1176.3611    -23242.96   -25072.209    1829.2492    1.1610133    30.985945    30.985945    30.985945    29750.497 
    6000    291.98338   -1258.6577   -23094.784   -24928.605    1833.8211    1.1610133    30.985945    30.985945    30.985945    29750.497 
    7000     298.8273   -1878.5846   -23125.723   -25002.528    1876.8048    1.1610133    30.985945    30.985945    30.985945    29750.497 
    8000    294.18251   -1611.0402   -23087.351   -24934.984    1847.6329    1.1610133    30.985945    30.985945    30.985945    29750.497 
    9000     295.5478   -370.67264   -23150.559   -25006.766    1856.2077    1.1610133    30.985945    30.985945    30.985945    29750.497 
   10000    289.64697   -1899.7952   -23205.076   -25024.223    1819.1471    1.1610133    30.985945    30.985945    30.985945    29750.497 
   11000    300.20619   -1638.8621   -23137.528   -25022.993     1885.465    1.1610133    30.985945    30.985945    30.985945    29750.497 
   12000    298.83655   -2246.5467   -23078.914   -24955.777    1876.8629    1.1610133    30.985945    30.985945    30.985945    29750.497 
   13000    292.30835   -2003.0038   -23142.679   -24978.542    1835.8621    1.1610133    30.985945    30.985945    30.985945    29750.497 
   14000    295.31756   -1358.5525   -23102.897   -24957.658    1854.7617    1.1610133    30.985945    30.985945    30.985945    29750.497 
   15000    299.69624   -848.25578   -23086.522   -24968.784    1882.2622    1.1610133    30.985945    30.985945    30.985945    29750.497 
   16000    300.42777   -1611.4455   -23005.117   -24891.973    1886.8567    1.1610133    30.985945    30.985945    30.985945    29750.497 
   17000    292.70311   -1475.1111   -23068.044   -24906.385    1838.3414    1.1610133    30.985945    30.985945    30.985945    29750.497 
   18000    294.91901    -1672.416   -23049.321    -24901.58    1852.2586    1.1610133    30.985945    30.985945    30.985945    29750.497 
   19000    297.40549   -1268.7195   -23116.062   -24983.937     1867.875    1.1610133    30.985945    30.985945    30.985945    29750.497 
   20000    295.85743   -1812.9242   -23105.623   -24963.775    1858.1523    1.1610133    30.985945    30.985945    30.985945    29750.497 
   21000    297.61779   -1633.8301   -23053.614   -24922.823    1869.2084    1.1610133    30.985945    30.985945    30.985945    29750.497 
   22000    291.23701   -1671.7969   -23119.657   -24948.791    1829.1335    1.1610133    30.985945    30.985945    30.985945    29750.497 
   23000    297.27173   -1327.0485     -23088.3   -24955.335    1867.0349    1.1610133    30.985945    30.985945    30.985945    29750.497 
   24000    293.90376    -1510.383   -23112.819   -24958.702    1845.8822    1.1610133    30.985945    30.985945    30.985945    29750.497 
   25000     295.5837   -259.71176   -23166.034   -25022.468    1856.4332    1.1610133    30.985945    30.985945    30.985945    29750.497 
   26000     304.2051   -1572.7262   -23012.018   -24922.598    1910.5805    1.1610133    30.985945    30.985945    30.985945    29750.497 
   27000    299.52015   -1968.7981     -23095.3   -24976.456    1881.1563    1.1610133    30.985945    30.985945    30.985945    29750.497 
   28000    291.04339   -1094.8748   -23158.225   -24986.142    1827.9175    1.1610133    30.985945    30.985945    30.985945    29750.497 
   29000    296.81312   -865.21672   -23138.196   -25002.351    1864.1546    1.1610133    30.985945    30.985945    30.985945    29750.497 
   30000     303.9733   -1609.4486   -23099.004   -25008.129    1909.1246    1.1610133    30.985945    30.985945    30.985945    29750.497 
   31000    298.01199   -902.85355    -23135.65   -25007.334    1871.6842    1.1610133    30.985945    30.985945    30.985945    29750.497 
   32000    299.61631   -1816.6422   -23125.973   -25007.733    1881.7602    1.1610133    30.985945    30.985945    30.985945    29750.497 
   33000    301.04045   -1983.4602   -22970.712   -24861.416    1890.7047    1.1610133    30.985945    30.985945    30.985945    29750.497 
   34000    302.67646   -1776.3833   -23129.988   -25030.967    1900.9797    1.1610133    30.985945    30.985945    30.985945    29750.497 
   35000     295.1507    -1510.921   -23131.692   -24985.406    1853.7137    1.1610133    30.985945    30.985945    30.985945    29750.497 
   36000    289.73246    -1993.955   -23099.774   -24919.458    1819.6841    1.1610133    30.985945    30.985945    30.985945    29750.497 
   37000     294.6799   -1421.6435   -23054.555   -24905.312    1850.7568    1.1610133    30.985945    30.985945    30.985945    29750.497 
   38000    295.16782   -2288.3461   -23161.493   -25015.314    1853.8212    1.1610133    30.985945    30.985945    30.985945    29750.497 
   39000    297.74858   -1915.0697    -23158.56    -25028.59    1870.0298    1.1610133    30.985945    30.985945    30.985945    29750.497 
   40000     298.4901   -1121.1948   -23073.371   -24948.058     1874.687    1.1610133    30.985945    30.985945    30.985945    29750.497 
   41000    303.04495   -1245.0943   -23140.111   -25043.405     1903.294    1.1610133    30.985945    30.985945    30.985945    29750.497 
   42000     306.9818   -1583.8074   -23214.999   -25143.019    1928.0197    1.1610133    30.985945    30.985945    30.985945    29750.497 
   43000    309.03745   -2150.3405   -23119.792   -25060.723    1940.9303    1.1610133    30.985945    30.985945    30.985945    29750.497 
   44000    300.41415    -1900.369   -23177.543   -25064.314    1886.7711    1.1610133    30.985945    30.985945    30.985945    29750.497 
   45000    296.13447   -1776.8901   -23232.743   -25092.636    1859.8923    1.1610133    30.985945    30.985945    30.985945    29750.497 
   46000    297.58186    -1608.159   -23172.034   -25041.017    1868.9827    1.1610133    30.985945    30.985945    30.985945    29750.497 
   47000    300.83509    -2253.919   -23155.183   -25044.598    1889.4148    1.1610133    30.985945    30.985945    30.985945    29750.497 
   48000    283.04984   -1658.9013   -23255.376   -25033.089    1777.7134    1.1610133    30.985945    30.985945    30.985945    29750.497 
   49000     293.5874   -1987.5103   -23058.253   -24902.149    1843.8953    1.1610133    30.985945    30.985945    30.985945    29750.497 
   50000    295.07932   -1685.3283    -23146.91   -25000.175    1853.2654    1.1610133    30.985945    30.985945    30.985945    29750.497 
   51000    302.50475   -2056.4215   -23180.525   -25080.426    1899.9013    1.1610133    30.985945    30.985945    30.985945    29750.497 
   52000    296.48493    -1916.364   -23178.801   -25040.894    1862.0934    1.1610133    30.985945    30.985945    30.985945    29750.497 
   53000    296.39472    -1373.027   -23099.301   -24960.827    1861.5268    1.1610133    30.985945    30.985945    30.985945    29750.497 
   54000    299.15677    -1400.281   -23093.627   -24972.501    1878.8741    1.1610133    30.985945    30.985945    30.985945    29750.497 
   55000    307.54643   -1401.9365   -22986.439   -24918.005    1931.5659    1.1610133    30.985945    30.985945    30.985945    29750.497 
   56000    302.12458   -722.32924   -23021.151   -24918.665    1897.5136    1.1610133    30.985945    30.985945    30.985945    29750.497 
   57000    294.61837   -1497.2111   -23070.852   -24921.223    1850.3703    1.1610133    30.985945    30.985945    30.985945    29750.497 
   58000    300.18503   -1607.1385   -23106.323   -24991.655    1885.3321    1.1610133    30.985945    30.985945    30.985945    29750.497 
   59000    301.68837   -775.77795   -23056.077   -24950.851     1894.774    1.1610133    30.985945    30.985945    30.985945    29750.497 
   60000     294.7978   -1929.0564   -23102.045   -24953.543    1851.4973    1.1610133    30.985945    30.985945    30.985945    29750.497 
   61000    299.90987   -1247.2174   -23051.302   -24934.906     1883.604    1.1610133    30.985945    30.985945    30.985945    29750.497 
   62000    296.05364    -1835.346   -23166.489   -25025.874    1859.3847    1.1610133    30.985945    30.985945    30.985945    29750.497 
   63000    301.38042   -2222.4096   -23108.461   -25001.301    1892.8398    1.1610133    30.985945    30.985945    30.985945    29750.497 
   64000    301.33173   -1497.5403   -23071.641   -24964.175     1892.534    1.1610133    30.985945    30.985945    30.985945    29750.497 
   65000    304.52164   -1259.5397   -23114.161   -25026.729    1912.5685    1.1610133    30.985945    30.985945    30.985945    29750.497 
   66000    293.34669    -2108.813   -23114.001   -24956.384    1842.3835    1.1610133    30.985945    30.985945    30.985945    29750.497 
   67000    292.58075    -1843.269    -23199.51   -25037.083    1837.5729    1.1610133    30.985945    30.985945    30.985945    29750.497 
   68000    293.37784   -1549.4047   -23137.138   -24979.717    1842.5791    1.1610133    30.985945    30.985945    30.985945    29750.497 
   69000    293.19171   -972.53743   -23151.903   -24993.313    1841.4101    1.1610133    30.985945    30.985945    30.985945    29750.497 
   70000    307.08986   -2033.8847   -23023.431   -24952.129    1928.6984    1.1610133    30.985945    30.985945    30.985945    29750.497 
   71000    303.30433   -1656.7835   -22959.338   -24864.261    1904.9231    1.1610133    30.985945    30.985945    30.985945    29750.497 
   72000    300.00677    -2579.393   -23007.828   -24892.041    1884.2126    1.1610133    30.985945    30.985945    30.985945    29750.497 
   73000    293.18981   -1977.0445   -23070.908   -24912.306    1841.3982    1.1610133    30.985945    30.985945    30.985945    29750.497 
   74000    297.24057   -2123.0133   -22994.826   -24861.665    1866.8393    1.1610133    30.985945    30.985945    30.985945    29750.497 
   75000    299.40116    -1365.633   -23017.321    -24897.73     1880.409    1.1610133    30.985945    30.985945    30.985945    29750.497 
   76000    301.97407   -1916.6218   -23011.856   -24908.425    1896.5683    1.1610133    30.985945    30.985945    30.985945    29750.497 
   77000    297.92692   -1817.3761   -23055.262   -24926.412    1871.1499    1.1610133    30.985945    30.985945    30.985945    29750.497 
   78000    290.48727   -1741.7475   -23031.722   -24856.147    1824.4247    1.1610133    30.985945    30.985945    30.985945    29750.497 
   79000    290.99471   -2382.0851    -23160.04   -24987.652    1827.6117    1.1610133    30.985945    30.985945    30.985945    29750.497 
   80000    302.80705   -1311.6402   -23050.806   -24952.605    1901.7999    1.1610133    30.985945    30.985945    30.985945    29750.497 
   81000    300.40282   -2046.2872   -23100.464   -24987.164       1886.7    1.1610133    30.985945    30.985945    30.985945    29750.497 
   82000    295.79215   -1126.2453   -23171.696   -25029.439    1857.7423    1.1610133    30.985945    30.985945    30.985945    29750.497 
   83000    304.44971   -711.01533   -23047.922   -24960.039    1912.1168    1.1610133    30.985945    30.985945    30.985945    29750.497 
   84000    305.99988   -1187.0714   -23005.244   -24927.097    1921.8527    1.1610133    30.985945    30.985945    30.985945    29750.497 
   85000    296.58449   -1157.6565   -23035.661   -24898.379    1862.7187    1.1610133    30.985945    30.985945    30.985945    29750.497 
   86000    304.99742   -1256.7388   -23046.034   -24961.591    1915.5567    1.1610133    30.985945    30.985945    30.985945    29750.497 
   87000    296.14604   -1257.6332   -23055.881   -24915.846     1859.965    1.1610133    30.985945    30.985945    30.985945    29750.497 
   88000    292.04826   -986.81687   -23137.408   -24971.636    1834.2286    1.1610133    30.985945    30.985945    30.985945    29750.497 
   89000    302.04951   -679.61072   -23214.995   -25112.037    1897.0421    1.1610133    30.985945    30.985945    30.985945    29750.497 
   90000    291.38276   -753.87798   -23085.488   -24915.537    1830.0489    1.1610133    30.985945    30.985945    30.985945    29750.497 
   91000    300.18989     -1213.22   -23033.827    -24919.19    1885.3626    1.1610133    30.985945    30.985945    30.985945    29750.497 
   92000    292.55778    -2184.236   -23074.974   -24912.403    1837.4287    1.1610133    30.985945    30.985945    30.985945    29750.497 
   93000    301.59339   -997.10763   -22952.485   -24846.662    1894.1774    1.1610133    30.985945    30.985945    30.985945    29750.497 
   94000    299.16673   -1715.4841   -23124.301   -25003.238    1878.9366    1.1610133    30.985945    30.985945    30.985945    29750.497 
   95000    295.58981   -2182.1034   -23167.677   -25024.149    1856.4716    1.1610133    30.985945    30.985945    30.985945    29750.497 
   96000    299.77115   -1150.1846   -23050.366   -24933.099    1882.7327    1.1610133    30.985945    30.985945    30.985945    29750.497 
   97000    290.35628   -2457.7663    -23257.18   -25080.782     1823.602    1.1610133    30.985945    30.985945    30.985945    29750.497 
   98000    299.31145   -1484.2971   -23203.341   -25083.186    1879.8455    1.1610133    30.985945    30.985945    30.985945    29750.497 
   99000    292.72625   -1336.2613   -23152.081   -24990.568    1838.4868    1.1610133    30.985945    30.985945    30.985945    29750.497 
  100000    287.70692   -1262.5434   -23169.964   -24976.927    1806.9626    1.1610133    30.985945    30.985945    30.985945    29750.497 
  101000     299.7279   -1822.7337   -23060.546   -24943.007    1882.4611    1.1610133    30.985945    30.985945    30.985945    29750.497 
  102000    294.39287   -1255.0099   -23060.695   -24909.649    1848.9541    1.1610133    30.985945    30.985945    30.985945    29750.497 
  103000     296.5493   -993.16294   -23044.352   -24906.849    1862.4977    1.1610133    30.985945    30.985945    30.985945    29750.497 
  104000    295.98381   -1525.5785   -23053.494    -24912.44    1858.9461    1.1610133    30.985945    30.985945    30.985945    29750.497 
  105000    302.35394   -1094.3286   -23109.357   -25008.311    1898.9541    1.1610133    30.985945    30.985945    30.985945    29750.497 
  106000     302.8738   -757.59604   -22949.043   -24851.263    1902.2191    1.1610133    30.985945    30.985945    30.985945    29750.497 
  107000    299.02768   -1478.1456   -23055.643   -24933.706    1878.0633    1.1610133    30.985945    30.985945    30.985945    29750.497 
  108000    293.23489   -1724.1165   -23073.031   -24914.712    1841.6813    1.1610133    30.985945    30.985945    30.985945    29750.497 
  109000    302.78934   -1798.7013   -23095.557   -24997.246    1901.6887    1.1610133    30.985945    30.985945    30.985945    29750.497 
  110000    298.16849   -1901.8282    -23077.66   -24950.327    1872.6671    1.1610133    30.985945    30.985945    30.985945    29750.497 
  111000    294.80314   -632.00065    -23124.83   -24976.361    1851.5308    1.1610133    30.985945    30.985945    30.985945    29750.497 
  112000    284.28192    -1828.268   -23115.862   -24901.313    1785.4516    1.1610133    30.985945    30.985945    30.985945    29750.497 
  113000    291.65096   -1606.3351   -23132.055   -24963.788    1831.7333    1.1610133    30.985945    30.985945    30.985945    29750.497 
  114000    289.51856    -1490.307   -23140.481   -24958.822    1818.3407    1.1610133    30.985945    30.985945    30.985945    29750.497 
  115000    294.82962   -1783.7227    -23032.58   -24884.277    1851.6971    1.1610133    30.985945    30.985945    30.985945    29750.497 
  116000    298.31834   -946.95565   -23024.915   -24898.523    1873.6083    1.1610133    30.985945    30.985945    30.985945    29750.497 
  117000    296.70342   -1631.2285   -23097.377   -24960.843    1863.4656    1.1610133    30.985945    30.985945    30.985945    29750.497 
  118000    298.73579   -1717.9805   -23134.399   -25010.629    1876.2301    1.1610133    30.985945    30.985945    30.985945    29750.497 
  119000    293.76718   -1887.3517   -23037.702   -24882.726    1845.0244    1.1610133    30.985945    30.985945    30.985945    29750.497 
  120000    303.42175   -1738.4098   -23052.784   -24958.445    1905.6605    1.1610133    30.985945    30.985945    30.985945    29750.497 
  121000    298.14461   -1983.9041   -23108.446   -24980.963    1872.5172    1.1610133    30.985945    30.985945    30.985945    29750.497 
  122000    293.56961   -1592.0991   -23156.645   -25000.429    1843.7835    1.1610133    30.985945    30.985945    30.985945    29750.497 
  123000    301.27431     -1987.59   -23065.536    -24957.71    1892.1734    1.1610133    30.985945    30.985945    30.985945    29750.497 
  124000    295.03362   -1926.6522   -23189.482   -25042.461    1852.9783    1.1610133    30.985945    30.985945    30.985945    29750.497 
  125000    298.99171   -1876.2703    -23126.33   -25004.167    1877.8374    1.1610133    30.985945    30.985945    30.985945    29750.497 
  126000    293.07576   -1871.0089   -23202.958    -25043.64    1840.6819    1.1610133    30.985945    30.985945    30.985945    29750.497 
  127000    303.75135   -1093.7694   -23012.557   -24920.288    1907.7306    1.1610133    30.985945    30.985945    30.985945    29750.497 
  128000    296.00291   -1637.1424   -23172.656   -25031.722     1859.066    1.1610133    30.985945    30.985945    30.985945    29750.497 
  129000    303.20034   -859.68495     -23071.9    -24976.17      1904.27    1.1610133    30.985945    30.985945    30.985945    29750.497 
  130000    302.50114   -1465.0255   -23081.788   -24981.667    1899.8786    1.1610133    30.985945    30.985945    30.985945    29750.497 
  131000    293.99501   -887.58066   -23095.575    -24942.03    1846.4553    1.1610133    30.985945    30.985945    30.985945    29750.497 
  132000    304.86642   -717.85699    -23022.94   -24937.674    1914.7339    1.1610133    30.985945    30.985945    30.985945    29750.497 
  133000    305.24639   -1550.1152    -23035.57    -24952.69    1917.1203    1.1610133    30.985945    30.985945    30.985945    29750.497 
  134000     300.0391   -1109.6086   -23092.715   -24977.131    1884.4156    1.1610133    30.985945    30.985945    30.985945    29750.497 
  135000    304.16716   -1755.4489   -23048.037    -24958.38    1910.3422    1.1610133    30.985945    30.985945    30.985945    29750.497 
  136000    295.67972   -1911.3676   -23097.596   -24954.632    1857.0362    1.1610133    30.985945    30.985945    30.985945    29750.497 
  137000    299.91377   -2465.6033   -22989.576   -24873.204    1883.6284    1.1610133    30.985945    30.985945    30.985945    29750.497 
  138000    294.70526   -2324.5146   -23156.082   -25006.998    1850.9161    1.1610133    30.985945    30.985945    30.985945    29750.497 
  139000    302.11829   -1464.5031   -23119.548   -25017.023    1897.4741    1.1610133    30.985945    30.985945    30.985945    29750.497 
  140000    306.46332   -2198.6364   -23001.361   -24926.125    1924.7634    1.1610133    30.985945    30.985945    30.985945    29750.497 
  141000    304.44357   -1158.2678   -23035.217   -24947.295    1912.0782    1.1610133    30.985945    30.985945    30.985945    29750.497 
  142000    300.29248   -1331.7423   -23032.649   -24918.656     1886.007    1.1610133    30.985945    30.985945    30.985945    29750.497 
  143000    300.00502   -1909.0889   -23168.802   -25053.004    1884.2016    1.1610133    30.985945    30.985945    30.985945    29750.497 
  144000     303.7505   -1504.9305   -22986.888   -24894.613    1907.7253    1.1610133    30.985945    30.985945    30.985945    29750.497 
  145000    301.70956   -1279.0887   -23060.551   -24955.458    1894.9071    1.1610133    30.985945    30.985945    30.985945    29750.497 
  146000    301.53928   -1228.1816   -23087.506   -24981.343    1893.8376    1.1610133    30.985945    30.985945    30.985945    29750.497 
  147000    296.19386   -1472.7734   -22988.298   -24848.563    1860.2653    1.1610133    30.985945    30.985945    30.985945    29750.497 
  148000    295.86388   -1970.2979   -23086.997    -24945.19    1858.1929    1.1610133    30.985945    30.985945    30.985945    29750.497 
  149000    294.19833   -701.51592   -23058.573   -24906.305    1847.7323    1.1610133    30.985945    30.985945    30.985945    29750.497 
  150000    305.49449   -875.27801   -23013.235   -24931.913    1918.6785    1.1610133    30.985945    30.985945    30.985945    29750.497 
  151000    303.34215   -621.18042   -22980.535   -24885.696    1905.1606    1.1610133    30.985945    30.985945    30.985945    29750.497 
  152000    292.44976   -2130.2513   -23114.666   -24951.416    1836.7503    1.1610133    30.985945    30.985945    30.985945    29750.497 
  153000    297.12686   -1116.5358   -23085.352   -24951.477    1866.1251    1.1610133    30.985945    30.985945    30.985945    29750.497 
  154000    301.05946   -1496.4842   -23064.935   -24955.759     1890.824    1.1610133    30.985945    30.985945    30.985945    29750.497 
  155000    297.95324   -1416.9701   -23010.664   -24881.979    1871.3152    1.1610133    30.985945    30.985945    30.985945    29750.497 
  156000    300.39362   -1455.7571   -23027.069   -24913.711    1886.6422    1.1610133    30.985945    30.985945    30.985945    29750.497 
  157000     292.7707   -1149.5652   -23084.104    -24922.87    1838.7659    1.1610133    30.985945    30.985945    30.985945    29750.497 
  158000    303.62253   -1249.3835   -23105.391   -25012.313    1906.9216    1.1610133    30.985945    30.985945    30.985945    29750.497 
  159000    291.98959   -1136.5679   -23072.664   -24906.524    1833.8601    1.1610133    30.985945    30.985945    30.985945    29750.497 
  160000    294.94828   -2156.7167   -23139.783   -24992.226    1852.4424    1.1610133    30.985945    30.985945    30.985945    29750.497 
  161000    296.44382    -1245.198   -23035.529   -24897.364    1861.8352    1.1610133    30.985945    30.985945    30.985945    29750.497 
  162000    304.45082   -2184.7304   -23022.695   -24934.819    1912.1237    1.1610133    30.985945    30.985945    30.985945    29750.497 
  163000    303.26946   -1156.0572   -22991.859   -24896.563    1904.7041    1.1610133    30.985945    30.985945    30.985945    29750.497 
  164000    295.13183   -1785.0439   -23105.252   -24958.848    1853.5952    1.1610133    30.985945    30.985945    30.985945    29750.497 
  165000    302.65853   -1543.7459   -23038.315   -24939.183    1900.8671    1.1610133    30.985945    30.985945    30.985945    29750.497 
  166000    306.40733   -1228.8402   -23048.531   -24972.943    1924.4117    1.1610133    30.985945    30.985945    30.985945    29750.497 
  167000    294.56743   -816.84085   -23062.372   -24912.423    1850.0504    1.1610133    30.985945    30.985945    30.985945    29750.497 
  168000    290.50884   -1060.0738   -23126.249   -24950.809    1824.5601    1.1610133    30.985945    30.985945    30.985945    29750.497 
  169000    296.70707   -1752.1077   -23136.086   -24999.575    1863.4885    1.1610133    30.985945    30.985945    30.985945    29750.497 
  170000    289.15801   -726.30743   -23211.189   -25027.265    1816.0762    1.1610133    30.985945    30.985945    30.985945    29750.497 
  171000    301.16769   -1360.2993   -23054.461   -24945.965    1891.5038    1.1610133    30.985945    30.985945    30.985945    29750.497 
  172000    301.18736   -1385.4809   -23072.943    -24964.57    1891.6273    1.1610133    30.985945    30.985945    30.985945    29750.497 
  173000    292.31726   -2160.2249   -23153.888   -24989.806    1835.9181    1.1610133    30.985945    30.985945    30.985945    29750.497 
  174000    302.91803   -2117.5711   -23111.381   -25013.878    1902.4969    1.1610133    30.985945    30.985945    30.985945    29750.497 
  175000    292.70511    -1574.639   -23119.288   -24957.642     1838.354    1.1610133    30.985945    30.985945    30.985945    29750.497 
  176000    299.07625   -2541.8963   -23194.701   -25073.069    1878.3684    1.1610133    30.985945    30.985945    30.985945    29750.497 
  177000    299.56441   -2192.8187   -23122.854   -25004.288    1881.4343    1.1610133    30.985945    30.985945    30.985945    29750.497 
  178000    290.96521    -2157.263   -23194.002   -25021.428    1827.4265    1.1610133    30.985945    30.985945    30.985945    29750.497 
  179000    296.09541   -905.99686   -23095.852   -24955.499     1859.647    1.1610133    30.985945    30.985945    30.985945    29750.497 
  180000     298.0014   -1241.5524   -23087.049   -24958.667    1871.6177    1.1610133    30.985945    30.985945    30.985945    29750.497 
  181000    304.25749   -1102.6612   -23015.678   -24926.587    1910.9095    1.1610133    30.985945    30.985945    30.985945    29750.497 
  182000    305.37611   -1506.6747   -23062.293   -24980.228     1917.935    1.1610133    30.985945    30.985945    30.985945    29750.497 
  183000    308.22651   -1846.8997   -23086.861   -25022.698    1935.8372    1.1610133    30.985945    30.985945    30.985945    29750.497 
  184000    297.61283   -1374.3467   -23098.721   -24967.899    1869.1773    1.1610133    30.985945    30.985945    30.985945    29750.497 
  185000    296.52931   -1284.8413   -23026.015   -24888.387    1862.3721    1.1610133    30.985945    30.985945    30.985945    29750.497 
  186000    296.82426   -1117.3839   -23061.117   -24925.341    1864.2246    1.1610133    30.985945    30.985945    30.985945    29750.497 
  187000    301.88329   -1349.1302   -22983.663   -24879.661    1895.9982    1.1610133    30.985945    30.985945    30.985945    29750.497 
  188000    291.25644   -1675.0099    -23092.07   -24921.326    1829.2555    1.1610133    30.985945    30.985945    30.985945    29750.497 
  189000    297.42308   -2570.7146   -23089.852   -24957.837    1867.9855    1.1610133    30.985945    30.985945    30.985945    29750.497 
  190000    297.12519    -2614.906   -23106.651   -24972.766    1866.1146    1.1610133    30.985945    30.985945    30.985945    29750.497 
  191000    287.51619   -1961.1012   -23163.126   -24968.891    1805.7646    1.1610133    30.985945    30.985945    30.985945    29750.497 
  192000    294.02486   -1381.6438   -23114.979   -24961.622    1846.6427    1.1610133    30.985945    30.985945    30.985945    29750.497 
  193000    305.24945   -2531.7749   -23037.965   -24955.104    1917.1395    1.1610133    30.985945    30.985945    30.985945    29750.497 
  194000    299.07468    -2054.776   -23107.849   -24986.208    1878.3585    1.1610133    30.985945    30.985945    30.985945    29750.497 
  195000    294.63831   -1716.0792   -23153.282   -25003.778    1850.4956    1.1610133    30.985945    30.985945    30.985945    29750.497 
  196000    290.26882   -1541.4549   -23128.623   -24951.675    1823.0527    1.1610133    30.985945    30.985945    30.985945    29750.497 
  197000    302.87249    -1436.541   -23065.356   -24967.567    1902.2109    1.1610133    30.985945    30.985945    30.985945    29750.497 
  198000    300.96195   -1378.8267    -23066.99   -24957.201    1890.2116    1.1610133    30.985945    30.985945    30.985945    29750.497 
  199000    297.05678   -715.32537    -23093.38   -24959.065    1865.6849    1.1610133    30.985945    30.985945    30.985945    29750.497 
  200000    295.36353   -858.49418    -23113.35     -24968.4    1855.0503    1.1610133    30.985945    30.985945    30.985945    29750.497 
  201000    296.54864   -1733.4063   -23086.283   -24948.777    1862.4935    1.1610133    30.985945    30.985945    30.985945    29750.497 
  202000    297.26098   -2362.9864   -23109.498   -24976.465    1866.9674    1.1610133    30.985945    30.985945    30.985945    29750.497 
  203000    295.09638   -2807.8986   -23136.218    -24989.59    1853.3725    1.1610133    30.985945    30.985945    30.985945    29750.497 
  204000    302.23553   -1471.7449   -23026.616   -24924.827    1898.2104    1.1610133    30.985945    30.985945    30.985945    29750.497 
  205000    301.20742   -2173.0792   -23067.998   -24959.751    1891.7533    1.1610133    30.985945    30.985945    30.985945    29750.497 
  206000    306.13505   -1458.5602   -23076.833   -24999.534    1922.7016    1.1610133    30.985945    30.985945    30.985945    29750.497 
  207000    297.78104   -1313.5918   -23118.416    -24988.65    1870.2337    1.1610133    30.985945    30.985945    30.985945    29750.497 
  208000    292.35808   -2288.3612   -23122.364   -24958.539    1836.1744    1.1610133    30.985945    30.985945    30.985945    29750.497 
  209000    302.42595   -2326.6907   -23108.731   -25008.137    1899.4064    1.1610133    30.985945    30.985945    30.985945    29750.497 
  210000    300.64996   -1388.6099   -23095.341   -24983.594    1888.2522    1.1610133    30.985945    30.985945    30.985945    29750.497 
  211000    300.00803   -939.76118   -23139.425   -25023.646    1884.2205    1.1610133    30.985945    30.985945    30.985945    29750.497 
  212000    300.70196   -1800.5166    -23011.82   -24900.399    1888.5787    1.1610133    30.985945    30.985945    30.985945    29750.497 
  213000    293.26328   -1531.9385   -23120.606   -24962.465    1841.8596    1.1610133    30.985945    30.985945    30.985945    29750.497 
  214000    302.77633   -1273.2053   -23071.053    -24972.66    1901.6069    1.1610133    30.985945    30.985945    30.985945    29750.497 
  215000    289.65225   -1920.9305   -23183.656   -25002.836    1819.1803    1.1610133    30.985945    30.985945    30.985945    29750.497 
  216000    305.70295   -2006.1297    -23110.64   -25030.627    1919.9878    1.1610133    30.985945    30.985945    30.985945    29750.497 
  217000    300.16263   -986.81507   -23123.758   -25008.949    1885.1915    1.1610133    30.985945    30.985945    30.985945    29750.497 
  218000    292.87324   -933.36916   -23108.696   -24948.106    1839.4099    1.1610133    30.985945    30.985945    30.985945    29750.497 
  219000    294.91774   -741.46105   -23195.034   -25047.285    1852.2506    1.1610133    30.985945    30.985945    30.985945    29750.497 
  220000    297.49503   -1224.1633   -23120.842   -24989.279    1868.4374    1.1610133    30.985945    30.985945    30.985945    29750.497 
  221000    303.64558   -893.70218   -23033.286   -24940.353    1907.0663    1.1610133    30.985945    30.985945    30.985945    29750.497 
  222000    293.36961   -1495.6992   -23119.633    -24962.16    1842.5274    1.1610133    30.985945    30.985945    30.985945    29750.497 
  223000    291.07217     -1678.83   -23105.293   -24933.392    1828.0982    1.1610133    30.985945    30.985945    30.985945    29750.497 
  224000    293.17851   -966.11394   -23144.877   -24986.204    1841.3272    1.1610133    30.985945    30.985945    30.985945    29750.497 
  225000    303.85352   -1634.0897   -23016.456   -24924.829    1908.3723    1.1610133    30.985945    30.985945    30.985945    29750.497 
  226000    295.23456   -3067.9633   -23086.982   -24941.222    1854.2404    1.1610133    30.985945    30.985945    30.985945    29750.497 
  227000    297.53906   -1676.5226   -23030.333   -24899.047     1868.714    1.1610133    30.985945    30.985945    30.985945    29750.497 
  228000    300.38863   -2052.1367   -23160.904   -25047.515    1886.6108    1.1610133    30.985945    30.985945    30.985945    29750.497 
  229000    306.05116   -862.99358   -23093.281   -25015.455    1922.1748    1.1610133    30.985945    30.985945    30.985945    29750.497 
  230000    294.68144   -3449.6684   -23072.823   -24923.589    1850.7664    1.1610133    30.985945    30.985945    30.985945    29750.497 
  231000    287.34659   -1947.2817   -23162.911   -24967.611    1804.6995    1.1610133    30.985945    30.985945    30.985945    29750.497 
  232000    301.60181   -2038.9293   -23163.671   -25057.901    1894.2303    1.1610133    30.985945    30.985945    30.985945    29750.497 
  233000    305.91267   -2228.9632   -23093.892   -25015.197     1921.305    1.1610133    30.985945    30.985945    30.985945    29750.497 
  234000    297.67814   -888.13144   -23120.567   -24990.155    1869.5874    1.1610133    30.985945    30.985945    30.985945    29750.497 
  235000    297.42578    -1807.878   -23153.834   -25021.836    1868.0025    1.1610133    30.985945    30.985945    30.985945    29750.497 
  236000     299.1215   -952.47469   -23094.412   -24973.065    1878.6525    1.1610133    30.985945    30.985945    30.985945    29750.497 
  237000    300.88934   -1378.6132   -23099.939   -24989.695    1889.7556    1.1610133    30.985945    30.985945    30.985945    29750.497 
  238000    320.35721   -1724.2072   -22869.149   -24881.174    2012.0248    1.1610133    30.985945    30.985945    30.985945    29750.497 
  239000    301.25789   -1066.3401   -22961.107   -24853.177    1892.0703    1.1610133    30.985945    30.985945    30.985945    29750.497 
  240000    315.20137    -1110.938   -22902.549   -24882.192    1979.6432    1.1610133    30.985945    30.985945    30.985945    29750.497 
  241000    300.76281   -1167.3977   -23098.267   -24987.228    1888.9609    1.1610133    30.985945    30.985945    30.985945    29750.497 
  242000    292.55104   -1499.9549   -23107.498   -24944.884    1837.3863    1.1610133    30.985945    30.985945    30.985945    29750.497 
  243000    293.57283   -863.56811   -23113.998   -24957.802    1843.8038    1.1610133    30.985945    30.985945    30.985945    29750.497 
  244000    306.76676   -1386.5142   -22977.658   -24904.328    1926.6692    1.1610133    30.985945    30.985945    30.985945    29750.497 
  245000    296.02896   -1852.5379   -22990.025   -24849.255    1859.2296    1.1610133    30.985945    30.985945    30.985945    29750.497 
  246000    292.76918   -1836.8332   -23150.671   -24989.427    1838.7564    1.1610133    30.985945    30.985945    30.985945    29750.497 
  247000    295.48217   -976.90859   -23118.912   -24974.708    1855.7955    1.1610133    30.985945    30.985945    30.985945    29750.497 
  248000    299.21985   -1922.1155   -22925.036   -24804.306    1879.2703    1.1610133    30.985945    30.985945    30.985945    29750.497 
  249000    298.71598   -1751.3341   -23048.064    -24924.17    1876.1057    1.1610133    30.985945    30.985945    30.985945    29750.497 
  250000    298.60445   -767.64026   -23026.075    -24901.48    1875.4052    1.1610133    30.985945    30.985945    30.985945    29750.497 
  251000    304.63443   -2075.5303    -23011.96   -24925.237    1913.2769    1.1610133    30.985945    30.985945    30.985945    29750.497 
  252000    295.21577   -2018.6493   -23079.505   -24933.627    1854.1224    1.1610133    30.985945    30.985945    30.985945    29750.497 
  253000    294.63948   -1894.3174   -23042.044   -24892.547    1850.5029    1.1610133    30.985945    30.985945    30.985945    29750.497 
  254000     302.1338   -1456.8762   -23022.262   -24919.834    1897.5715    1.1610133    30.985945    30.985945    30.985945    29750.497 
  255000    295.96195   -1918.9599    -23040.39   -24899.199    1858.8088    1.1610133    30.985945    30.985945    30.985945    29750.497 
  256000    297.64868   -1867.7011   -23068.989   -24938.392    1869.4024    1.1610133    30.985945    30.985945    30.985945    29750.497 
  257000    296.47514   -1742.3074   -23034.144   -24896.176    1862.0319    1.1610133    30.985945    30.985945    30.985945    29750.497 
  258000    301.80586   -1493.7612   -23106.703   -25002.215    1895.5118    1.1610133    30.985945    30.985945    30.985945    29750.497 
  259000    297.84312   -1361.1598   -23156.789   -25027.413    1870.6236    1.1610133    30.985945    30.985945    30.985945    29750.497 
  260000    302.03423   -1284.9343   -22992.704    -24889.65    1896.9461    1.1610133    30.985945    30.985945    30.985945    29750.497 
  261000    294.87987    -1469.674   -23050.486   -24902.499    1852.0127    1.1610133    30.985945    30.985945    30.985945    29750.497 
  262000    308.24602   -1774.8301    -22984.31    -24920.27    1935.9597    1.1610133    30.985945    30.985945    30.985945    29750.497 
  263000    307.57171   -1253.8541   -23023.339   -24955.063    1931.7246    1.1610133    30.985945    30.985945    30.985945    29750.497 
  264000    301.88651   -1262.7968   -23084.626   -24980.645    1896.0184    1.1610133    30.985945    30.985945    30.985945    29750.497 
  265000     304.1709   -1590.6319   -23028.055   -24938.421    1910.3656    1.1610133    30.985945    30.985945    30.985945    29750.497 
  266000    288.88912   -1795.9252   -23144.972   -24959.359    1814.3874    1.1610133    30.985945    30.985945    30.985945    29750.497 
  267000    297.07108   -1812.8643    -23103.89   -24969.665    1865.7748    1.1610133    30.985945    30.985945    30.985945    29750.497 
  268000    305.92188   -1892.3509   -23009.407    -24930.77    1921.3628    1.1610133    30.985945    30.985945    30.985945    29750.497 
  269000    291.22098   -2466.7378   -23149.624   -24978.657    1829.0328    1.1610133    30.985945    30.985945    30.985945    29750.497 
  270000    296.44222   -1717.2184   -23036.004    -24897.83    1861.8252    1.1610133    30.985945    30.985945    30.985945    29750.497 
  271000    298.48414   -1433.5534   -23069.669   -24944.319    1874.6496    1.1610133    30.985945    30.985945    30.985945    29750.497 
  272000    290.41308   -1696.3073   -23177.304   -25001.263    1823.9588    1.1610133    30.985945    30.985945    30.985945    29750.497 
  273000    299.12858   -1791.2474   -23104.049   -24982.746     1878.697    1.1610133    30.985945    30.985945    30.985945    29750.497 
  274000    297.28087   -1803.7922   -23023.974   -24891.067    1867.0923    1.1610133    30.985945    30.985945    30.985945    29750.497 
  275000    299.34276   -2028.1756    -23156.92   -25036.962    1880.0422    1.1610133    30.985945    30.985945    30.985945    29750.497 
  276000    304.07286   -2328.7276   -23064.205   -24973.955    1909.7499    1.1610133    30.985945    30.985945    30.985945    29750.497 
  277000    298.78068    -1959.802   -22987.454   -24863.966     1876.512    1.1610133    30.985945    30.985945    30.985945    29750.497 
  278000    300.82082   -2347.3779   -23038.442   -24927.767    1889.3252    1.1610133    30.985945    30.985945    30.985945    29750.497 
  279000     295.4824   -1665.2043   -23078.276   -24934.073    1855.7969    1.1610133    30.985945    30.985945    30.985945    29750.497 
  280000    298.29993   -2219.5712   -23012.144   -24885.637    1873.4926    1.1610133    30.985945    30.985945    30.985945    29750.497 
  281000    303.87496   -2095.8777    -23008.44   -24916.947     1908.507    1.1610133    30.985945    30.985945    30.985945    29750.497 
  282000    301.36571   -2116.7341   -23110.162   -25002.909    1892.7475    1.1610133    30.985945    30.985945    30.985945    29750.497 
  283000     294.1216   -1567.6199   -23133.149   -24980.399    1847.2503    1.1610133    30.985945    30.985945    30.985945    29750.497 
  284000    298.13369   -2108.2704   -23093.549   -24965.998    1872.4485    1.1610133    30.985945    30.985945    30.985945    29750.497 
  285000    300.17744   -1420.9499    -23145.33   -25030.615    1885.2845    1.1610133    30.985945    30.985945    30.985945    29750.497 
  286000    295.25873   -1361.8383   -23198.732   -25053.124    1854.3921    1.1610133    30.985945    30.985945    30.985945    29750.497 
  287000    298.35699   -1038.4956    -23134.29   -25008.141     1873.851    1.1610133    30.985945    30.985945    30.985945    29750.497 
  288000    287.46832   -1615.3821   -23105.809   -24911.273     1805.464    1.1610133    30.985945    30.985945    30.985945    29750.497 
  289000    294.29552    -1435.286   -23157.394   -25005.736    1848.3427    1.1610133    30.985945    30.985945    30.985945    29750.497 
  290000    299.04248   -1705.8924   -23095.676   -24973.832    1878.1563    1.1610133    30.985945    30.985945    30.985945    29750.497 
  291000     305.5826   -903.06313   -23038.572   -24957.804    1919.2319    1.1610133    30.985945    30.985945    30.985945    29750.497 
  292000    297.20706   -1897.7102   -23031.092   -24897.721    1866.6288    1.1610133    30.985945    30.985945    30.985945    29750.497 
  293000    293.39857   -1922.5893   -23078.295   -24921.004    1842.7093    1.1610133    30.985945    30.985945    30.985945    29750.497 
  294000    300.61868   -1611.1169   -23039.453   -24927.509    1888.0557    1.1610133    30.985945    30.985945    30.985945    29750.497 
  295000     301.2641   -2052.6433   -23049.261   -24941.371    1892.1093    1.1610133    30.985945    30.985945    30.985945    29750.497 
  296000    306.57095   -1510.3338    -22972.27   -24897.709    1925.4393    1.1610133    30.985945    30.985945    30.985945    29750.497 
  297000    294.43594   -2166.9694   -23030.742   -24879.967    1849.2246    1.1610133    30.985945    30.985945    30.985945    29750.497 
  298000    303.70701   -2778.4178   -23050.026   -24957.478    1907.4521    1.1610133    30.985945    30.985945    30.985945    29750.497 
  299000      297.669   -1317.2995   -23136.729   -25006.259    1869.5301    1.1610133    30.985945    30.985945    30.985945    29750.497 
  300000    305.04949   -1258.9108   -22927.019   -24842.903    1915.8837    1.1610133    30.985945    30.985945    30.985945    29750.497 
  301000    307.55153   -1607.5623   -23014.877   -24946.475    1931.5979    1.1610133    30.985945    30.985945    30.985945    29750.497 
  302000    294.93478   -1955.6649   -23128.129   -24980.486    1852.3576    1.1610133    30.985945    30.985945    30.985945    29750.497 
  303000    296.02114   -2209.9622   -23113.349    -24972.53    1859.1805    1.1610133    30.985945    30.985945    30.985945    29750.497 
  304000     301.3512   -2593.5655   -23035.558   -24928.215    1892.6564    1.1610133    30.985945    30.985945    30.985945    29750.497 
  305000     298.7521   -1445.0942   -23032.416   -24908.748    1876.3325    1.1610133    30.985945    30.985945    30.985945    29750.497 
  306000    297.61338   -2288.2986   -23045.792   -24914.973    1869.1807    1.1610133    30.985945    30.985945    30.985945    29750.497 
  307000    294.13547   -1235.0598   -22989.264   -24836.601    1847.3374    1.1610133    30.985945    30.985945    30.985945    29750.497 
  308000    299.84836   -1453.4484   -23007.051   -24890.268    1883.2176    1.1610133    30.985945    30.985945    30.985945    29750.497 
  309000    296.08091   -1291.8439   -23094.059   -24953.615    1859.5559    1.1610133    30.985945    30.985945    30.985945    29750.497 
  310000    299.06271   -2091.5751   -23134.182   -25012.465    1878.2833    1.1610133    30.985945    30.985945    30.985945    29750.497 
  311000    295.09611   -1895.3563   -23055.508   -24908.879    1853.3708    1.1610133    30.985945    30.985945    30.985945    29750.497 
  312000    295.01811   -2029.8413   -23068.593   -24921.473    1852.8809    1.1610133    30.985945    30.985945    30.985945    29750.497 
  313000    295.06815   -1028.5308   -23072.675    -24925.87    1853.1952    1.1610133    30.985945    30.985945    30.985945    29750.497 
  314000     310.7341   -2206.8492   -22955.612   -24907.198    1951.5862    1.1610133    30.985945    30.985945    30.985945    29750.497 
  315000    310.43353   -1889.2016   -23005.545   -24955.244    1949.6985    1.1610133    30.985945    30.985945    30.985945    29750.497 
  316000    308.07751   -2180.9825    -22991.49   -24926.392    1934.9014    1.1610133    30.985945    30.985945    30.985945    29750.497 
  317000    309.57324   -1532.4845   -23025.951   -24970.247    1944.2954    1.1610133    30.985945    30.985945    30.985945    29750.497 
  318000    295.59588   -1126.2541   -23066.736   -24923.246    1856.5097    1.1610133    30.985945    30.985945    30.985945    29750.497 
  319000     293.1485   -1803.7185   -23038.446   -24879.585    1841.1387    1.1610133    30.985945    30.985945    30.985945    29750.497 
  320000    303.64994   -1447.2506   -23058.028   -24965.122    1907.0937    1.1610133    30.985945    30.985945    30.985945    29750.497 
  321000    290.12133    -1863.672    -23116.56   -24938.687    1822.1264    1.1610133    30.985945    30.985945    30.985945    29750.497 
  322000    295.84813   -1413.5266   -23138.743   -24996.837    1858.0939    1.1610133    30.985945    30.985945    30.985945    29750.497 
  323000    299.25792   -1409.8005   -23065.603   -24945.113    1879.5093    1.1610133    30.985945    30.985945    30.985945    29750.497 
  324000    301.41748   -1784.2828   -22992.164   -24885.236    1893.0726    1.1610133    30.985945    30.985945    30.985945    29750.497 
  325000    293.12605    -1740.847   -23053.935   -24894.932    1840.9977    1.1610133    30.985945    30.985945    30.985945    29750.497 
  326000    299.76629   -1469.0622   -23078.023   -24960.725    1882.7022    1.1610133    30.985945    30.985945    30.985945    29750.497 
  327000    303.28808    -1813.206   -23105.503   -25010.324     1904.821    1.1610133    30.985945    30.985945    30.985945    29750.497 
  328000    291.76452   -1670.9571   -23056.334    -24888.78    1832.4465    1.1610133    30.985945    30.985945    30.985945    29750.497 
  329000    298.92694   -1122.0666   -23013.621   -24891.052    1877.4306    1.1610133    30.985945    30.985945    30.985945    29750.497 
  330000    300.59353   -1288.9296   -23028.605   -24916.503    1887.8977    1.1610133    30.985945    30.985945    30.985945    29750.497 
  331000    287.22489   -1876.8283   -23120.095    -24924.03    1803.9351    1.1610133    30.985945    30.985945    30.985945    29750.497 
  332000    304.19137   -2503.8274   -23013.437   -24923.931    1910.4942    1.1610133    30.985945    30.985945    30.985945    29750.497 
  333000    299.16243   -1662.4589   -23014.982   -24893.892    1878.9096    1.1610133    30.985945    30.985945    30.985945    29750.497 
  334000     298.6637   -1640.9587   -23007.136   -24882.913    1875.7773    1.1610133    30.985945    30.985945    30.985945    29750.497 
  335000     306.0937   -1230.0576   -22955.973   -24878.415    1922.4419    1.1610133    30.985945    30.985945    30.985945    29750.497 
  336000     296.4965   -453.92573   -23079.252   -24941.418     1862.166    1.1610133    30.985945    30.985945    30.985945    29750.497 
  337000    306.27408   -1180.2511   -23006.991   -24930.565    1923.5748    1.1610133    30.985945    30.985945    30.985945    29750.497 
  338000    307.83746   -1230.7026   -23025.335   -24958.729    1933.3937    1.1610133    30.985945    30.985945    30.985945    29750.497 
  339000    293.01519   -1178.5165   -22996.914   -24837.216    1840.3015    1.1610133    30.985945    30.985945    30.985945    29750.497 
  340000    301.13833   -1726.4118   -23009.474   -24900.793    1891.3194    1.1610133    30.985945    30.985945    30.985945    29750.497 
  341000    306.26957   -2190.5166    -23099.86   -25023.406    1923.5465    1.1610133    30.985945    30.985945    30.985945    29750.497 
  342000     294.3207   -1295.5572    -23153.09   -25001.591    1848.5008    1.1610133    30.985945    30.985945    30.985945    29750.497 
  343000    295.04413   -1874.1173   -23113.023   -24966.067    1853.0444    1.1610133    30.985945    30.985945    30.985945    29750.497 
  344000    288.37895   -2048.5914   -23124.516   -24935.699    1811.1833    1.1610133    30.985945    30.985945    30.985945    29750.497 
  345000     300.3232   -1594.9486   -23039.438   -24925.638    1886.1999    1.1610133    30.985945    30.985945    30.985945    29750.497 
  346000    300.33614   -1416.7937   -23033.598   -24919.879    1886.2812    1.1610133    30.985945    30.985945    30.985945    29750.497 
  347000    296.72562   -2718.0715   -23119.181   -24982.787    1863.6051    1.1610133    30.985945    30.985945    30.985945    29750.497 
  348000    299.29052   -919.49812    -23064.93   -24944.644    1879.7141    1.1610133    30.985945    30.985945    30.985945    29750.497 
  349000    303.71146   -1667.6364   -22948.968   -24856.448    1907.4801    1.1610133    30.985945    30.985945    30.985945    29750.497 
  350000    290.02897   -1664.6936   -23128.879   -24950.425    1821.5463    1.1610133    30.985945    30.985945    30.985945    29750.497 
  351000    299.00776   -1634.3822   -23054.813   -24932.751    1877.9382    1.1610133    30.985945    30.985945    30.985945    29750.497 
  352000    296.99986   -1223.5981   -23086.732   -24952.059    1865.3275    1.1610133    30.985945    30.985945    30.985945    29750.497 
  353000    288.72746   -2104.8649     -23125.8   -24939.172    1813.3721    1.1610133    30.985945    30.985945    30.985945    29750.497 
  354000    299.80196   -2267.1831   -23104.364    -24987.29    1882.9262    1.1610133    30.985945    30.985945    30.985945    29750.497 
  355000    303.19871   -1425.3854   -23039.657   -24943.917    1904.2598    1.1610133    30.985945    30.985945    30.985945    29750.497 
  356000    300.63656   -1324.0131   -23095.403   -24983.571     1888.168    1.1610133    30.985945    30.985945    30.985945    29750.497 
  357000    294.47268   -1257.1776   -23126.872   -24976.328    1849.4554    1.1610133    30.985945    30.985945    30.985945    29750.497 
  358000    300.45758    -1248.806   -23113.651   -25000.695    1887.0439    1.1610133    30.985945    30.985945    30.985945    29750.497 
  359000    290.28205   -1655.6593   -23147.139   -24970.275    1823.1358    1.1610133    30.985945    30.985945    30.985945    29750.497 
  360000     293.8141   -1388.6588   -23077.568   -24922.887    1845.3191    1.1610133    30.985945    30.985945    30.985945    29750.497 
  361000     289.4641   -2035.0152   -23079.774   -24897.772    1817.9986    1.1610133    30.985945    30.985945    30.985945    29750.497 
  362000    307.63388   -2760.9451   -22956.667   -24888.783    1932.1151    1.1610133    30.985945    30.985945    30.985945    29750.497 
  363000    291.20111   -1106.1234    -23162.07   -24990.978     1828.908    1.1610133    30.985945    30.985945    30.985945    29750.497 
  364000    301.19204   -979.08655   -23083.851   -24975.508    1891.6567    1.1610133    30.985945    30.985945    30.985945    29750.497 
  365000    307.37226   -927.61162   -23006.178    -24936.65     1930.472    1.1610133    30.985945    30.985945    30.985945    29750.497 
  366000    303.30279   -1686.7449    -23021.81   -24926.724    1904.9134    1.1610133    30.985945    30.985945    30.985945    29750.497 
  367000    306.00832   -1884.9463   -22917.256   -24839.162    1921.9057    1.1610133    30.985945    30.985945    30.985945    29750.497 
  368000     300.2633   -2448.4095    -23050.97   -24936.794    1885.8237    1.1610133    30.985945    30.985945    30.985945    29750.497 
  369000    297.68075   -1288.5801   -23032.372   -24901.976    1869.6038    1.1610133    30.985945    30.985945    30.985945    29750.497 
  370000    295.89528   -1060.6352   -23056.714   -24915.104    1858.3901    1.1610133    30.985945    30.985945    30.985945    29750.497 
  371000    303.41836   -1842.3423    -23007.19   -24912.829    1905.6393    1.1610133    30.985945    30.985945    30.985945    29750.497 
  372000    308.14942   -2392.1756   -23092.385   -25027.738     1935.353    1.1610133    30.985945    30.985945    30.985945    29750.497 
  373000    301.18549   -1951.6229   -23025.943   -24917.559    1891.6156    1.1610133    30.985945    30.985945    30.985945    29750.497 
  374000     291.0228   -2437.8728    -23027.39   -24855.178    1827.7881    1.1610133    30.985945    30.985945    30.985945    29750.497 
  375000    297.69671   -1942.7393   -23110.288   -24979.992     1869.704    1.1610133    30.985945    30.985945    30.985945    29750.497 
  376000     294.4774   -1980.5023   -23168.197   -25017.682     1849.485    1.1610133    30.985945    30.985945    30.985945    29750.497 
  377000    311.19772   -1592.8906   -22987.593   -24942.091     1954.498    1.1610133    30.985945    30.985945    30.985945    29750.497 
  378000    308.30506   -1973.0466   -23004.993   -24941.323    1936.3305    1.1610133    30.985945    30.985945    30.985945    29750.497 
  379000    299.50244   -1202.1622   -23094.933   -24975.978    1881.0451    1.1610133    30.985945    30.985945    30.985945    29750.497 
  380000    295.49308   -2684.7042   -23097.473   -24953.337     1855.864    1.1610133    30.985945    30.985945    30.985945    29750.497 
  381000    294.41545   -1380.8766   -23035.643   -24884.739    1849.0959    1.1610133    30.985945    30.985945    30.985945    29750.497 
  382000    292.33939   -3139.4737   -23085.346   -24921.403    1836.0571    1.1610133    30.985945    30.985945    30.985945    29750.497 
  383000    303.93827   -626.98744   -22996.471   -24905.376    1908.9046    1.1610133    30.985945    30.985945    30.985945    29750.497 
  384000    297.59341   -2269.5733   -23107.746   -24976.801    1869.0553    1.1610133    30.985945    30.985945    30.985945    29750.497 
  385000    292.75793   -1042.7556   -22986.222   -24824.908    1838.6857    1.1610133    30.985945    30.985945    30.985945    29750.497 
  386000    301.35125   -1413.1792   -22991.804   -24884.461    1892.6566    1.1610133    30.985945    30.985945    30.985945    29750.497 
  387000    305.96619   -1023.4846    -22914.66   -24836.301    1921.6411    1.1610133    30.985945    30.985945    30.985945    29750.497 
  388000    284.40122   -1078.2999   -23054.027   -24840.228    1786.2009    1.1610133    30.985945    30.985945    30.985945    29750.497 
  389000    298.65171   -1081.6479   -23069.935   -24945.637     1875.702    1.1610133    30.985945    30.985945    30.985945    29750.497 
  390000     292.6394   -2276.4869   -22967.681   -24805.622    1837.9413    1.1610133    30.985945    30.985945    30.985945    29750.497 
  391000    304.73423   -1965.2918   -22946.569   -24860.473    1913.9037    1.1610133    30.985945    30.985945    30.985945    29750.497 
  392000    301.53443   -1333.7671   -22972.317   -24866.124    1893.8071    1.1610133    30.985945    30.985945    30.985945    29750.497 
  393000    299.13063    -1446.217   -22931.983   -24810.693    1878.7099    1.1610133    30.985945    30.985945    30.985945    29750.497 
  394000    294.70185   -1823.9815    -22997.92   -24848.815    1850.8946    1.1610133    30.985945    30.985945    30.985945    29750.497 
  395000    298.71418   -1904.4112   -23078.373   -24954.467    1876.0944    1.1610133    30.985945    30.985945    30.985945    29750.497 
  396000    293.24665   -2502.9351   -23061.949   -24903.704    1841.7552    1.1610133    30.985945    30.985945    30.985945    29750.497 
  397000    298.22813   -2864.1365   -23048.362   -24921.404    1873.0417    1.1610133    30.985945    30.985945    30.985945    29750.497 
  398000    300.21717   -2085.3978   -23031.975   -24917.509     1885.534    1.1610133    30.985945    30.985945    30.985945    29750.497 
  399000    304.07944   -2465.4128   -22977.698   -24887.489    1909.7912    1.1610133    30.985945    30.985945    30.985945    29750.497 
  400000     287.0744   -709.72994   -23150.815   -24953.805    1802.9899    1.1610133    30.985945    30.985945    30.985945    29750.497 
  401000    306.77941   -1294.7733   -23061.201    -24987.95    1926.7486    1.1610133    30.985945    30.985945    30.985945    29750.497 
  402000    292.07749   -2341.0092   -23168.404   -25002.816    1834.4122    1.1610133    30.985945    30.985945    30.985945    29750.497 
  403000      294.358   -758.01004   -23082.395    -24931.13    1848.7351    1.1610133    30.985945    30.985945    30.985945    29750.497 
  404000     303.2919    -1585.377   -23049.831   -24954.676    1904.8451    1.1610133    30.985945    30.985945    30.985945    29750.497 
  405000    289.52843   -1369.0854   -23153.471   -24971.873    1818.4027    1.1610133    30.985945    30.985945    30.985945    29750.497 
  406000    306.35867   -2094.4293   -23116.242   -25040.348    1924.1061    1.1610133    30.985945    30.985945    30.985945    29750.497 
  407000    296.49792   -2307.9322   -23121.716   -24983.891     1862.175    1.1610133    30.985945    30.985945    30.985945    29750.497 
  408000    282.69539   -1687.5474    -23172.77   -24948.257    1775.4873    1.1610133    30.985945    30.985945    30.985945    29750.497 
  409000     302.6232   -1301.0745   -23094.643   -24995.288    1900.6452    1.1610133    30.985945    30.985945    30.985945    29750.497 
  410000    298.26543   -1533.5987    -23097.85   -24971.126    1873.2759    1.1610133    30.985945    30.985945    30.985945    29750.497 
  411000    305.49172    -2270.743   -22930.957   -24849.618    1918.6611    1.1610133    30.985945    30.985945    30.985945    29750.497 
  412000    291.55664   -2461.5563   -23068.937   -24900.078    1831.1409    1.1610133    30.985945    30.985945    30.985945    29750.497 
  413000    293.98343   -1688.5656   -22944.744   -24791.127    1846.3825    1.1610133    30.985945    30.985945    30.985945    29750.497 
  414000    295.91069   -1108.7381   -23083.197   -24941.683    1858.4869    1.1610133    30.985945    30.985945    30.985945    29750.497 
  415000    296.26711   -1714.6505   -23087.665    -24948.39    1860.7254    1.1610133    30.985945    30.985945    30.985945    29750.497 
  416000    293.48504    -1929.883   -23115.587    -24958.84    1843.2524    1.1610133    30.985945    30.985945    30.985945    29750.497 
  417000    303.42798   -1880.5956    -23125.54    -25031.24    1905.6997    1.1610133    30.985945    30.985945    30.985945    29750.497 
  418000    310.64073   -2509.3926   -22991.198   -24942.198    1950.9999    1.1610133    30.985945    30.985945    30.985945    29750.497 
  419000    310.47658   -1609.4224   -23034.009   -24983.978    1949.9689    1.1610133    30.985945    30.985945    30.985945    29750.497 
  420000    303.50059    -2078.223   -23033.338   -24939.494    1906.1557    1.1610133    30.985945    30.985945    30.985945    29750.497 
  421000    305.27497   -1400.3749   -23056.306   -24973.606    1917.2998    1.1610133    30.985945    30.985945    30.985945    29750.497 
  422000    291.86519   -1598.9242   -23056.589   -24889.668    1833.0788    1.1610133    30.985945    30.985945    30.985945    29750.497 
  423000    301.78532   -1918.0488   -23055.417     -24950.8    1895.3829    1.1610133    30.985945    30.985945    30.985945    29750.497 
  424000    300.59465   -1221.3893   -23040.573   -24928.478    1887.9048    1.1610133    30.985945    30.985945    30.985945    29750.497 
  425000     302.9726   -1045.6116   -23066.708   -24969.547    1902.8397    1.1610133    30.985945    30.985945    30.985945    29750.497 
  426000    298.90358   -1119.3457   -23131.798   -25009.082    1877.2839    1.1610133    30.985945    30.985945    30.985945    29750.497 
  427000    299.63804   -1203.2463   -23153.281   -25035.178    1881.8967    1.1610133    30.985945    30.985945    30.985945    29750.497 
  428000    304.21778   -2059.8289   -23003.475   -24914.135    1910.6601    1.1610133    30.985945    30.985945    30.985945    29750.497 
  429000    305.06085   -1189.9777   -23057.302   -24973.257     1915.955    1.1610133    30.985945    30.985945    30.985945    29750.497 
  430000    293.81804   -1731.6809   -23142.271   -24987.615    1845.3438    1.1610133    30.985945    30.985945    30.985945    29750.497 
  431000    300.77378   -1971.7056   -23094.709   -24983.739    1889.0298    1.1610133    30.985945    30.985945    30.985945    29750.497 
  432000    303.97727   -2035.3287   -23116.991    -25026.14    1909.1496    1.1610133    30.985945    30.985945    30.985945    29750.497 
  433000    297.63698   -1705.9882   -23062.518   -24931.847    1869.3289    1.1610133    30.985945    30.985945    30.985945    29750.497 
  434000    303.18541   -2052.1994   -23071.666   -24975.842    1904.1762    1.1610133    30.985945    30.985945    30.985945    29750.497 
  435000    297.57778   -1664.9378   -23170.086   -25039.044    1868.9571    1.1610133    30.985945    30.985945    30.985945    29750.497 
  436000    305.55539   -1593.8578   -23023.285   -24942.346    1919.0611    1.1610133    30.985945    30.985945    30.985945    29750.497 
  437000    299.49304   -1488.1922   -23149.338   -25030.324     1880.986    1.1610133    30.985945    30.985945    30.985945    29750.497 
  438000    299.81551   -1468.3316   -23127.307   -25010.318    1883.0113    1.1610133    30.985945    30.985945    30.985945    29750.497 
  439000    297.63203   -1788.5608   -23162.055   -25031.353    1869.2978    1.1610133    30.985945    30.985945    30.985945    29750.497 
  440000    296.63144   -1964.7641   -23099.231   -24962.244    1863.0136    1.1610133    30.985945    30.985945    30.985945    29750.497 
  441000    289.87314   -1850.9115   -23203.305   -25023.872    1820.5676    1.1610133    30.985945    30.985945    30.985945    29750.497 
  442000    294.98708    -1715.416   -23057.396   -24910.082    1852.6861    1.1610133    30.985945    30.985945    30.985945    29750.497 
  443000    295.15085   -1944.8062   -23184.768   -25038.483    1853.7146    1.1610133    30.985945    30.985945    30.985945    29750.497 
  444000    303.73229   -1657.6344   -23041.467   -24949.078    1907.6109    1.1610133    30.985945    30.985945    30.985945    29750.497 
  445000    297.76437   -1061.8167    -23027.69   -24897.819     1870.129    1.1610133    30.985945    30.985945    30.985945    29750.497 
  446000    301.70077   -1192.2588    -23022.92   -24917.772    1894.8518    1.1610133    30.985945    30.985945    30.985945    29750.497 
  447000    305.46609    -530.1178   -23022.794   -24941.295    1918.5001    1.1610133    30.985945    30.985945    30.985945    29750.497 
  448000    294.89423   -1199.1133   -23023.617    -24875.72    1852.1029    1.1610133    30.985945    30.985945    30.985945    29750.497 
  449000    299.05163   -2406.0707   -23003.642   -24881.855    1878.2137    1.1610133    30.985945    30.985945    30.985945    29750.497 
  450000    300.40971   -948.63993   -23052.604   -24939.347    1886.7432    1.1610133    30.985945    30.985945    30.985945    29750.497 
  451000    298.98312   -1788.4423   -22978.347    -24856.13    1877.7835    1.1610133    30.985945    30.985945    30.985945    29750.497 
  452000    291.55332    -1360.708   -22994.927   -24826.047    1831.1201    1.1610133    30.985945    30.985945    30.985945    29750.497 
  453000    297.79287   -2759.0697   -23084.215   -24954.523     1870.308    1.1610133    30.985945    30.985945    30.985945    29750.497 
  454000    291.90432   -2674.8135   -23092.331   -24925.656    1833.3245    1.1610133    30.985945    30.985945    30.985945    29750.497 
  455000    299.05906   -1314.8892   -23123.739       -25002    1878.2604    1.1610133    30.985945    30.985945    30.985945    29750.497 
  456000    298.11007   -2339.7025   -23084.131   -24956.431    1872.3002    1.1610133    30.985945    30.985945    30.985945    29750.497 
  457000     294.7502   -2135.3232   -23148.687   -24999.886    1851.1983    1.1610133    30.985945    30.985945    30.985945    29750.497 
  458000    295.70278   -1128.4952   -23059.287   -24916.468    1857.1811    1.1610133    30.985945    30.985945    30.985945    29750.497 
  459000    295.82351   -1368.5628   -23029.476   -24887.415    1857.9393    1.1610133    30.985945    30.985945    30.985945    29750.497 
  460000    304.14345    -879.0371   -22992.127    -24902.32    1910.1933    1.1610133    30.985945    30.985945    30.985945    29750.497 
  461000    294.91632   -998.34394   -23063.148    -24915.39    1852.2417    1.1610133    30.985945    30.985945    30.985945    29750.497 
  462000    297.27395   -1981.0004   -23052.692   -24919.741    1867.0489    1.1610133    30.985945    30.985945    30.985945    29750.497 
  463000    298.73742   -1421.5724   -23147.724   -25023.964    1876.2403    1.1610133    30.985945    30.985945    30.985945    29750.497 
  464000    299.74015   -2219.7552   -23001.005   -24883.543     1882.538    1.1610133    30.985945    30.985945    30.985945    29750.497 
  465000    302.89383   -2926.9186    -23078.55   -24980.895    1902.3449    1.1610133    30.985945    30.985945    30.985945    29750.497 
  466000    306.18058   -1596.1022   -23028.481   -24951.469    1922.9876    1.1610133    30.985945    30.985945    30.985945    29750.497 
  467000    298.07065   -2146.5255   -23086.745   -24958.798    1872.0526    1.1610133    30.985945    30.985945    30.985945    29750.497 
  468000    308.12383   -791.43323   -22966.918    -24902.11    1935.1923    1.1610133    30.985945    30.985945    30.985945    29750.497 
  469000     306.9377   -779.54795    -22931.75   -24859.493    1927.7427    1.1610133    30.985945    30.985945    30.985945    29750.497 
  470000    280.40833   -929.79223   -23088.965   -24850.088    1761.1232    1.1610133    30.985945    30.985945    30.985945    29750.497 
  471000    306.01336   -555.90346   -22943.114   -24865.051    1921.9374    1.1610133    30.985945    30.985945    30.985945    29750.497 
  472000    302.88392   -929.96713   -22961.378   -24863.661    1902.2827    1.1610133    30.985945    30.985945    30.985945    29750.497 
  473000    306.89043   -77.919905    -23034.68   -24962.126    1927.4459    1.1610133    30.985945    30.985945    30.985945    29750.497 
  474000    301.63411   -1325.7649   -22962.027    -24856.46    1894.4332    1.1610133    30.985945    30.985945    30.985945    29750.497 
  475000    300.00104   -1058.8302   -23057.592   -24941.769    1884.1766    1.1610133    30.985945    30.985945    30.985945    29750.497 
  476000    291.20388   -1771.4259   -23047.009   -24875.934    1828.9254    1.1610133    30.985945    30.985945    30.985945    29750.497 
  477000    301.75725   -1585.6196   -23054.161   -24949.368    1895.2065    1.1610133    30.985945    30.985945    30.985945    29750.497 
  478000    303.39512   -1364.7301   -23015.567   -24921.061    1905.4933    1.1610133    30.985945    30.985945    30.985945    29750.497 
  479000    307.65005   -1369.7391   -23041.574   -24973.791    1932.2167    1.1610133    30.985945    30.985945    30.985945    29750.497 
  480000    301.12534    -1185.873   -23004.458   -24895.695    1891.2378    1.1610133    30.985945    30.985945    30.985945    29750.497 
  481000    301.69891   -300.87452   -23003.437   -24898.277    1894.8402    1.1610133    30.985945    30.985945    30.985945    29750.497 
  482000    297.20147   -1970.5529    -23138.29   -25004.883    1866.5936    1.1610133    30.985945    30.985945    30.985945    29750.497 
  483000    297.25235   -1014.3913   -23128.968   -24995.881    1866.9132    1.1610133    30.985945    30.985945    30.985945    29750.497 
  484000    298.00588    -2117.071   -23054.497   -24926.142    1871.6458    1.1610133    30.985945    30.985945    30.985945    29750.497 
  485000      299.668   -1355.6525   -23015.451   -24897.535    1882.0849    1.1610133    30.985945    30.985945    30.985945    29750.497 
  486000    303.27694   -1629.4998   -22998.718   -24903.469    1904.7511    1.1610133    30.985945    30.985945    30.985945    29750.497 
  487000    309.10424   -729.62724    -23005.23    -24946.58    1941.3498    1.1610133    30.985945    30.985945    30.985945    29750.497 
  488000    301.40193   -1803.8949    -23107.67   -25000.645     1892.975    1.1610133    30.985945    30.985945    30.985945    29750.497 
  489000    300.41749   -2099.0332   -23084.541   -24971.333    1886.7921    1.1610133    30.985945    30.985945    30.985945    29750.497 
  490000    287.30697   -1210.1894   -23104.634   -24909.085    1804.4506    1.1610133    30.985945    30.985945    30.985945    29750.497 
  491000    291.97563   -1685.6617   -23122.696   -24956.469    1833.7725    1.1610133    30.985945    30.985945    30.985945    29750.497 
  492000    290.63987   -2690.8231   -23092.677    -24918.06    1825.3831    1.1610133    30.985945    30.985945    30.985945    29750.497 
  493000    290.03477    -1821.416   -23004.199   -24825.782    1821.5828    1.1610133    30.985945    30.985945    30.985945    29750.497 
  494000    299.55688   -1275.1613   -23000.919   -24882.306     1881.387    1.1610133    30.985945    30.985945    30.985945    29750.497 
  495000    296.01079   -1458.4164   -23042.566   -24901.682    1859.1155    1.1610133    30.985945    30.985945    30.985945    29750.497 
  496000    290.99485   -1106.5113   -23104.742   -24932.355    1827.6126    1.1610133    30.985945    30.985945    30.985945    29750.497 
  497000     296.1537   -1293.7284   -23113.533   -24973.546    1860.0131    1.1610133    30.985945    30.985945    30.985945    29750.497 
  498000    299.28045   -1206.8833   -23068.896   -24948.547    1879.6509    1.1610133    30.985945    30.985945    30.985945    29750.497 
  499000    303.31089   -1369.0201   -23020.863   -24925.828    1904.9643    1.1610133    30.985945    30.985945    30.985945    29750.497 
  500000    303.93885   -1293.3501   -22988.164   -24897.072    1908.9082    1.1610133    30.985945    30.985945    30.985945    29750.497 
  501000    303.49617   -1822.7618   -22999.402    -24905.53     1906.128    1.1610133    30.985945    30.985945    30.985945    29750.497 
  502000    293.03979   -1369.9538    -23169.53   -25009.986     1840.456    1.1610133    30.985945    30.985945    30.985945    29750.497 
  503000    295.31951   -2205.8834   -23157.684   -25012.457    1854.7739    1.1610133    30.985945    30.985945    30.985945    29750.497 
  504000    291.57664    -2274.979   -23055.611   -24886.877    1831.2666    1.1610133    30.985945    30.985945    30.985945    29750.497 
  505000     306.5107   -1509.5445   -23119.346   -25044.407    1925.0609    1.1610133    30.985945    30.985945    30.985945    29750.497 
  506000    295.61183   -1038.1732   -23047.974   -24904.584    1856.6099    1.1610133    30.985945    30.985945    30.985945    29750.497 
  507000    297.89894   -1262.6189   -23042.484   -24913.458    1870.9742    1.1610133    30.985945    30.985945    30.985945    29750.497 
  508000    292.64224   -1825.1565   -23089.623   -24927.583    1837.9592    1.1610133    30.985945    30.985945    30.985945    29750.497 
  509000    288.80356   -2017.6386   -23250.652   -25064.502    1813.8501    1.1610133    30.985945    30.985945    30.985945    29750.497 
  510000     296.8004   -1833.7762   -23082.874   -24946.948    1864.0747    1.1610133    30.985945    30.985945    30.985945    29750.497 
  511000     304.8505   -1415.0704    -23074.27   -24988.904    1914.6339    1.1610133    30.985945    30.985945    30.985945    29750.497 
  512000    308.61486   -2179.4391    -22960.54   -24898.816    1938.2763    1.1610133    30.985945    30.985945    30.985945    29750.497 
  513000    312.18962   -1548.0835   -23028.605   -24989.332    1960.7277    1.1610133    30.985945    30.985945    30.985945    29750.497 
  514000    296.81072   -1500.4973   -23038.685   -24902.824    1864.1396    1.1610133    30.985945    30.985945    30.985945    29750.497 
  515000    304.00964   -1322.9947   -22962.329   -24871.681    1909.3529    1.1610133    30.985945    30.985945    30.985945    29750.497 
  516000     298.3719   -1146.7378   -23166.786   -25040.731    1873.9446    1.1610133    30.985945    30.985945    30.985945    29750.497 
  517000    301.00579   -1656.1157   -23077.766   -24968.253     1890.487    1.1610133    30.985945    30.985945    30.985945    29750.497 
  518000    291.38135   -2579.2892   -23092.007   -24922.047      1830.04    1.1610133    30.985945    30.985945    30.985945    29750.497 
  519000    300.53155   -2160.0884   -22961.229   -24848.738    1887.5085    1.1610133    30.985945    30.985945    30.985945    29750.497 
  520000    288.84605   -961.26704    -23103.05   -24917.167    1814.1169    1.1610133    30.985945    30.985945    30.985945    29750.497 
  521000    294.97057   -2389.2465    -23172.23   -25024.812    1852.5824    1.1610133    30.985945    30.985945    30.985945    29750.497 
  522000    287.56067   -2003.4767    -23138.84   -24944.884     1806.044    1.1610133    30.985945    30.985945    30.985945    29750.497 
  523000    287.73343   -2312.9857   -23090.179   -24897.308     1807.129    1.1610133    30.985945    30.985945    30.985945    29750.497 
  524000    295.65876   -1453.6599   -23070.467   -24927.372    1856.9046    1.1610133    30.985945    30.985945    30.985945    29750.497 
  525000    297.03946   -1633.4712   -23051.251   -24916.828    1865.5761    1.1610133    30.985945    30.985945    30.985945    29750.497 
  526000    297.38726   -1566.3961   -23121.902   -24989.662    1867.7606    1.1610133    30.985945    30.985945    30.985945    29750.497 
  527000    303.99552   -1845.1877   -23017.576    -24926.84    1909.2642    1.1610133    30.985945    30.985945    30.985945    29750.497 
  528000    297.85294   -1516.9482   -23070.737   -24941.422    1870.6853    1.1610133    30.985945    30.985945    30.985945    29750.497 
  529000    303.06193   -1674.2494   -23051.633   -24955.034    1903.4007    1.1610133    30.985945    30.985945    30.985945    29750.497 
  530000    285.49245   -1456.1242    -23070.31   -24863.364    1793.0544    1.1610133    30.985945    30.985945    30.985945    29750.497 
  531000    298.88004    -1303.617   -23111.972   -24989.108     1877.136    1.1610133    30.985945    30.985945    30.985945    29750.497 
  532000    303.16305   -925.64888   -22997.929   -24901.965    1904.0358    1.1610133    30.985945    30.985945    30.985945    29750.497 
  533000    296.86743   -1355.6511   -23088.443   -24952.939    1864.4957    1.1610133    30.985945    30.985945    30.985945    29750.497 
  534000    297.10678   -880.14383   -22919.846   -24785.845     1865.999    1.1610133    30.985945    30.985945    30.985945    29750.497 
  535000    290.22647    -1848.317   -23058.896   -24881.683    1822.7867    1.1610133    30.985945    30.985945    30.985945    29750.497 
  536000    296.33352   -2139.1313   -23206.752   -25067.894    1861.1424    1.1610133    30.985945    30.985945    30.985945    29750.497 
  537000    305.49735   -1674.8357   -23026.566   -24945.263    1918.6965    1.1610133    30.985945    30.985945    30.985945    29750.497 
  538000    296.23015    -703.2113   -23115.352   -24975.845    1860.4932    1.1610133    30.985945    30.985945    30.985945    29750.497 
  539000    302.46039   -1527.5168   -23028.991   -24928.614    1899.6227    1.1610133    30.985945    30.985945    30.985945    29750.497 
  540000    309.41287   -1954.1381    -22948.84   -24892.128    1943.2882    1.1610133    30.985945    30.985945    30.985945    29750.497 
  541000    301.97416   -1828.1082    -23101.43   -24997.999    1896.5689    1.1610133    30.985945    30.985945    30.985945    29750.497 
  542000     296.4514   -2796.6732   -22975.743   -24837.626    1861.8828    1.1610133    30.985945    30.985945    30.985945    29750.497 
  543000     292.9785   -2689.1885   -23090.891   -24930.962    1840.0711    1.1610133    30.985945    30.985945    30.985945    29750.497 
  544000    293.42771   -2440.5525   -23164.352   -25007.245    1842.8923    1.1610133    30.985945    30.985945    30.985945    29750.497 
  545000    305.57323   -1530.9908   -23096.258   -25015.431    1919.1731    1.1610133    30.985945    30.985945    30.985945    29750.497 
  546000    293.60681   -2148.0935   -23194.529   -25038.546    1844.0172    1.1610133    30.985945    30.985945    30.985945    29750.497 
  547000    298.89566   -1744.3012   -22998.874   -24876.109    1877.2342    1.1610133    30.985945    30.985945    30.985945    29750.497 
  548000    293.49667   -1698.1314   -23086.045    -24929.37    1843.3254    1.1610133    30.985945    30.985945    30.985945    29750.497 
  549000    311.58576   -1199.0282   -23014.083   -24971.018    1956.9352    1.1610133    30.985945    30.985945    30.985945    29750.497 
  550000    297.85795   -1788.3283    -23125.14   -24995.857    1870.7167    1.1610133    30.985945    30.985945    30.985945    29750.497 
  551000     299.1282   -1108.8025   -23072.488   -24951.183    1878.6946    1.1610133    30.985945    30.985945    30.985945    29750.497 
  552000    299.47143   -872.46066   -23049.679   -24930.529    1880.8503    1.1610133    30.985945    30.985945    30.985945    29750.497 
  553000    307.95181   -646.95718   -23029.038    -24963.15    1934.1119    1.1610133    30.985945    30.985945    30.985945    29750.497 
  554000    300.64953   -2314.3983   -23053.704   -24941.953    1888.2494    1.1610133    30.985945    30.985945    30.985945    29750.497 
  555000    295.81299   -848.27921   -23070.628   -24928.501    1857.8733    1.1610133    30.985945    30.985945    30.985945    29750.497 
  556000    295.45174   -1366.9683   -23034.953   -24890.557    1855.6044    1.1610133    30.985945    30.985945    30.985945    29750.497 
  557000    314.21746   -1120.4083   -22984.319   -24957.782    1973.4638    1.1610133    30.985945    30.985945    30.985945    29750.497 
  558000    298.24598   -1482.7487   -23099.068   -24972.221    1873.1538    1.1610133    30.985945    30.985945    30.985945    29750.497 
  559000     290.6935    -2286.306   -23199.809   -25025.529    1825.7199    1.1610133    30.985945    30.985945    30.985945    29750.497 
  560000    295.77511   -1040.9503   -23025.916   -24883.551    1857.6353    1.1610133    30.985945    30.985945    30.985945    29750.497 
  561000    297.49545   -1892.8958   -23096.728   -24965.168    1868.4401    1.1610133    30.985945    30.985945    30.985945    29750.497 
  562000      304.487   -2009.8738   -23055.014   -24967.365    1912.3509    1.1610133    30.985945    30.985945    30.985945    29750.497 
  563000    303.05325   -1589.0527   -23168.269   -25071.616    1903.3462    1.1610133    30.985945    30.985945    30.985945    29750.497 
  564000    296.07094   -1723.2701    -23006.55   -24866.043    1859.4933    1.1610133    30.985945    30.985945    30.985945    29750.497 
  565000    304.18631   -2148.0318   -23013.356   -24923.819    1910.4624    1.1610133    30.985945    30.985945    30.985945    29750.497 
  566000    302.43587   -1472.5124   -22989.121   -24888.589    1899.4687    1.1610133    30.985945    30.985945    30.985945    29750.497 
  567000     299.1637   -260.08308   -23015.627   -24894.545    1878.9176    1.1610133    30.985945    30.985945    30.985945    29750.497 
  568000     301.8332    -1338.287   -23000.027    -24895.71    1895.6836    1.1610133    30.985945    30.985945    30.985945    29750.497 
  569000    299.86761   -1512.8681   -23076.031    -24959.37    1883.3385    1.1610133    30.985945    30.985945    30.985945    29750.497 
  570000    295.62146   -2365.6429   -23033.611   -24890.282    1856.6703    1.1610133    30.985945    30.985945    30.985945    29750.497 
  571000     301.5586   -1214.6009   -23021.224   -24915.183    1893.9589    1.1610133    30.985945    30.985945    30.985945    29750.497 
  572000     298.3636   -1672.6491   -23088.875   -24962.767    1873.8925    1.1610133    30.985945    30.985945    30.985945    29750.497 
  573000    307.39448   -1403.6262   -22971.311   -24901.923    1930.6116    1.1610133    30.985945    30.985945    30.985945    29750.497 
  574000    291.60541   -1800.3646    -23050.02   -24881.467    1831.4473    1.1610133    30.985945    30.985945    30.985945    29750.497 
  575000     295.9352   -1035.5669   -23072.767   -24931.408    1858.6408    1.1610133    30.985945    30.985945    30.985945    29750.497 
  576000    288.35133   -1061.0878   -23172.266   -24983.276    1811.0098    1.1610133    30.985945    30.985945    30.985945    29750.497 
  577000    295.87806   -1096.0864   -23118.012   -24976.294    1858.2819    1.1610133    30.985945    30.985945    30.985945    29750.497 
  578000    298.03579   -2080.8166   -23037.444   -24909.278    1871.8337    1.1610133    30.985945    30.985945    30.985945    29750.497 
  579000     310.9016   -1605.5744   -23019.737   -24972.375    1952.6383    1.1610133    30.985945    30.985945    30.985945    29750.497 
  580000    303.81475    9.5905469    -22987.38   -24895.509    1908.1288    1.1610133    30.985945    30.985945    30.985945    29750.497 
  581000    298.95644   -1941.6737   -23048.667   -24926.283    1877.6159    1.1610133    30.985945    30.985945    30.985945    29750.497 
  582000    289.02693   -609.15659    -23105.34   -24920.593    1815.2529    1.1610133    30.985945    30.985945    30.985945    29750.497 
  583000    297.12685   -1574.0042   -23147.353   -25013.478     1866.125    1.1610133    30.985945    30.985945    30.985945    29750.497 
  584000    301.08833    -918.7062    -23045.27   -24936.276    1891.0054    1.1610133    30.985945    30.985945    30.985945    29750.497 
  585000    304.98688   -1783.6543   -23053.578   -24969.068    1915.4905    1.1610133    30.985945    30.985945    30.985945    29750.497 
  586000    297.63074    -2117.317   -23057.768   -24927.058    1869.2897    1.1610133    30.985945    30.985945    30.985945    29750.497 
  587000    295.53481   -1952.6089   -23103.542   -24959.668    1856.1261    1.1610133    30.985945    30.985945    30.985945    29750.497 
  588000    301.15799   -1339.6662   -23106.108   -24997.551    1891.4429    1.1610133    30.985945    30.985945    30.985945    29750.497 
  589000    297.63278   -2067.3287   -23141.956   -25011.259    1869.3025    1.1610133    30.985945    30.985945    30.985945    29750.497 
  590000    302.83294   -1098.4937   -23184.694   -25086.656    1901.9625    1.1610133    30.985945    30.985945    30.985945    29750.497 
  591000    288.30718   -664.93109   -23123.706   -24934.439    1810.7325    1.1610133    30.985945    30.985945    30.985945    29750.497 
  592000    292.42583   -608.91562    -23021.29    -24857.89       1836.6    1.1610133    30.985945    30.985945    30.985945    29750.497 
  593000    300.36066   -2131.4623   -23025.007   -24911.442    1886.4352    1.1610133    30.985945    30.985945    30.985945    29750.497 
  594000    304.98218   -1486.2141   -23019.308   -24934.769    1915.4609    1.1610133    30.985945    30.985945    30.985945    29750.497 
  595000    302.99282    -1228.277   -23081.489   -24984.456    1902.9667    1.1610133    30.985945    30.985945    30.985945    29750.497 
  596000    312.71819   -1149.0643    -22948.75   -24912.797    1964.0475    1.1610133    30.985945    30.985945    30.985945    29750.497 
  597000    293.30882    -1307.959   -22995.124   -24837.269    1842.1456    1.1610133    30.985945    30.985945    30.985945    29750.497 
  598000    304.32118   -1298.9536    -23096.17    -25007.48    1911.3095    1.1610133    30.985945    30.985945    30.985945    29750.497 
  599000      300.949   -1622.6072   -23136.722   -25026.852    1890.1303    1.1610133    30.985945    30.985945    30.985945    29750.497 
  600000    306.23197   -1527.7096    -23088.39     -25011.7    1923.3104    1.1610133    30.985945    30.985945    30.985945    29750.497 
  601000    298.63116   -1859.4691   -23098.596   -24974.168     1875.573    1.1610133    30.985945    30.985945    30.985945    29750.497 
  602000    297.79992   -1805.4876   -23093.741   -24964.094    1870.3523    1.1610133    30.985945    30.985945    30.985945    29750.497 
  603000    298.25355   -830.41648    -23029.49   -24902.692    1873.2013    1.1610133    30.985945    30.985945    30.985945    29750.497 
  604000    294.85771   -1072.7821   -23086.078   -24937.951    1851.8735    1.1610133    30.985945    30.985945    30.985945    29750.497 
  605000    297.00607   -1567.3467   -23066.462   -24931.828    1865.3665    1.1610133    30.985945    30.985945    30.985945    29750.497 
  606000    294.18815   -1911.5461   -23112.632   -24960.301    1847.6683    1.1610133    30.985945    30.985945    30.985945    29750.497 
  607000    294.38989   -1769.5349   -23056.908   -24905.844    1848.9353    1.1610133    30.985945    30.985945    30.985945    29750.497 
  608000    294.48203   -1528.7047   -22981.143   -24830.657     1849.514    1.1610133    30.985945    30.985945    30.985945    29750.497 
  609000    304.48903   -963.52944   -22901.566    -24813.93    1912.3637    1.1610133    30.985945    30.985945    30.985945    29750.497 
  610000    299.70255   -2695.0195   -23030.911   -24913.213    1882.3019    1.1610133    30.985945    30.985945    30.985945    29750.497 
  611000    301.29154   -1866.3676   -23076.773   -24969.055    1892.2816    1.1610133    30.985945    30.985945    30.985945    29750.497 
  612000    299.88942   -2244.7172   -23050.936   -24934.411    1883.4755    1.1610133    30.985945    30.985945    30.985945    29750.497 
  613000    299.74843   -670.76777   -23039.418   -24922.008      1882.59    1.1610133    30.985945    30.985945    30.985945    29750.497 
  614000    305.11818   -1965.9766    -23024.57   -24940.885    1916.3151    1.1610133    30.985945    30.985945    30.985945    29750.497 
  615000    298.33473   -1402.8768   -23151.518   -25025.229    1873.7112    1.1610133    30.985945    30.985945    30.985945    29750.497 
  616000     302.5929   -1307.5742   -23088.041   -24988.496    1900.4549    1.1610133    30.985945    30.985945    30.985945    29750.497 
  617000    298.05297   -1700.2402   -23188.913   -25060.855    1871.9416    1.1610133    30.985945    30.985945    30.985945    29750.497 
  618000     300.4462   -2174.1856   -23064.983   -24951.956    1886.9724    1.1610133    30.985945    30.985945    30.985945    29750.497 
  619000     297.7997   -680.90162   -23069.546   -24939.897    1870.3509    1.1610133    30.985945    30.985945    30.985945    29750.497 
  620000     301.6058   -958.46988   -23003.438   -24897.694    1894.2553    1.1610133    30.985945    30.985945    30.985945    29750.497 
  621000    295.89521   -1875.0242   -23160.574   -25018.964    1858.3896    1.1610133    30.985945    30.985945    30.985945    29750.497 
  622000    300.99333   -1201.4914   -23100.993   -24991.402    1890.4087    1.1610133    30.985945    30.985945    30.985945    29750.497 
  623000    298.53849   -1080.1293   -23038.216   -24913.207    1874.9909    1.1610133    30.985945    30.985945    30.985945    29750.497 
  624000    298.96242   -1395.1429   -23012.774   -24890.427    1877.6535    1.1610133    30.985945    30.985945    30.985945    29750.497 
  625000    295.24896   -1943.0916   -23106.217   -24960.548    1854.3308    1.1610133    30.985945    30.985945    30.985945    29750.497 
  626000    299.90952   -1315.1959   -22980.446   -24864.048    1883.6018    1.1610133    30.985945    30.985945    30.985945    29750.497 
  627000    297.66143   -2361.0294   -23056.177   -24925.659    1869.4825    1.1610133    30.985945    30.985945    30.985945    29750.497 
  628000    295.06431    -1690.034   -23159.653   -25012.825    1853.1711    1.1610133    30.985945    30.985945    30.985945    29750.497 
  629000    308.86685    -840.7124     -23005.1   -24944.958    1939.8588    1.1610133    30.985945    30.985945    30.985945    29750.497 
  630000    306.36412   -924.82105   -22968.352   -24892.493    1924.1403    1.1610133    30.985945    30.985945    30.985945    29750.497 
  631000    305.31869   -2096.8224   -23097.685   -25015.259    1917.5744    1.1610133    30.985945    30.985945    30.985945    29750.497 
  632000    299.92193   -1622.4891   -23053.461    -24937.14    1883.6797    1.1610133    30.985945    30.985945    30.985945    29750.497 
  633000    295.95541   -2018.1214   -23119.044   -24977.812    1858.7677    1.1610133    30.985945    30.985945    30.985945    29750.497 
  634000    293.36629   -2296.8345   -23148.542   -24991.048    1842.5066    1.1610133    30.985945    30.985945    30.985945    29750.497 
  635000    301.46857   -1666.7002   -23072.708   -24966.101    1893.3935    1.1610133    30.985945    30.985945    30.985945    29750.497 
  636000    297.44957      -1252.7   -23149.253   -25017.405    1868.1519    1.1610133    30.985945    30.985945    30.985945    29750.497 
  637000    299.81963   -878.32631   -23128.797   -25011.834    1883.0372    1.1610133    30.985945    30.985945    30.985945    29750.497 
  638000     294.8612   -1650.9686   -23128.803   -24980.698    1851.8954    1.1610133    30.985945    30.985945    30.985945    29750.497 
  639000    296.87874   -1678.1073   -23052.271   -24916.838    1864.5668    1.1610133    30.985945    30.985945    30.985945    29750.497 
  640000    290.98649    -1891.437   -23163.015   -24990.575    1827.5601    1.1610133    30.985945    30.985945    30.985945    29750.497 
  641000    308.93127   -1259.2468   -23052.119   -24992.382    1940.2635    1.1610133    30.985945    30.985945    30.985945    29750.497 
  642000    300.17265   -2588.8292   -23070.766   -24956.021    1885.2544    1.1610133    30.985945    30.985945    30.985945    29750.497 
  643000    295.26988   -2557.9529   -23098.784   -24953.246    1854.4622    1.1610133    30.985945    30.985945    30.985945    29750.497 
  644000    294.61854   -1854.8755   -23247.602   -25097.974    1850.3714    1.1610133    30.985945    30.985945    30.985945    29750.497 
  645000    299.99089   -1584.0842     -23102.6   -24986.713    1884.1128    1.1610133    30.985945    30.985945    30.985945    29750.497 
  646000    297.99778   -625.83504   -23004.151   -24875.746    1871.5949    1.1610133    30.985945    30.985945    30.985945    29750.497 
  647000    303.05382   -655.39521   -23041.504   -24944.853    1903.3498    1.1610133    30.985945    30.985945    30.985945    29750.497 
  648000    294.22756   -551.32205   -23124.645   -24972.561    1847.9159    1.1610133    30.985945    30.985945    30.985945    29750.497 
  649000    297.04568   -1024.7914   -23092.174    -24957.79    1865.6153    1.1610133    30.985945    30.985945    30.985945    29750.497 
  650000    289.14947   -1539.7094   -23123.286   -24939.308    1816.0225    1.1610133    30.985945    30.985945    30.985945    29750.497 
  651000    308.61182   -1743.7753   -23000.784   -24939.041    1938.2572    1.1610133    30.985945    30.985945    30.985945    29750.497 
  652000    295.95091   -2303.6753   -23103.325   -24962.064    1858.7395    1.1610133    30.985945    30.985945    30.985945    29750.497 
  653000    306.85457   -800.95856    -22982.03    -24909.25    1927.2206    1.1610133    30.985945    30.985945    30.985945    29750.497 
  654000    293.70005   -1148.9265   -23012.092   -24856.695    1844.6028    1.1610133    30.985945    30.985945    30.985945    29750.497 
  655000    306.37619   -1298.6126   -23036.248   -24960.464    1924.2161    1.1610133    30.985945    30.985945    30.985945    29750.497 
  656000    296.13608    -388.1595   -23085.921   -24945.824    1859.9025    1.1610133    30.985945    30.985945    30.985945    29750.497 
  657000    293.30948   -1119.7581   -23151.191   -24993.341    1842.1498    1.1610133    30.985945    30.985945    30.985945    29750.497 
  658000    297.44732   -1218.2477   -23125.317   -24993.455    1868.1377    1.1610133    30.985945    30.985945    30.985945    29750.497 
  659000    298.47692   -2613.1466   -23176.389   -25050.993    1874.6043    1.1610133    30.985945    30.985945    30.985945    29750.497 
  660000    299.99366   -1075.3898    -23037.84    -24921.97    1884.1302    1.1610133    30.985945    30.985945    30.985945    29750.497 
  661000    307.13203   -2035.0767   -23043.263   -24972.226    1928.9632    1.1610133    30.985945    30.985945    30.985945    29750.497 
  662000    303.92646   -734.07763   -23084.353   -24993.183    1908.8304    1.1610133    30.985945    30.985945    30.985945    29750.497 
  663000    294.85648   -2068.3855   -23076.935     -24928.8    1851.8658    1.1610133    30.985945    30.985945    30.985945    29750.497 
  664000    292.86172    -1415.646   -23107.837   -24947.175    1839.3376    1.1610133    30.985945    30.985945    30.985945    29750.497 
  665000    303.46704   -1946.7749   -23082.344   -24988.289     1905.945    1.1610133    30.985945    30.985945    30.985945    29750.497 
  666000    292.80553     -1415.56   -23128.343   -24967.328    1838.9847    1.1610133    30.985945    30.985945    30.985945    29750.497 
  667000    305.78812   -1678.1684   -23014.649   -24935.171    1920.5227    1.1610133    30.985945    30.985945    30.985945    29750.497 
  668000     293.0354   -1151.5082   -23140.274   -24980.702    1840.4284    1.1610133    30.985945    30.985945    30.985945    29750.497 
  669000     300.5771   -1971.9718    -23156.28   -25044.075    1887.7945    1.1610133    30.985945    30.985945    30.985945    29750.497 
  670000    291.98962   -1067.9695   -23202.761   -25036.622    1833.8603    1.1610133    30.985945    30.985945    30.985945    29750.497 
  671000    312.10252    -1561.363   -22919.532   -24879.712    1960.1807    1.1610133    30.985945    30.985945    30.985945    29750.497 
  672000    309.69266   -1845.9914    -22943.53   -24888.575    1945.0454    1.1610133    30.985945    30.985945    30.985945    29750.497 
  673000    312.27523   -1062.0111   -22926.258   -24887.524    1961.2654    1.1610133    30.985945    30.985945    30.985945    29750.497 
  674000    300.04873    -1604.487    -23070.84   -24955.316    1884.4761    1.1610133    30.985945    30.985945    30.985945    29750.497 
  675000     293.9845   -2590.2095   -23135.785   -24982.174    1846.3893    1.1610133    30.985945    30.985945    30.985945    29750.497 
  676000    293.23306   -1473.8778   -23107.182   -24948.852    1841.6698    1.1610133    30.985945    30.985945    30.985945    29750.497 
  677000    294.49635   -1372.0816   -23097.447   -24947.051     1849.604    1.1610133    30.985945    30.985945    30.985945    29750.497 
  678000    305.32457   -1314.0986    -23035.52   -24953.131    1917.6113    1.1610133    30.985945    30.985945    30.985945    29750.497 
  679000    304.06674   -1444.1126   -22984.297   -24894.008    1909.7115    1.1610133    30.985945    30.985945    30.985945    29750.497 
  680000    311.16882   -1523.0517   -22964.438   -24918.755    1954.3166    1.1610133    30.985945    30.985945    30.985945    29750.497 
  681000    298.55056   -2026.6855   -23055.131   -24930.197    1875.0667    1.1610133    30.985945    30.985945    30.985945    29750.497 
  682000    297.00181    -3042.893   -23077.692   -24943.032    1865.3397    1.1610133    30.985945    30.985945    30.985945    29750.497 
  683000    291.42883   -1150.1456    -23113.29   -24943.628    1830.3383    1.1610133    30.985945    30.985945    30.985945    29750.497 
  684000    305.73653   -1734.5272   -23028.565   -24948.764    1920.1987    1.1610133    30.985945    30.985945    30.985945    29750.497 
  685000    292.99098   -1291.4694   -23116.002   -24956.151    1840.1494    1.1610133    30.985945    30.985945    30.985945    29750.497 
  686000    292.42285   -2268.6933   -23101.406   -24937.987    1836.5813    1.1610133    30.985945    30.985945    30.985945    29750.497 
  687000    303.49549   -1703.1869   -23085.937   -24992.061    1906.1237    1.1610133    30.985945    30.985945    30.985945    29750.497 
  688000    301.73894   -1983.6619   -23039.197   -24934.289    1895.0915    1.1610133    30.985945    30.985945    30.985945    29750.497 
  689000    300.43636   -1269.0541    -23122.35    -25009.26    1886.9106    1.1610133    30.985945    30.985945    30.985945    29750.497 
  690000    301.08836   -2055.7084   -23087.641   -24978.647    1891.0055    1.1610133    30.985945    30.985945    30.985945    29750.497 
  691000    295.36862   -2194.7774   -23143.404   -24998.486    1855.0823    1.1610133    30.985945    30.985945    30.985945    29750.497 
  692000    293.53482   -2317.6622   -23149.104   -24992.669     1843.565    1.1610133    30.985945    30.985945    30.985945    29750.497 
  693000    291.77863   -1987.6533   -23133.965     -24966.5    1832.5352    1.1610133    30.985945    30.985945    30.985945    29750.497 
  694000    302.29107    -1056.342   -23078.733   -24977.293    1898.5593    1.1610133    30.985945    30.985945    30.985945    29750.497 
  695000    300.74089   -1644.3209    -23070.78   -24959.603    1888.8232    1.1610133    30.985945    30.985945    30.985945    29750.497 
  696000      301.282   -861.36779   -22997.443   -24889.665    1892.2217    1.1610133    30.985945    30.985945    30.985945    29750.497 
  697000     292.4554   -1920.7724   -23127.456   -24964.241    1836.7857    1.1610133    30.985945    30.985945    30.985945    29750.497 
  698000    293.17954   -948.50763   -23053.062   -24894.396    1841.3337    1.1610133    30.985945    30.985945    30.985945    29750.497 
  699000    299.05827   -2186.3006   -22940.422   -24818.677    1878.2554    1.1610133    30.985945    30.985945    30.985945    29750.497 
  700000    299.76418   -1365.1366   -23041.398   -24924.087    1882.6889    1.1610133    30.985945    30.985945    30.985945    29750.497 
  701000    297.95449   -1769.4529   -23093.485   -24964.808    1871.3231    1.1610133    30.985945    30.985945    30.985945    29750.497 
  702000    296.02815   -1472.3163   -23069.474   -24928.699    1859.2246    1.1610133    30.985945    30.985945    30.985945    29750.497 
  703000    299.13196   -1573.0484   -23073.077   -24951.796    1878.7182    1.1610133    30.985945    30.985945    30.985945    29750.497 
  704000    298.90889   -2108.3953   -23078.859   -24956.176    1877.3172    1.1610133    30.985945    30.985945    30.985945    29750.497 
  705000    306.85267   -575.41672    -22955.69   -24882.898    1927.2087    1.1610133    30.985945    30.985945    30.985945    29750.497 
  706000    304.00426   -922.49576   -22985.857   -24895.176    1909.3191    1.1610133    30.985945    30.985945    30.985945    29750.497 
  707000    295.62767    -1630.285   -23107.276   -24963.985    1856.7093    1.1610133    30.985945    30.985945    30.985945    29750.497 
  708000    302.72771   -840.01627   -23021.872   -24923.174    1901.3016    1.1610133    30.985945    30.985945    30.985945    29750.497 
  709000    295.43773   -2270.0329   -23075.576   -24931.093    1855.5164    1.1610133    30.985945    30.985945    30.985945    29750.497 
  710000    299.70877    -1335.441   -23113.608   -24995.949    1882.3409    1.1610133    30.985945    30.985945    30.985945    29750.497 
  711000    308.57224   -851.47712   -23000.633   -24938.642    1938.0086    1.1610133    30.985945    30.985945    30.985945    29750.497 
  712000    303.25826    -1902.089   -23024.251   -24928.885    1904.6337    1.1610133    30.985945    30.985945    30.985945    29750.497 
  713000    302.16317   -1176.3886   -23053.526   -24951.282     1897.756    1.1610133    30.985945    30.985945    30.985945    29750.497 
  714000    297.94482   -1692.0709   -23057.972   -24929.235    1871.2624    1.1610133    30.985945    30.985945    30.985945    29750.497 
  715000    300.29637    -1645.935   -23055.869   -24941.901    1886.0314    1.1610133    30.985945    30.985945    30.985945    29750.497 
  716000    297.63125   -2748.4955   -23051.917    -24921.21    1869.2929    1.1610133    30.985945    30.985945    30.985945    29750.497 
  717000    298.25434   -1866.4678   -23099.087   -24972.293    1873.2063    1.1610133    30.985945    30.985945    30.985945    29750.497 
  718000    294.63935   -3306.5941   -23080.458    -24930.96    1850.5021    1.1610133    30.985945    30.985945    30.985945    29750.497 
  719000    301.46409   -1114.3651   -23072.186   -24965.551    1893.3653    1.1610133    30.985945    30.985945    30.985945    29750.497 
  720000    301.98672   -2557.3564   -23149.691   -25046.339    1896.6477    1.1610133    30.985945    30.985945    30.985945    29750.497 
  721000    301.65932   -1770.4788   -23151.106   -25045.698    1894.5915    1.1610133    30.985945    30.985945    30.985945    29750.497 
  722000    297.37755   -1773.0803   -23096.384   -24964.084    1867.6996    1.1610133    30.985945    30.985945    30.985945    29750.497 
  723000    308.13167   -1126.3977     -23024.9   -24960.142    1935.2415    1.1610133    30.985945    30.985945    30.985945    29750.497 
  724000    298.55152   -2190.0798   -23078.743   -24953.816    1875.0727    1.1610133    30.985945    30.985945    30.985945    29750.497 
  725000    298.28382   -1402.9741   -23086.631   -24960.023    1873.3915    1.1610133    30.985945    30.985945    30.985945    29750.497 
  726000    297.07969   -1875.9334   -23085.407   -24951.236    1865.8289    1.1610133    30.985945    30.985945    30.985945    29750.497 
  727000    295.07228   -1487.9315    -23110.14   -24963.362    1853.2211    1.1610133    30.985945    30.985945    30.985945    29750.497 
  728000    294.51595   -1717.5056   -23085.158   -24934.885    1849.7271    1.1610133    30.985945    30.985945    30.985945    29750.497 
  729000    299.50326   -455.89051   -23053.455   -24934.505    1881.0502    1.1610133    30.985945    30.985945    30.985945    29750.497 
  730000    305.02778   -1255.3771   -23085.005   -25000.753    1915.7474    1.1610133    30.985945    30.985945    30.985945    29750.497 
  731000    293.48605   -2338.9076    -23072.41   -24915.669    1843.2587    1.1610133    30.985945    30.985945    30.985945    29750.497 
  732000    307.52779   -2397.0673   -23073.952   -25005.401    1931.4488    1.1610133    30.985945    30.985945    30.985945    29750.497 
  733000    291.78675   -2307.4712   -23006.263   -24838.849    1832.5862    1.1610133    30.985945    30.985945    30.985945    29750.497 
  734000    297.33136   -1897.4172   -23017.834   -24885.243    1867.4094    1.1610133    30.985945    30.985945    30.985945    29750.497 
  735000    300.46865   -1568.2485   -23047.361   -24934.474    1887.1134    1.1610133    30.985945    30.985945    30.985945    29750.497 
  736000    303.77374   -833.92314   -23038.332   -24946.203    1907.8713    1.1610133    30.985945    30.985945    30.985945    29750.497 
  737000    296.37683   -1391.8553   -23047.449   -24908.864    1861.4145    1.1610133    30.985945    30.985945    30.985945    29750.497 
  738000    294.85595    -1371.156    -23051.55   -24903.413    1851.8625    1.1610133    30.985945    30.985945    30.985945    29750.497 
  739000    309.61199     -322.713   -22960.054   -24904.592    1944.5388    1.1610133    30.985945    30.985945    30.985945    29750.497 
  740000    298.12621   -466.90381   -23009.546   -24881.947    1872.4016    1.1610133    30.985945    30.985945    30.985945    29750.497 
  741000     293.0277   -1489.8944   -23062.931   -24903.311    1840.3801    1.1610133    30.985945    30.985945    30.985945    29750.497 
  742000    297.02303   -1602.0527   -23051.015   -24916.488     1865.473    1.1610133    30.985945    30.985945    30.985945    29750.497 
  743000    293.26389   -1664.2083   -23104.493   -24946.357    1841.8634    1.1610133    30.985945    30.985945    30.985945    29750.497 
  744000    298.72472   -2493.2925   -23108.806   -24984.966    1876.1606    1.1610133    30.985945    30.985945    30.985945    29750.497 
  745000    291.26407   -1938.8277   -23115.921   -24945.224    1829.3035    1.1610133    30.985945    30.985945    30.985945    29750.497 
  746000     299.4844   -2295.3634   -23038.544   -24919.475    1880.9318    1.1610133    30.985945    30.985945    30.985945    29750.497 
  747000     302.7074   -2090.6238   -22938.861   -24840.035     1901.174    1.1610133    30.985945    30.985945    30.985945    29750.497 
  748000    288.63585   -1454.7024   -23143.401   -24956.198    1812.7967    1.1610133    30.985945    30.985945    30.985945    29750.497 
  749000    299.01425   -1481.9779   -22968.572   -24846.551     1877.979    1.1610133    30.985945    30.985945    30.985945    29750.497 
  750000    310.32425   -1456.6636   -22895.972   -24844.985    1949.0122    1.1610133    30.985945    30.985945    30.985945    29750.497 
  751000     297.1753    -1654.267    -23057.86    -24924.29    1866.4293    1.1610133    30.985945    30.985945    30.985945    29750.497 
  752000    303.29354   -1870.0364   -23005.195   -24910.051    1904.8553    1.1610133    30.985945    30.985945    30.985945    29750.497 
  753000    297.80878    -949.2436   -23012.417   -24882.825    1870.4079    1.1610133    30.985945    30.985945    30.985945    29750.497 
  754000    309.06521   -1912.9207   -22990.554   -24931.659    1941.1047    1.1610133    30.985945    30.985945    30.985945    29750.497 
  755000    295.47167   -2393.4795    -23064.85   -24920.579    1855.7295    1.1610133    30.985945    30.985945    30.985945    29750.497 
  756000     306.1529   -2271.2144   -23044.865   -24967.679    1922.8137    1.1610133    30.985945    30.985945    30.985945    29750.497 
  757000    294.93873   -1997.5879   -23127.119   -24979.502    1852.3824    1.1610133    30.985945    30.985945    30.985945    29750.497 
  758000    304.99669   -1316.6878   -22985.315   -24900.867    1915.5521    1.1610133    30.985945    30.985945    30.985945    29750.497 
  759000    301.12857   -1443.4046   -23028.296   -24919.554    1891.2581    1.1610133    30.985945    30.985945    30.985945    29750.497 
  760000    294.83679   -972.08133   -23073.981   -24925.723    1851.7421    1.1610133    30.985945    30.985945    30.985945    29750.497 
  761000    304.46646   -1655.6811   -23039.492   -24951.714    1912.2219    1.1610133    30.985945    30.985945    30.985945    29750.497 
  762000    300.25552   -518.77354    -23109.15   -24994.925    1885.7748    1.1610133    30.985945    30.985945    30.985945    29750.497 
  763000    305.55729   -1905.8673   -23022.798   -24941.871     1919.073    1.1610133    30.985945    30.985945    30.985945    29750.497 
  764000    297.80926   -1444.2405   -23047.287   -24917.698     1870.411    1.1610133    30.985945    30.985945    30.985945    29750.497 
  765000    293.26525   -1313.3968   -23132.387   -24974.259     1841.872    1.1610133    30.985945    30.985945    30.985945    29750.497 
  766000      294.478   -1443.7505   -23045.682   -24895.171    1849.4887    1.1610133    30.985945    30.985945    30.985945    29750.497 
  767000     300.2768    -276.1615   -23034.315   -24920.224    1885.9085    1.1610133    30.985945    30.985945    30.985945    29750.497 
  768000     297.0227   -2947.1026   -23072.889    -24938.36    1865.4709    1.1610133    30.985945    30.985945    30.985945    29750.497 
  769000    293.34635   -2102.0708   -23030.699   -24873.081    1842.3813    1.1610133    30.985945    30.985945    30.985945    29750.497 
  770000    299.38306   -1207.1984   -23082.259   -24962.554    1880.2953    1.1610133    30.985945    30.985945    30.985945    29750.497 
  771000    290.50114   -1674.0381   -23067.894   -24892.406    1824.5118    1.1610133    30.985945    30.985945    30.985945    29750.497 
  772000    303.57747   -864.88091   -22977.774   -24884.412    1906.6386    1.1610133    30.985945    30.985945    30.985945    29750.497 
  773000    302.82533   -2483.6909   -23027.643   -24929.558    1901.9147    1.1610133    30.985945    30.985945    30.985945    29750.497 
  774000    293.50731   -1046.0472    -23094.38   -24937.772    1843.3922    1.1610133    30.985945    30.985945    30.985945    29750.497 
  775000    295.59411   -660.62217   -23078.308   -24934.807    1856.4986    1.1610133    30.985945    30.985945    30.985945    29750.497 
  776000    293.35079   -3263.3828   -23156.713   -24999.122    1842.4092    1.1610133    30.985945    30.985945    30.985945    29750.497 
  777000    290.47693   -1041.9498   -23098.971   -24923.331    1824.3598    1.1610133    30.985945    30.985945    30.985945    29750.497 
  778000    290.70363   -1247.9252   -23127.594   -24953.377    1825.7835    1.1610133    30.985945    30.985945    30.985945    29750.497 
  779000    304.17348   -1953.3486   -22983.953   -24894.335    1910.3818    1.1610133    30.985945    30.985945    30.985945    29750.497 
  780000     297.2286   -1716.0927   -22978.993   -24845.757    1866.7641    1.1610133    30.985945    30.985945    30.985945    29750.497 
  781000    295.60887    -2036.208   -23048.185   -24904.777    1856.5912    1.1610133    30.985945    30.985945    30.985945    29750.497 
  782000    293.68289   -1158.6596    -23085.91   -24930.405     1844.495    1.1610133    30.985945    30.985945    30.985945    29750.497 
  783000    291.75088   -1979.8988   -23127.456   -24959.817    1832.3609    1.1610133    30.985945    30.985945    30.985945    29750.497 
  784000    292.54279    -876.2927   -23046.924   -24884.258    1837.3345    1.1610133    30.985945    30.985945    30.985945    29750.497 
  785000     295.4417   -2684.2047   -23036.878   -24892.419    1855.5413    1.1610133    30.985945    30.985945    30.985945    29750.497 
  786000    295.27885   -1093.0112   -22995.237   -24849.755    1854.5185    1.1610133    30.985945    30.985945    30.985945    29750.497 
  787000    308.54266   -2116.2348   -23033.852   -24971.674    1937.8228    1.1610133    30.985945    30.985945    30.985945    29750.497 
  788000    294.32813   -1428.7979   -23056.834   -24905.382    1848.5475    1.1610133    30.985945    30.985945    30.985945    29750.497 
  789000     292.5051   -2006.4169   -23031.751   -24868.849    1837.0978    1.1610133    30.985945    30.985945    30.985945    29750.497 
  790000    299.93055   -1632.8385   -23023.994   -24907.728    1883.7338    1.1610133    30.985945    30.985945    30.985945    29750.497 
  791000    294.69289   -2382.7713   -23108.645   -24959.484    1850.8384    1.1610133    30.985945    30.985945    30.985945    29750.497 
  792000    298.39983   -1072.3929   -23070.556   -24944.676      1874.12    1.1610133    30.985945    30.985945    30.985945    29750.497 
  793000    295.17187   -548.95027   -23084.791   -24938.638    1853.8466    1.1610133    30.985945    30.985945    30.985945    29750.497 
  794000    312.79555   -1658.7594   -22962.915   -24927.448    1964.5333    1.1610133    30.985945    30.985945    30.985945    29750.497 
  795000    300.22588   -1528.8467    -23086.34   -24971.928    1885.5887    1.1610133    30.985945    30.985945    30.985945    29750.497 
  796000     297.9918   -1299.5105   -23130.529   -25002.086    1871.5574    1.1610133    30.985945    30.985945    30.985945    29750.497 
  797000    291.15121   -2103.3876   -23109.754   -24938.349    1828.5946    1.1610133    30.985945    30.985945    30.985945    29750.497 
  798000    299.15464    -1985.759   -23018.651   -24897.511    1878.8607    1.1610133    30.985945    30.985945    30.985945    29750.497 
  799000    303.51562   -1509.9191   -23010.421   -24916.671    1906.2501    1.1610133    30.985945    30.985945    30.985945    29750.497 
  800000    299.50444   -1886.6067   -23019.414   -24900.472    1881.0577    1.1610133    30.985945    30.985945    30.985945    29750.497 
  801000    303.97191   -1887.2014   -23090.593   -24999.709    1909.1159    1.1610133    30.985945    30.985945    30.985945    29750.497 
  802000    297.98734   -1449.7891   -23046.395   -24917.925    1871.5294    1.1610133    30.985945    30.985945    30.985945    29750.497 
  803000     295.0946   -1717.3857   -22993.483   -24846.845    1853.3613    1.1610133    30.985945    30.985945    30.985945    29750.497 
  804000    303.38927   -1543.3955   -22977.036   -24882.493    1905.4566    1.1610133    30.985945    30.985945    30.985945    29750.497 
  805000    299.90075   -1573.8271   -23078.393    -24961.94    1883.5467    1.1610133    30.985945    30.985945    30.985945    29750.497 
  806000    298.13805   -1274.1178   -23065.932   -24938.408    1872.4759    1.1610133    30.985945    30.985945    30.985945    29750.497 
  807000    303.44156   -1333.0833   -23094.888   -25000.673     1905.785    1.1610133    30.985945    30.985945    30.985945    29750.497 
  808000    297.83641   -886.79116   -23038.364   -24908.945    1870.5814    1.1610133    30.985945    30.985945    30.985945    29750.497 
  809000    297.09331   -1057.3039   -23089.089   -24955.003    1865.9144    1.1610133    30.985945    30.985945    30.985945    29750.497 
  810000    293.52861   -839.38275   -23142.302   -24985.828     1843.526    1.1610133    30.985945    30.985945    30.985945    29750.497 
  811000    300.12402    -1722.467   -23071.228   -24956.177    1884.9489    1.1610133    30.985945    30.985945    30.985945    29750.497 
  812000    296.37101   -2661.8938   -23141.237   -25002.615    1861.3779    1.1610133    30.985945    30.985945    30.985945    29750.497 
  813000    299.43271   -1145.4349   -23179.711   -25060.318    1880.6071    1.1610133    30.985945    30.985945    30.985945    29750.497 
  814000    301.16668   -1653.9952   -23063.231   -24954.728    1891.4975    1.1610133    30.985945    30.985945    30.985945    29750.497 
  815000    301.40573   -944.67156   -23156.616   -25049.615    1892.9988    1.1610133    30.985945    30.985945    30.985945    29750.497 
  816000    287.52233   -2515.9839   -23254.995   -25060.798    1805.8032    1.1610133    30.985945    30.985945    30.985945    29750.497 
  817000    295.63377   -1410.9229   -23120.564   -24977.312    1856.7476    1.1610133    30.985945    30.985945    30.985945    29750.497 
  818000    300.39163   -1321.6695   -23083.389   -24970.019    1886.6297    1.1610133    30.985945    30.985945    30.985945    29750.497 
  819000    296.71619   -1807.3612   -23139.294    -25002.84    1863.5459    1.1610133    30.985945    30.985945    30.985945    29750.497 
  820000    296.04119   -1771.2888   -23256.187   -25115.494    1859.3065    1.1610133    30.985945    30.985945    30.985945    29750.497 
  821000    302.73386   -1827.4224   -23105.587   -25006.927    1901.3403    1.1610133    30.985945    30.985945    30.985945    29750.497 
  822000    302.06471   -1856.8043   -23117.611   -25014.748    1897.1376    1.1610133    30.985945    30.985945    30.985945    29750.497 
  823000      298.188   -1193.8169    -23142.74    -25015.53    1872.7896    1.1610133    30.985945    30.985945    30.985945    29750.497 
  824000    287.62375   -1544.2461   -23282.984   -25089.424    1806.4402    1.1610133    30.985945    30.985945    30.985945    29750.497 
  825000    297.26504   -2529.1158   -23141.108   -25008.101    1866.9929    1.1610133    30.985945    30.985945    30.985945    29750.497 
  826000    296.14373   -2084.5577   -23120.187   -24980.137    1859.9505    1.1610133    30.985945    30.985945    30.985945    29750.497 
  827000    297.30159   -1789.1674    -23115.64   -24982.862    1867.2225    1.1610133    30.985945    30.985945    30.985945    29750.497 
  828000    296.21657   -903.14806   -23116.143   -24976.551    1860.4079    1.1610133    30.985945    30.985945    30.985945    29750.497 
  829000    311.27579   -1573.7085   -22961.589   -24916.578    1954.9884    1.1610133    30.985945    30.985945    30.985945    29750.497 
  830000     294.7217   -2821.2561   -23090.487   -24941.507    1851.0193    1.1610133    30.985945    30.985945    30.985945    29750.497 
  831000    293.03678    -1638.252    -23146.73   -24987.167     1840.437    1.1610133    30.985945    30.985945    30.985945    29750.497 
  832000    293.05556   -2141.2881   -23133.522   -24974.077     1840.555    1.1610133    30.985945    30.985945    30.985945    29750.497 
  833000    300.48311   -1828.0966   -23108.499   -24995.703    1887.2043    1.1610133    30.985945    30.985945    30.985945    29750.497 
  834000    303.13842   -964.69738   -23136.727   -25040.609    1903.8811    1.1610133    30.985945    30.985945    30.985945    29750.497 
  835000    292.03873   -952.50316    -23192.66   -25026.829    1834.1687    1.1610133    30.985945    30.985945    30.985945    29750.497 
  836000    300.77634   -1491.8193   -23174.488   -25063.534    1889.0459    1.1610133    30.985945    30.985945    30.985945    29750.497 
  837000    294.23248   -836.42905   -23085.481   -24933.427    1847.9467    1.1610133    30.985945    30.985945    30.985945    29750.497 
  838000    299.31876   -2340.2007   -23086.278    -24966.17    1879.8914    1.1610133    30.985945    30.985945    30.985945    29750.497 
  839000    300.06471   -1009.0068   -23043.524   -24928.101    1884.5765    1.1610133    30.985945    30.985945    30.985945    29750.497 
  840000    303.38206   -1720.1685   -23010.508   -24915.919    1905.4113    1.1610133    30.985945    30.985945    30.985945    29750.497 
  841000    301.73325   -1610.8975   -23020.423   -24915.479    1895.0558    1.1610133    30.985945    30.985945    30.985945    29750.497 
  842000    302.14359   -1488.3985   -23055.799   -24953.432     1897.633    1.1610133    30.985945    30.985945    30.985945    29750.497 
  843000    293.36689   -278.32567   -23051.443   -24893.954    1842.5103    1.1610133    30.985945    30.985945    30.985945    29750.497 
  844000    295.59128   -2210.7086   -22951.001   -24807.482    1856.4808    1.1610133    30.985945    30.985945    30.985945    29750.497 
  845000     309.2506   -978.57148   -22889.202   -24831.471    1942.2691    1.1610133    30.985945    30.985945    30.985945    29750.497 
  846000    295.74743   -1676.6841   -23119.443   -24976.904    1857.4615    1.1610133    30.985945    30.985945    30.985945    29750.497 
  847000    294.50913   -1757.7255    -23094.48   -24944.164    1849.6843    1.1610133    30.985945    30.985945    30.985945    29750.497 
  848000    290.24984   -2490.2368   -23080.608   -24903.542    1822.9335    1.1610133    30.985945    30.985945    30.985945    29750.497 
  849000    297.91034   -1878.7685   -23154.283   -25025.329    1871.0458    1.1610133    30.985945    30.985945    30.985945    29750.497 
  850000    305.99653   -1822.3788   -23007.065   -24928.897    1921.8317    1.1610133    30.985945    30.985945    30.985945    29750.497 
  851000    292.49777   -2127.3553   -23043.399   -24880.451    1837.0518    1.1610133    30.985945    30.985945    30.985945    29750.497 
  852000    291.11385   -1574.5926   -23052.179   -24880.539      1828.36    1.1610133    30.985945    30.985945    30.985945    29750.497 
  853000    293.97859   -1520.9486   -23018.782   -24865.134    1846.3521    1.1610133    30.985945    30.985945    30.985945    29750.497 
  854000    297.22616   -973.96484   -23052.423   -24919.172    1866.7488    1.1610133    30.985945    30.985945    30.985945    29750.497 
  855000    300.53062   -1112.3905   -23102.014   -24989.517    1887.5026    1.1610133    30.985945    30.985945    30.985945    29750.497 
  856000    302.77693   -1423.2796   -23009.844   -24911.454    1901.6107    1.1610133    30.985945    30.985945    30.985945    29750.497 
  857000    298.27238   -1873.5303   -23037.348   -24910.668    1873.3196    1.1610133    30.985945    30.985945    30.985945    29750.497 
  858000    303.84412   -904.28757   -23047.298   -24955.612    1908.3133    1.1610133    30.985945    30.985945    30.985945    29750.497 
  859000    300.16795   -1722.4415   -23101.837   -24987.062    1885.2249    1.1610133    30.985945    30.985945    30.985945    29750.497 
  860000    297.90777     -1716.93   -23026.904   -24897.933    1871.0296    1.1610133    30.985945    30.985945    30.985945    29750.497 
  861000    303.10942   -1502.1085   -22991.175   -24894.874    1903.6989    1.1610133    30.985945    30.985945    30.985945    29750.497 
  862000     300.4187   -1262.9151    -23100.35    -24987.15    1886.7997    1.1610133    30.985945    30.985945    30.985945    29750.497 
  863000    295.97138   -1561.8052   -23041.083   -24899.951     1858.868    1.1610133    30.985945    30.985945    30.985945    29750.497 
  864000    305.17258   -2321.1038   -23056.325   -24972.982    1916.6568    1.1610133    30.985945    30.985945    30.985945    29750.497 
  865000    300.30586   -2053.0018   -23157.962   -25044.053     1886.091    1.1610133    30.985945    30.985945    30.985945    29750.497 
  866000    311.37931   -1290.6365   -22966.021   -24921.659    1955.6386    1.1610133    30.985945    30.985945    30.985945    29750.497 
  867000    302.33865   -1190.2341   -23009.786   -24908.644    1898.8581    1.1610133    30.985945    30.985945    30.985945    29750.497 
  868000    304.62555   -2017.0455   -23045.223   -24958.444    1913.2211    1.1610133    30.985945    30.985945    30.985945    29750.497 
  869000    305.28408    -817.4002    -22955.05   -24872.407     1917.357    1.1610133    30.985945    30.985945    30.985945    29750.497 
  870000    298.76983   -1708.0312   -23002.052   -24878.495    1876.4439    1.1610133    30.985945    30.985945    30.985945    29750.497 
  871000    313.52901   -1388.9463   -22865.132   -24834.272    1969.1399    1.1610133    30.985945    30.985945    30.985945    29750.497 
  872000    295.73798    -1561.653   -23022.545   -24879.947    1857.4021    1.1610133    30.985945    30.985945    30.985945    29750.497 
  873000    296.19104   -1734.2536   -23030.379   -24890.626    1860.2476    1.1610133    30.985945    30.985945    30.985945    29750.497 
  874000    295.87245   -2050.4182   -23058.044   -24916.291    1858.2467    1.1610133    30.985945    30.985945    30.985945    29750.497 
  875000    302.57281   -1116.9316    -23029.43   -24929.759    1900.3287    1.1610133    30.985945    30.985945    30.985945    29750.497 
  876000    299.52597   -2411.1876    -23060.82   -24942.013    1881.1929    1.1610133    30.985945    30.985945    30.985945    29750.497 
  877000     294.0251   -2762.7926   -23125.109   -24971.753    1846.6442    1.1610133    30.985945    30.985945    30.985945    29750.497 
  878000    302.48402   -2361.3099   -23085.148   -24984.919    1899.7711    1.1610133    30.985945    30.985945    30.985945    29750.497 
  879000    292.35015   -1879.4769   -23194.917   -25031.041    1836.1246    1.1610133    30.985945    30.985945    30.985945    29750.497 
  880000     309.3563   -2548.6091   -23040.443   -24983.376    1942.9329    1.1610133    30.985945    30.985945    30.985945    29750.497 
  881000    298.74488    -1252.644   -22976.888   -24853.175    1876.2872    1.1610133    30.985945    30.985945    30.985945    29750.497 
  882000    300.92112   -955.10544   -23052.564    -24942.52    1889.9552    1.1610133    30.985945    30.985945    30.985945    29750.497 
  883000     294.7699   -1758.7658   -23114.743   -24966.065    1851.3221    1.1610133    30.985945    30.985945    30.985945    29750.497 
  884000    303.56655   -1465.5782   -22934.352   -24840.922      1906.57    1.1610133    30.985945    30.985945    30.985945    29750.497 
  885000    294.88879    -2160.349   -23119.485   -24971.554    1852.0687    1.1610133    30.985945    30.985945    30.985945    29750.497 
  886000     298.4749   -2350.7542   -23079.214   -24953.805    1874.5915    1.1610133    30.985945    30.985945    30.985945    29750.497 
  887000    296.06702   -1862.1429   -23067.856   -24927.325    1859.4687    1.1610133    30.985945    30.985945    30.985945    29750.497 
  888000    295.61919   -2086.8147   -23111.463   -24968.119    1856.6561    1.1610133    30.985945    30.985945    30.985945    29750.497 
  889000    303.44121   -1270.4198   -22897.379   -24803.162    1905.7828    1.1610133    30.985945    30.985945    30.985945    29750.497 
  890000    296.97878    -2306.763   -23084.596   -24949.791     1865.195    1.1610133    30.985945    30.985945    30.985945    29750.497 
  891000    303.94119    -2048.863   -23023.059   -24931.982     1908.923    1.1610133    30.985945    30.985945    30.985945    29750.497 
  892000    301.09365   -861.78847   -23012.914   -24903.953    1891.0388    1.1610133    30.985945    30.985945    30.985945    29750.497 
  893000    289.94335   -1804.8222   -23046.517   -24867.526    1821.0086    1.1610133    30.985945    30.985945    30.985945    29750.497 
  894000    297.33047   -1982.7653   -23077.204   -24944.608    1867.4039    1.1610133    30.985945    30.985945    30.985945    29750.497 
  895000    307.81825   -1198.3795   -22987.111   -24920.384    1933.2731    1.1610133    30.985945    30.985945    30.985945    29750.497 
  896000    300.01724   -1095.6377   -23048.016   -24932.294    1884.2783    1.1610133    30.985945    30.985945    30.985945    29750.497 
  897000    303.82188     -1214.05   -22939.258   -24847.432    1908.1736    1.1610133    30.985945    30.985945    30.985945    29750.497 
  898000    299.00282   -1079.8742   -23069.172   -24947.079    1877.9072    1.1610133    30.985945    30.985945    30.985945    29750.497 
  899000    297.13713   -1111.1791   -23110.079   -24976.268    1866.1896    1.1610133    30.985945    30.985945    30.985945    29750.497 
  900000    307.84725   -1435.1537   -22963.178   -24896.633    1933.4552    1.1610133    30.985945    30.985945    30.985945    29750.497 
  901000    296.77713   -2240.4575    -23014.49   -24878.419    1863.9286    1.1610133    30.985945    30.985945    30.985945    29750.497 
  902000    299.13424   -2064.7032   -23005.175   -24883.907    1878.7326    1.1610133    30.985945    30.985945    30.985945    29750.497 
  903000    298.43781   -1122.2404   -23049.893   -24924.251    1874.3586    1.1610133    30.985945    30.985945    30.985945    29750.497 
  904000    304.30864   -1630.0467   -22994.143   -24905.374    1911.2307    1.1610133    30.985945    30.985945    30.985945    29750.497 
  905000    300.34294   -2516.8563   -22999.225   -24885.549    1886.3239    1.1610133    30.985945    30.985945    30.985945    29750.497 
  906000    293.87194   -1659.9516   -23093.252   -24938.934    1845.6823    1.1610133    30.985945    30.985945    30.985945    29750.497 
  907000    299.32781   -1229.7276    -22845.79   -24725.738    1879.9483    1.1610133    30.985945    30.985945    30.985945    29750.497 
  908000    301.47494   -1633.5717    -23073.33   -24966.763    1893.4335    1.1610133    30.985945    30.985945    30.985945    29750.497 
  909000    296.85674   -1559.7483   -23081.022    -24945.45    1864.4286    1.1610133    30.985945    30.985945    30.985945    29750.497 
  910000    306.10015   -1394.5533   -23002.059   -24924.541    1922.4824    1.1610133    30.985945    30.985945    30.985945    29750.497 
  911000    290.76752   -1024.7619   -23048.453   -24874.637    1826.1848    1.1610133    30.985945    30.985945    30.985945    29750.497 
  912000    301.82488   -1945.8045   -23046.833   -24942.465    1895.6313    1.1610133    30.985945    30.985945    30.985945    29750.497 
  913000    301.83497   -903.60768   -22981.621   -24877.316    1895.6947    1.1610133    30.985945    30.985945    30.985945    29750.497 
  914000    286.82996   -1933.1739    -23090.98   -24892.435    1801.4547    1.1610133    30.985945    30.985945    30.985945    29750.497 
  915000    304.01032   -1718.7334   -23035.902   -24945.259    1909.3571    1.1610133    30.985945    30.985945    30.985945    29750.497 
  916000     295.3343   -2303.0762   -23091.555   -24946.422    1854.8668    1.1610133    30.985945    30.985945    30.985945    29750.497 
  917000    296.18772   -2483.3938   -23064.727   -24924.953    1860.2267    1.1610133    30.985945    30.985945    30.985945    29750.497 
  918000    294.58615   -1437.3748   -23036.159   -24886.327     1850.168    1.1610133    30.985945    30.985945    30.985945    29750.497 
  919000    294.57161   -1388.0211   -23086.815   -24936.891    1850.0767    1.1610133    30.985945    30.985945    30.985945    29750.497 
  920000    300.37086   -2102.1288   -23093.133   -24979.632    1886.4993    1.1610133    30.985945    30.985945    30.985945    29750.497 
  921000    293.04235   -1186.6973   -23139.971   -24980.443    1840.4721    1.1610133    30.985945    30.985945    30.985945    29750.497 
  922000    301.03259   -1828.3613   -22980.816   -24871.472    1890.6553    1.1610133    30.985945    30.985945    30.985945    29750.497 
  923000    304.02078   -2455.0055   -23013.695   -24923.118    1909.4228    1.1610133    30.985945    30.985945    30.985945    29750.497 
  924000    299.86178   -2442.4858   -23049.258    -24932.56    1883.3019    1.1610133    30.985945    30.985945    30.985945    29750.497 
  925000    296.29504   -2108.1778   -23055.558   -24916.459    1860.9008    1.1610133    30.985945    30.985945    30.985945    29750.497 
  926000     301.0635   -2170.0305   -23004.435   -24895.285    1890.8494    1.1610133    30.985945    30.985945    30.985945    29750.497 
  927000     300.6847   -939.67755    -23021.76   -24910.231    1888.4703    1.1610133    30.985945    30.985945    30.985945    29750.497 
  928000    284.81947   -1077.6281    -23068.62   -24857.448    1788.8277    1.1610133    30.985945    30.985945    30.985945    29750.497 
  929000    305.48615   -2537.6977   -23027.315   -24945.941    1918.6262    1.1610133    30.985945    30.985945    30.985945    29750.497 
  930000    296.29528   -1846.3301   -23163.452   -25024.354    1860.9023    1.1610133    30.985945    30.985945    30.985945    29750.497 
  931000    292.90846   -870.98588   -23068.418   -24908.049    1839.6311    1.1610133    30.985945    30.985945    30.985945    29750.497 
  932000    289.54901   -1333.6115   -23122.554   -24941.086    1818.5319    1.1610133    30.985945    30.985945    30.985945    29750.497 
  933000    304.04121   -1297.2484   -23045.645   -24955.196    1909.5511    1.1610133    30.985945    30.985945    30.985945    29750.497 
  934000    302.74116   -1302.6725   -23067.326   -24968.712    1901.3861    1.1610133    30.985945    30.985945    30.985945    29750.497 
  935000    306.96791   -1430.3791   -23029.155   -24957.088    1927.9324    1.1610133    30.985945    30.985945    30.985945    29750.497 
  936000    295.83935    -1941.235   -23034.727   -24892.766    1858.0388    1.1610133    30.985945    30.985945    30.985945    29750.497 
  937000    297.89853   -1150.2664   -22976.639   -24847.611    1870.9716    1.1610133    30.985945    30.985945    30.985945    29750.497 
  938000    298.43588   -2212.4549   -23070.002   -24944.349    1874.3465    1.1610133    30.985945    30.985945    30.985945    29750.497 
  939000    290.91437   -1019.4923   -23151.032   -24978.139    1827.1071    1.1610133    30.985945    30.985945    30.985945    29750.497 
  940000    302.48648   -990.53786   -23012.805   -24912.591    1899.7865    1.1610133    30.985945    30.985945    30.985945    29750.497 
  941000    293.92011   -1398.2448   -23000.454   -24846.438    1845.9849    1.1610133    30.985945    30.985945    30.985945    29750.497 
  942000    301.97824   -311.65772   -22944.283   -24840.878    1896.5945    1.1610133    30.985945    30.985945    30.985945    29750.497 
  943000    292.02331   -891.09387   -23064.884   -24898.956    1834.0719    1.1610133    30.985945    30.985945    30.985945    29750.497 
  944000    298.77683   -1408.9122   -23034.752    -24911.24    1876.4879    1.1610133    30.985945    30.985945    30.985945    29750.497 
  945000    294.39337    -1244.638   -23014.581   -24863.539    1848.9572    1.1610133    30.985945    30.985945    30.985945    29750.497 
  946000    299.95369   -2520.2377   -23078.092   -24961.971    1883.8792    1.1610133    30.985945    30.985945    30.985945    29750.497 
  947000    292.18244   -1556.1477   -22998.159    -24833.23    1835.0713    1.1610133    30.985945    30.985945    30.985945    29750.497 
  948000    303.25799   -1805.3724   -23027.532   -24932.165     1904.632    1.1610133    30.985945    30.985945    30.985945    29750.497 
  949000    300.72363   -1599.7947   -22999.213   -24887.928    1888.7149    1.1610133    30.985945    30.985945    30.985945    29750.497 
  950000    288.48204   -1442.9736    -23119.13   -24930.961    1811.8307    1.1610133    30.985945    30.985945    30.985945    29750.497 
  951000    299.56022   -1102.3757   -23079.454   -24960.862     1881.408    1.1610133    30.985945    30.985945    30.985945    29750.497 
  952000    297.42273    -1459.989   -23014.319   -24882.302    1867.9833    1.1610133    30.985945    30.985945    30.985945    29750.497 
  953000     303.6533   -1936.0419   -23104.143   -25011.258    1907.1149    1.1610133    30.985945    30.985945    30.985945    29750.497 
  954000    293.55836   -1927.2999   -23056.463   -24900.176    1843.7129    1.1610133    30.985945    30.985945    30.985945    29750.497 
  955000    296.77706   -938.25379   -23100.794   -24964.722    1863.9282    1.1610133    30.985945    30.985945    30.985945    29750.497 
  956000    302.71702     -552.985   -23083.381   -24984.616    1901.2345    1.1610133    30.985945    30.985945    30.985945    29750.497 
  957000     298.4267   -1309.8225   -22976.851    -24851.14    1874.2888    1.1610133    30.985945    30.985945    30.985945    29750.497 
  958000     301.7497   -2173.2497   -23120.408   -25015.567    1895.1591    1.1610133    30.985945    30.985945    30.985945    29750.497 
  959000    294.36587   -1883.9309   -22984.081   -24832.865    1848.7845    1.1610133    30.985945    30.985945    30.985945    29750.497 
  960000    307.93764   -2784.5424   -23000.982   -24935.004    1934.0229    1.1610133    30.985945    30.985945    30.985945    29750.497 
  961000    301.55577   -1600.3648    -23031.22   -24925.161    1893.9411    1.1610133    30.985945    30.985945    30.985945    29750.497 
  962000    303.90903   -2388.7203    -23076.33   -24985.051    1908.7209    1.1610133    30.985945    30.985945    30.985945    29750.497 
  963000    296.40902   -1826.9036   -23084.801   -24946.418    1861.6167    1.1610133    30.985945    30.985945    30.985945    29750.497 
  964000    304.07752   -2084.2471   -23046.315   -24956.094    1909.7792    1.1610133    30.985945    30.985945    30.985945    29750.497 
  965000    294.03709   -1446.5203   -23096.137   -24942.856    1846.7196    1.1610133    30.985945    30.985945    30.985945    29750.497 
  966000    305.21489   -1505.8554   -23047.431   -24964.353    1916.9225    1.1610133    30.985945    30.985945    30.985945    29750.497 
  967000    286.62699    -1490.889   -23141.836   -24942.016      1800.18    1.1610133    30.985945    30.985945    30.985945    29750.497 
  968000    298.67942   -1559.7304   -23018.458   -24894.334     1875.876    1.1610133    30.985945    30.985945    30.985945    29750.497 
  969000    291.82051   -813.83419   -23123.479   -24956.278    1832.7982    1.1610133    30.985945    30.985945    30.985945    29750.497 
  970000    297.98879   -2074.9675   -23186.186   -25057.724    1871.5385    1.1610133    30.985945    30.985945    30.985945    29750.497 
  971000    299.02945    -1208.587    -23028.59   -24906.664    1878.0744    1.1610133    30.985945    30.985945    30.985945    29750.497 
  972000    304.51175   -1088.5878   -23049.445   -24961.952    1912.5064    1.1610133    30.985945    30.985945    30.985945    29750.497 
  973000    298.77285   -579.52804   -23112.235   -24988.698    1876.4628    1.1610133    30.985945    30.985945    30.985945    29750.497 
  974000    284.16568    -1275.024   -23137.624   -24922.346    1784.7215    1.1610133    30.985945    30.985945    30.985945    29750.497 
  975000    293.11591   -910.59165   -23053.774   -24894.709    1840.9341    1.1610133    30.985945    30.985945    30.985945    29750.497 
  976000    294.06477   -1499.9939   -23065.136    -24912.03    1846.8934    1.1610133    30.985945    30.985945    30.985945    29750.497 
  977000     294.0666   -1292.0711   -23060.667   -24907.572    1846.9049    1.1610133    30.985945    30.985945    30.985945    29750.497 
  978000    296.34346   -2078.2822    -23088.71   -24949.914    1861.2049    1.1610133    30.985945    30.985945    30.985945    29750.497 
  979000    294.92274   -1129.7175   -23054.766   -24907.048     1852.282    1.1610133    30.985945    30.985945    30.985945    29750.497 
  980000    290.99975   -1216.1414   -23117.051   -24944.695    1827.6434    1.1610133    30.985945    30.985945    30.985945    29750.497 
  981000    304.27266   -1535.7005   -23030.223   -24941.228    1911.0048    1.1610133    30.985945    30.985945    30.985945    29750.497 
  982000    301.66026    -885.2462   -23032.599   -24927.196    1894.5974    1.1610133    30.985945    30.985945    30.985945    29750.497 
  983000    288.32734   -1478.8917   -23129.801    -24940.66    1810.8591    1.1610133    30.985945    30.985945    30.985945    29750.497 
  984000    300.27144   -1909.9468   -23046.721   -24932.595    1885.8749    1.1610133    30.985945    30.985945    30.985945    29750.497 
  985000    303.99937   -837.89142   -23102.714   -25012.002    1909.2883    1.1610133    30.985945    30.985945    30.985945    29750.497 
  986000    303.90285   -1715.6267   -23042.584   -24951.266    1908.6821    1.1610133    30.985945    30.985945    30.985945    29750.497 
  987000    291.61263   -2304.5515   -23155.887   -24987.379    1831.4926    1.1610133    30.985945    30.985945    30.985945    29750.497 
  988000    299.01335   -2662.4234   -23061.722   -24939.695    1877.9733    1.1610133    30.985945    30.985945    30.985945    29750.497 
  989000    294.42702   -980.51108   -23120.015   -24969.183    1849.1686    1.1610133    30.985945    30.985945    30.985945    29750.497 
  990000    288.70031   -2366.5751   -23146.426   -24959.627    1813.2016    1.1610133    30.985945    30.985945    30.985945    29750.497 
  991000    294.61064    -1460.567   -23009.632   -24859.953    1850.3218    1.1610133    30.985945    30.985945    30.985945    29750.497 
  992000    302.13161    -969.0677   -23013.256   -24910.814    1897.5577    1.1610133    30.985945    30.985945    30.985945    29750.497 
  993000    308.48817   -2398.7605   -23048.124   -24985.605    1937.4806    1.1610133    30.985945    30.985945    30.985945    29750.497 
  994000    297.84485   -1988.1787   -23088.102   -24958.737    1870.6345    1.1610133    30.985945    30.985945    30.985945    29750.497 
  995000    295.11199   -1746.9328   -23177.787   -25031.258    1853.4706    1.1610133    30.985945    30.985945    30.985945    29750.497 
  996000    298.42975   -1140.3077   -23117.712    -24992.02     1874.308    1.1610133    30.985945    30.985945    30.985945    29750.497 
  997000    299.37155   -2113.3679   -23123.698   -25003.921     1880.223    1.1610133    30.985945    30.985945    30.985945    29750.497 
  998000    293.98979   -2114.4617    -23099.06   -24945.482    1846.4225    1.1610133    30.985945    30.985945    30.985945    29750.497 
  999000    294.49346   -1350.7772   -23062.405   -24911.991    1849.5858    1.1610133    30.985945    30.985945    30.985945    29750.497 
 1000000    293.31216    -2232.507   -23101.991   -24944.158    1842.1666    1.1610133    30.985945    30.985945    30.985945    29750.497 
 1001000    308.67106   -1739.0348   -22975.108   -24913.737    1938.6292    1.1610133    30.985945    30.985945    30.985945    29750.497 
 1002000    293.43059   -2306.2142    -23097.06    -24939.97    1842.9104    1.1610133    30.985945    30.985945    30.985945    29750.497 
 1003000    304.08498   -1763.8587   -23140.543   -25050.369     1909.826    1.1610133    30.985945    30.985945    30.985945    29750.497 
 1004000    297.02716   -1362.0387   -23039.432   -24904.931    1865.4989    1.1610133    30.985945    30.985945    30.985945    29750.497 
 1005000    303.31298   -1189.4278   -23141.559   -25046.536    1904.9774    1.1610133    30.985945    30.985945    30.985945    29750.497 
 1006000    301.18429   -2260.6093   -23125.279   -25016.887    1891.6081    1.1610133    30.985945    30.985945    30.985945    29750.497 
 1007000    298.16271   -1959.4655   -23175.255   -25047.886    1872.6308    1.1610133    30.985945    30.985945    30.985945    29750.497 
 1008000    304.27571    -1931.968   -23141.527   -25052.551    1911.0239    1.1610133    30.985945    30.985945    30.985945    29750.497 
 1009000    298.80152   -2046.2377   -23119.554   -24996.197    1876.6429    1.1610133    30.985945    30.985945    30.985945    29750.497 
 1010000    297.67808   -1819.8995   -23095.196   -24964.783     1869.587    1.1610133    30.985945    30.985945    30.985945    29750.497 
 1011000    285.45359   -1480.4573   -23127.787   -24920.597    1792.8103    1.1610133    30.985945    30.985945    30.985945    29750.497 
 1012000    289.35558   -2849.0643   -23163.235   -24980.552     1817.317    1.1610133    30.985945    30.985945    30.985945    29750.497 
 1013000    292.61923   -937.77232   -23027.721   -24865.536    1837.8146    1.1610133    30.985945    30.985945    30.985945    29750.497 
 1014000    295.23802    -1352.006   -23074.981   -24929.244    1854.2621    1.1610133    30.985945    30.985945    30.985945    29750.497 
 1015000    299.28615   -1615.7537   -23030.073    -24909.76    1879.6866    1.1610133    30.985945    30.985945    30.985945    29750.497 
 1016000    302.11145   -1177.0981   -23110.928   -25008.359    1897.4311    1.1610133    30.985945    30.985945    30.985945    29750.497 
 1017000    294.03054   -1681.6599   -23149.006   -24995.685    1846.6785    1.1610133    30.985945    30.985945    30.985945    29750.497 
 1018000    293.61834   -2021.3166   -23074.019   -24918.108    1844.0896    1.1610133    30.985945    30.985945    30.985945    29750.497 
 1019000    300.44918   -1660.1024   -23104.164   -24991.155    1886.9911    1.1610133    30.985945    30.985945    30.985945    29750.497 
 1020000    294.23471   -1783.9657   -23132.617   -24980.577    1847.9607    1.1610133    30.985945    30.985945    30.985945    29750.497 
 1021000    305.95083   -2142.5435   -23078.389   -24999.933    1921.5446    1.1610133    30.985945    30.985945    30.985945    29750.497 
 1022000     288.8339   -1503.3381   -23133.616   -24947.657    1814.0406    1.1610133    30.985945    30.985945    30.985945    29750.497 
 1023000    299.31804    -2032.233     -23042.6   -24922.487    1879.8869    1.1610133    30.985945    30.985945    30.985945    29750.497 
 1024000    297.53501   -1814.5501   -23056.884   -24925.572    1868.6885    1.1610133    30.985945    30.985945    30.985945    29750.497 
 1025000    296.54096    -1735.239   -23046.557   -24909.003    1862.4453    1.1610133    30.985945    30.985945    30.985945    29750.497 
 1026000    289.28766   -1430.9974   -23067.426   -24884.317    1816.8905    1.1610133    30.985945    30.985945    30.985945    29750.497 
 1027000    296.42632    -1227.321   -23078.393   -24940.119    1861.7253    1.1610133    30.985945    30.985945    30.985945    29750.497 
 1028000    302.18167   -2828.4216    -23078.39   -24976.262    1897.8722    1.1610133    30.985945    30.985945    30.985945    29750.497 
 1029000    302.55536   -1523.4411   -23067.138   -24967.357    1900.2191    1.1610133    30.985945    30.985945    30.985945    29750.497 
 1030000    298.41042   -812.79939    -23080.45   -24954.637    1874.1866    1.1610133    30.985945    30.985945    30.985945    29750.497 
 1031000    286.75894   -1230.8433   -23126.142   -24927.151    1801.0086    1.1610133    30.985945    30.985945    30.985945    29750.497 
 1032000    297.29143   -1007.7549   -23182.053   -25049.212    1867.1586    1.1610133    30.985945    30.985945    30.985945    29750.497 
 1033000    296.04538   -2101.2657   -23164.235   -25023.567    1859.3327    1.1610133    30.985945    30.985945    30.985945    29750.497 
 1034000    300.75024    -1666.588   -23090.779   -24979.661    1888.8819    1.1610133    30.985945    30.985945    30.985945    29750.497 
 1035000    294.12661   -1733.9549   -23002.239   -24849.521    1847.2818    1.1610133    30.985945    30.985945    30.985945    29750.497 
 1036000    298.63944   -1216.2934   -23100.769   -24976.394    1875.6249    1.1610133    30.985945    30.985945    30.985945    29750.497 
 1037000     296.2926   -770.86819    -23108.74   -24969.625    1860.8854    1.1610133    30.985945    30.985945    30.985945    29750.497 
 1038000    302.77598    -795.8425   -23069.728   -24971.332    1901.6048    1.1610133    30.985945    30.985945    30.985945    29750.497 
 1039000    304.60641   -1775.9717   -22927.272   -24840.373    1913.1009    1.1610133    30.985945    30.985945    30.985945    29750.497 
 1040000    304.53586   -1560.9044   -22976.605   -24889.263    1912.6578    1.1610133    30.985945    30.985945    30.985945    29750.497 
 1041000    302.70461   -829.86996   -22892.926   -24794.083    1901.1565    1.1610133    30.985945    30.985945    30.985945    29750.497 
 1042000    295.89108   -1032.9821   -23072.324   -24930.688    1858.3637    1.1610133    30.985945    30.985945    30.985945    29750.497 
 1043000     295.2963   -1717.3003   -23052.541   -24907.169    1854.6281    1.1610133    30.985945    30.985945    30.985945    29750.497 
 1044000    297.59761   -756.07707   -23081.015   -24950.096    1869.0817    1.1610133    30.985945    30.985945    30.985945    29750.497 
 1045000    293.48475    -461.4131   -23050.788   -24894.039    1843.2506    1.1610133    30.985945    30.985945    30.985945    29750.497 
 1046000    282.75152   -714.99677   -23089.992   -24865.832    1775.8398    1.1610133    30.985945    30.985945    30.985945    29750.497 
 1047000    299.49538   -795.97293   -23097.049    -24978.05    1881.0007    1.1610133    30.985945    30.985945    30.985945    29750.497 
 1048000    294.69422   -2195.4745   -23171.073    -25021.92    1850.8467    1.1610133    30.985945    30.985945    30.985945    29750.497 
 1049000    299.52343   -1729.4287   -22955.751   -24836.928    1881.1769    1.1610133    30.985945    30.985945    30.985945    29750.497 
 1050000    292.88784   -1798.7529   -23103.014   -24942.516    1839.5017    1.1610133    30.985945    30.985945    30.985945    29750.497 
 1051000    307.26879   -798.42302   -22999.844   -24929.667    1929.8221    1.1610133    30.985945    30.985945    30.985945    29750.497 
 1052000    306.88591   -2003.9698   -23002.267   -24929.684    1927.4174    1.1610133    30.985945    30.985945    30.985945    29750.497 
 1053000    299.89596     -1865.05     -23121.3   -25004.816    1883.5166    1.1610133    30.985945    30.985945    30.985945    29750.497 
 1054000    301.43804   -966.44504   -23073.245   -24966.446    1893.2017    1.1610133    30.985945    30.985945    30.985945    29750.497 
 1055000    295.03459   -1938.0261   -23110.191   -24963.175    1852.9844    1.1610133    30.985945    30.985945    30.985945    29750.497 
 1056000    304.76305   -1271.2967   -23059.745    -24973.83    1914.0847    1.1610133    30.985945    30.985945    30.985945    29750.497 
 1057000     300.2083   -2116.5127   -23013.116   -24898.594    1885.4783    1.1610133    30.985945    30.985945    30.985945    29750.497 
 1058000    294.89661   -1264.4634   -23068.869   -24920.987    1852.1178    1.1610133    30.985945    30.985945    30.985945    29750.497 
 1059000    302.77489    -1638.802    -22968.03   -24869.628    1901.5979    1.1610133    30.985945    30.985945    30.985945    29750.497 
 1060000    304.73698   -1661.2153   -23063.185   -24977.106    1913.9209    1.1610133    30.985945    30.985945    30.985945    29750.497 
 1061000    293.00688   -1583.1513   -23095.861   -24936.111    1840.2493    1.1610133    30.985945    30.985945    30.985945    29750.497 
 1062000     307.2146   -1391.9496   -23066.978    -24996.46    1929.4818    1.1610133    30.985945    30.985945    30.985945    29750.497 
 1063000    300.55391   -2652.1147   -23043.451     -24931.1    1887.6489    1.1610133    30.985945    30.985945    30.985945    29750.497 
 1064000     297.3009   -1823.9219   -23109.663   -24976.881    1867.2182    1.1610133    30.985945    30.985945    30.985945    29750.497 
 1065000    306.02808   -1717.7538   -23111.572   -25033.602    1922.0298    1.1610133    30.985945    30.985945    30.985945    29750.497 
 1066000    297.68938   -2066.4802   -23100.284   -24969.942     1869.658    1.1610133    30.985945    30.985945    30.985945    29750.497 
 1067000    304.45731   -893.47905   -23028.636     -24940.8    1912.1645    1.1610133    30.985945    30.985945    30.985945    29750.497 
 1068000    306.38454   -1737.2863   -23042.157   -24966.425    1924.2686    1.1610133    30.985945    30.985945    30.985945    29750.497 
 1069000    290.59055   -1608.0052   -23124.218   -24949.291    1825.0734    1.1610133    30.985945    30.985945    30.985945    29750.497 
 1070000    297.65038   -1683.4524   -23136.102   -25005.515    1869.4131    1.1610133    30.985945    30.985945    30.985945    29750.497 
 1071000    305.55071   -752.58353   -23022.172   -24941.204    1919.0316    1.1610133    30.985945    30.985945    30.985945    29750.497 
 1072000     292.1245   -1319.1014   -23008.905   -24843.612    1834.7074    1.1610133    30.985945    30.985945    30.985945    29750.497 
 1073000    303.30226   -1784.3218   -23094.903   -24999.813    1904.9101    1.1610133    30.985945    30.985945    30.985945    29750.497 
 1074000    305.27949   -791.48086   -22949.733   -24867.061    1917.3282    1.1610133    30.985945    30.985945    30.985945    29750.497 
 1075000    297.47775   -39.918352   -23112.981    -24981.31    1868.3288    1.1610133    30.985945    30.985945    30.985945    29750.497 
 1076000    298.70494   -1479.6845   -23039.426   -24915.462    1876.0363    1.1610133    30.985945    30.985945    30.985945    29750.497 
 1077000    281.89656   -1330.6955   -23140.693   -24911.163    1770.4702    1.1610133    30.985945    30.985945    30.985945    29750.497 
 1078000    293.49493   -989.16767   -23003.332   -24846.646    1843.3145    1.1610133    30.985945    30.985945    30.985945    29750.497 
 1079000    300.15495   -1371.3415   -23066.922   -24952.065    1885.1432    1.1610133    30.985945    30.985945    30.985945    29750.497 
 1080000    303.52967   -1674.2223   -23008.286   -24914.624    1906.3383    1.1610133    30.985945    30.985945    30.985945    29750.497 
 1081000    293.76019   -334.10561   -23057.639   -24902.619    1844.9805    1.1610133    30.985945    30.985945    30.985945    29750.497 
 1082000    295.15949    37.845078   -23117.536   -24971.305    1853.7689    1.1610133    30.985945    30.985945    30.985945    29750.497 
 1083000    294.67761   -2189.6318   -23126.682   -24977.424    1850.7424    1.1610133    30.985945    30.985945    30.985945    29750.497 
 1084000    296.65472   -1105.3646   -23137.893   -25001.052    1863.1598    1.1610133    30.985945    30.985945    30.985945    29750.497 
 1085000    302.31721   -1615.3364    -23046.25   -24944.974    1898.7234    1.1610133    30.985945    30.985945    30.985945    29750.497 
 1086000    293.71326   -1924.8683   -23087.273   -24931.958    1844.6858    1.1610133    30.985945    30.985945    30.985945    29750.497 
 1087000    294.53116   -1141.2326   -23100.546   -24950.368    1849.8226    1.1610133    30.985945    30.985945    30.985945    29750.497 
 1088000    297.36616   -879.39672    -23087.71   -24955.338     1867.628    1.1610133    30.985945    30.985945    30.985945    29750.497 
 1089000    295.92161   -1559.2301   -23062.193   -24920.749    1858.5554    1.1610133    30.985945    30.985945    30.985945    29750.497 
 1090000    304.88928   -2003.0729   -23143.157   -25058.034    1914.8775    1.1610133    30.985945    30.985945    30.985945    29750.497 
 1091000    296.56389   -1215.1585   -23019.046   -24881.636    1862.5893    1.1610133    30.985945    30.985945    30.985945    29750.497 
 1092000    299.51897   -1697.0137   -23095.199   -24976.348    1881.1489    1.1610133    30.985945    30.985945    30.985945    29750.497 
 1093000    302.92987   -1191.3934   -23036.217   -24938.788    1902.5713    1.1610133    30.985945    30.985945    30.985945    29750.497 
 1094000    302.34485   -1851.8673   -23009.478   -24908.375     1898.897    1.1610133    30.985945    30.985945    30.985945    29750.497 
 1095000    299.65449   -1550.4074   -23031.507   -24913.507    1882.0001    1.1610133    30.985945    30.985945    30.985945    29750.497 
 1096000    305.30875   -1776.7022   -23006.276   -24923.788     1917.512    1.1610133    30.985945    30.985945    30.985945    29750.497 
 1097000    293.06691   -1750.3308   -23054.523   -24895.149    1840.6263    1.1610133    30.985945    30.985945    30.985945    29750.497 
 1098000    297.98563   -1199.8191   -23146.692   -25018.211    1871.5187    1.1610133    30.985945    30.985945    30.985945    29750.497 
 1099000    292.65336    -1374.115    -23210.51   -25048.539    1838.0289    1.1610133    30.985945    30.985945    30.985945    29750.497 
 1100000     294.8827   -1674.7565    -23126.47     -24978.5    1852.0305    1.1610133    30.985945    30.985945    30.985945    29750.497 
 1101000    290.63513   -2442.4138   -23122.841   -24948.195    1825.3533    1.1610133    30.985945    30.985945    30.985945    29750.497 
 1102000    291.58669   -1610.1482   -23116.932   -24948.262    1831.3297    1.1610133    30.985945    30.985945    30.985945    29750.497 
 1103000    305.02048   -1289.0545   -22967.554   -24883.256    1915.7015    1.1610133    30.985945    30.985945    30.985945    29750.497 
 1104000    287.12939   -2354.9515   -23054.653   -24857.988    1803.3353    1.1610133    30.985945    30.985945    30.985945    29750.497 
 1105000    305.25908   -1265.6803   -22985.736   -24902.936    1917.2001    1.1610133    30.985945    30.985945    30.985945    29750.497 
 1106000    299.01459   -2262.9838   -23114.674   -24992.655    1877.9811    1.1610133    30.985945    30.985945    30.985945    29750.497 
 1107000    299.16389   -2099.8917   -23007.021    -24885.94    1878.9188    1.1610133    30.985945    30.985945    30.985945    29750.497 
 1108000    300.92058   -2361.3154   -23084.747   -24974.699    1889.9518    1.1610133    30.985945    30.985945    30.985945    29750.497 
 1109000    295.47477   -1886.0034   -23090.195   -24945.944     1855.749    1.1610133    30.985945    30.985945    30.985945    29750.497 
 1110000    312.06808   -1744.6483   -22888.337   -24848.302    1959.9644    1.1610133    30.985945    30.985945    30.985945    29750.497 
 1111000    301.31304    -1662.243   -23067.492   -24959.908    1892.4166    1.1610133    30.985945    30.985945    30.985945    29750.497 
 1112000    297.18961   -1637.4413   -23157.399   -25023.919    1866.5192    1.1610133    30.985945    30.985945    30.985945    29750.497 
 1113000    290.09698   -1994.0319   -23180.234   -25002.208    1821.9734    1.1610133    30.985945    30.985945    30.985945    29750.497 
 1114000    296.39374   -1152.0539   -23106.289   -24967.809    1861.5207    1.1610133    30.985945    30.985945    30.985945    29750.497 
 1115000     293.0803   -752.34662   -23050.978   -24891.688    1840.7104    1.1610133    30.985945    30.985945    30.985945    29750.497 
 1116000    305.59155   -2656.2173    -23034.03   -24953.318    1919.2881    1.1610133    30.985945    30.985945    30.985945    29750.497 
 1117000    295.78712    -1514.153   -23046.565   -24904.276    1857.7107    1.1610133    30.985945    30.985945    30.985945    29750.497 
 1118000    302.26768   -1589.1354    -23074.16   -24972.572    1898.4124    1.1610133    30.985945    30.985945    30.985945    29750.497 
 1119000    291.62622   -1381.0784    -23059.18   -24890.758     1831.578    1.1610133    30.985945    30.985945    30.985945    29750.497 
 1120000    293.46336   -1793.3854   -23126.724   -24969.841    1843.1162    1.1610133    30.985945    30.985945    30.985945    29750.497 
 1121000    300.09358   -633.31923   -23006.927   -24891.685    1884.7578    1.1610133    30.985945    30.985945    30.985945    29750.497 
 1122000    293.32048   -1404.6225   -23069.247   -24911.466    1842.2189    1.1610133    30.985945    30.985945    30.985945    29750.497 
 1123000    304.01834   -790.08017   -23100.989   -25010.397    1909.4075    1.1610133    30.985945    30.985945    30.985945    29750.497 
 1124000    299.93612   -1434.4615   -23113.904   -24997.673    1883.7688    1.1610133    30.985945    30.985945    30.985945    29750.497 
 1125000    303.05644   -1685.2464   -23076.459   -24979.825    1903.3662    1.1610133    30.985945    30.985945    30.985945    29750.497 
 1126000    302.95476   -1381.5242   -23008.808   -24911.535    1902.7276    1.1610133    30.985945    30.985945    30.985945    29750.497 
 1127000    298.63063   -2218.2647   -23063.542   -24939.112    1875.5696    1.1610133    30.985945    30.985945    30.985945    29750.497 
 1128000    292.36312   -1803.1285   -23075.466   -24911.672    1836.2061    1.1610133    30.985945    30.985945    30.985945    29750.497 
 1129000    306.60773   -1570.4043   -22924.024   -24849.694    1925.6703    1.1610133    30.985945    30.985945    30.985945    29750.497 
 1130000    295.45971    -1926.702   -23034.932   -24890.587    1855.6545    1.1610133    30.985945    30.985945    30.985945    29750.497 
 1131000    296.14195   -1949.2385   -23026.905   -24886.845    1859.9393    1.1610133    30.985945    30.985945    30.985945    29750.497 
 1132000    308.24052   -1405.3226   -22986.681   -24922.607    1935.9252    1.1610133    30.985945    30.985945    30.985945    29750.497 
 1133000    299.77022   -1327.6775   -23058.381   -24941.108    1882.7269    1.1610133    30.985945    30.985945    30.985945    29750.497 
 1134000    305.00071   -1786.0294   -22962.839   -24878.416    1915.5773    1.1610133    30.985945    30.985945    30.985945    29750.497 
 1135000     305.6584   -1666.6037   -22976.428   -24896.136     1919.708    1.1610133    30.985945    30.985945    30.985945    29750.497 
 1136000    300.30052   -1077.7731   -23069.002    -24955.06    1886.0575    1.1610133    30.985945    30.985945    30.985945    29750.497 
 1137000    302.44003   -2723.6545   -22964.466   -24863.961    1899.4948    1.1610133    30.985945    30.985945    30.985945    29750.497 
 1138000     296.6269   -1529.3404     -23020.7   -24883.685     1862.985    1.1610133    30.985945    30.985945    30.985945    29750.497 
 1139000    296.84871   -1299.9054   -23086.901    -24951.28    1864.3782    1.1610133    30.985945    30.985945    30.985945    29750.497 
 1140000    297.78294   -2719.4221   -23077.646   -24947.891    1870.2457    1.1610133    30.985945    30.985945    30.985945    29750.497 
 1141000    297.00071   -1721.4976   -23114.371   -24979.704    1865.3328    1.1610133    30.985945    30.985945    30.985945    29750.497 
 1142000    293.75973   -2637.0494   -23119.456   -24964.433    1844.9776    1.1610133    30.985945    30.985945    30.985945    29750.497 
 1143000    300.85024   -821.58882    -23084.55    -24974.06      1889.51    1.1610133    30.985945    30.985945    30.985945    29750.497 
 1144000    293.13973   -1318.0729   -23086.498   -24927.582    1841.0837    1.1610133    30.985945    30.985945    30.985945    29750.497 
 1145000    293.30146   -37.982335   -23103.347   -24945.446    1842.0994    1.1610133    30.985945    30.985945    30.985945    29750.497 
 1146000    301.53212   -1249.6851   -23040.762   -24934.555    1893.7926    1.1610133    30.985945    30.985945    30.985945    29750.497 
 1147000    298.69277   -1996.5095   -23061.738   -24937.698    1875.9599    1.1610133    30.985945    30.985945    30.985945    29750.497 
 1148000    295.68496   -1939.5035    -23096.46   -24953.529    1857.0691    1.1610133    30.985945    30.985945    30.985945    29750.497 
 1149000    298.27867   -1329.3044   -23008.595   -24881.954    1873.3591    1.1610133    30.985945    30.985945    30.985945    29750.497 
 1150000    294.94185   -1753.3585   -23026.405   -24878.807     1852.402    1.1610133    30.985945    30.985945    30.985945    29750.497 
 1151000    299.07204   -1997.0197   -22987.298    -24865.64    1878.3419    1.1610133    30.985945    30.985945    30.985945    29750.497 
 1152000     300.5878   -1530.9483   -23007.087   -24894.948    1887.8618    1.1610133    30.985945    30.985945    30.985945    29750.497 
 1153000    299.39191   -1693.2636   -23051.457   -24931.808    1880.3509    1.1610133    30.985945    30.985945    30.985945    29750.497 
 1154000    300.67836   -2274.0231   -22995.267   -24883.697    1888.4305    1.1610133    30.985945    30.985945    30.985945    29750.497 
 1155000    307.73629   -1313.3408   -22980.206   -24912.965    1932.7583    1.1610133    30.985945    30.985945    30.985945    29750.497 
 1156000    299.54741   -1579.0358   -23034.616   -24915.943    1881.3275    1.1610133    30.985945    30.985945    30.985945    29750.497 
 1157000    300.51098   -1042.8988   -22983.415   -24870.794    1887.3793    1.1610133    30.985945    30.985945    30.985945    29750.497 
 1158000    310.72134   -1744.2874   -22971.188   -24922.694    1951.5061    1.1610133    30.985945    30.985945    30.985945    29750.497 
 1159000    302.74641   -1755.2994   -22987.357   -24888.776     1901.419    1.1610133    30.985945    30.985945    30.985945    29750.497 
 1160000    286.68678   -2286.1765    -23151.04   -24951.595    1800.5555    1.1610133    30.985945    30.985945    30.985945    29750.497 
 1161000    304.05623   -1810.6873   -23068.528   -24978.173    1909.6455    1.1610133    30.985945    30.985945    30.985945    29750.497 
 1162000    303.50618    -2412.105   -22997.647   -24903.838    1906.1908    1.1610133    30.985945    30.985945    30.985945    29750.497 
 1163000    295.71929   -1395.1902   -23180.188   -25037.473    1857.2847    1.1610133    30.985945    30.985945    30.985945    29750.497 
 1164000    301.10189   -1997.9775   -23038.918   -24930.009    1891.0905    1.1610133    30.985945    30.985945    30.985945    29750.497 
 1165000    305.76347   -1441.8072    -23039.48   -24959.848    1920.3679    1.1610133    30.985945    30.985945    30.985945    29750.497 
 1166000    295.08854   -1609.3217   -23127.481   -24980.804    1853.3233    1.1610133    30.985945    30.985945    30.985945    29750.497 
 1167000    297.53499   -2219.1784    -23227.11   -25095.799    1868.6884    1.1610133    30.985945    30.985945    30.985945    29750.497 
 1168000    302.71815   -1289.7677    -23034.33   -24935.572    1901.2416    1.1610133    30.985945    30.985945    30.985945    29750.497 
 1169000    307.63847   -894.63601   -23060.131   -24992.275     1932.144    1.1610133    30.985945    30.985945    30.985945    29750.497 
 1170000    305.57022   -1181.6944    -23021.88   -24941.034    1919.1542    1.1610133    30.985945    30.985945    30.985945    29750.497 
 1171000    293.45747   -917.55539   -23052.907   -24895.987    1843.0793    1.1610133    30.985945    30.985945    30.985945    29750.497 
 1172000    289.52531   -1873.0224   -23120.265   -24938.648     1818.383    1.1610133    30.985945    30.985945    30.985945    29750.497 
 1173000    296.93098   -1424.7007   -22975.929   -24840.824    1864.8948    1.1610133    30.985945    30.985945    30.985945    29750.497 
 1174000    301.60213   -2246.7677   -23022.021   -24916.253    1894.2323    1.1610133    30.985945    30.985945    30.985945    29750.497 
 1175000     296.5353   -43.018513   -23077.271   -24939.681    1862.4097    1.1610133    30.985945    30.985945    30.985945    29750.497 
 1176000    295.23026   -1159.0728   -23100.755   -24954.968    1854.2134    1.1610133    30.985945    30.985945    30.985945    29750.497 
 1177000    297.23063   -1335.8426    -23026.16   -24892.937    1866.7768    1.1610133    30.985945    30.985945    30.985945    29750.497 
 1178000    301.09642   -1719.3094   -23013.651   -24904.707    1891.0562    1.1610133    30.985945    30.985945    30.985945    29750.497 
 1179000    299.44056   -1850.9018   -23061.191   -24941.847    1880.6564    1.1610133    30.985945    30.985945    30.985945    29750.497 
 1180000    299.73456   -1839.6913   -23043.913   -24926.416    1882.5029    1.1610133    30.985945    30.985945    30.985945    29750.497 
 1181000     303.4094   -1410.4895   -22995.164   -24900.747     1905.583    1.1610133    30.985945    30.985945    30.985945    29750.497 
 1182000    299.26229   -472.56634   -22876.602   -24756.139    1879.5368    1.1610133    30.985945    30.985945    30.985945    29750.497 
 1183000    302.89623   -1697.2659   -23011.042   -24913.402      1902.36    1.1610133    30.985945    30.985945    30.985945    29750.497 
 1184000    302.97947   -1191.5971   -22945.614   -24848.496    1902.8828    1.1610133    30.985945    30.985945    30.985945    29750.497 
 1185000    305.03006   -1195.7369   -22977.663   -24893.424    1915.7617    1.1610133    30.985945    30.985945    30.985945    29750.497 
 1186000     306.5394   -1461.9734   -22916.184   -24841.425    1925.2412    1.1610133    30.985945    30.985945    30.985945    29750.497 
 1187000    299.52581   -1835.2553   -22997.354   -24878.545    1881.1918    1.1610133    30.985945    30.985945    30.985945    29750.497 
 1188000    300.80827   -1415.6255   -23029.765   -24919.011    1889.2464    1.1610133    30.985945    30.985945    30.985945    29750.497 
 1189000    292.45081   -2343.8251   -22930.515   -24767.272    1836.7568    1.1610133    30.985945    30.985945    30.985945    29750.497 
 1190000    286.63119    -2068.607   -23142.339   -24942.545    1800.2063    1.1610133    30.985945    30.985945    30.985945    29750.497 
 1191000    286.98044    -1896.624   -23121.049   -24923.449    1802.3998    1.1610133    30.985945    30.985945    30.985945    29750.497 
 1192000    301.91795   -1703.6956   -23090.437   -24986.653    1896.2158    1.1610133    30.985945    30.985945    30.985945    29750.497 
 1193000    292.34784   -1935.2019   -23119.966   -24956.076    1836.1101    1.1610133    30.985945    30.985945    30.985945    29750.497 
 1194000    301.72616   -923.15351   -23076.049    -24971.06    1895.0113    1.1610133    30.985945    30.985945    30.985945    29750.497 
 1195000    295.64388   -1917.8922   -23083.067   -24939.878    1856.8111    1.1610133    30.985945    30.985945    30.985945    29750.497 
 1196000    303.83373   -1169.1075   -22938.485   -24846.733     1908.248    1.1610133    30.985945    30.985945    30.985945    29750.497 
 1197000     301.2324   -1756.3075   -23007.317   -24899.227    1891.9102    1.1610133    30.985945    30.985945    30.985945    29750.497 
 1198000    297.26587   -1396.6093   -23076.723   -24943.721    1866.9982    1.1610133    30.985945    30.985945    30.985945    29750.497 
 1199000    312.14907    -2243.192   -22935.592   -24896.065    1960.4731    1.1610133    30.985945    30.985945    30.985945    29750.497 
 1200000      297.895   -1146.1233   -23049.677   -24920.626    1870.9494    1.1610133    30.985945    30.985945    30.985945    29750.497 
 1201000    299.95741   -1993.1062   -23057.166   -24941.068    1883.9025    1.1610133    30.985945    30.985945    30.985945    29750.497 
 1202000    291.50359   -718.45977    -23087.83   -24918.638    1830.8077    1.1610133    30.985945    30.985945    30.985945    29750.497 
 1203000    296.60692   -1796.5122   -23080.684   -24943.544    1862.8596    1.1610133    30.985945    30.985945    30.985945    29750.497 
 1204000    293.92547   -1240.9807   -23044.617   -24890.636    1846.0186    1.1610133    30.985945    30.985945    30.985945    29750.497 
 1205000    298.99455   -1592.4142   -23007.687   -24885.543    1877.8553    1.1610133    30.985945    30.985945    30.985945    29750.497 
 1206000    297.63462   -480.70671   -22950.236    -24819.55    1869.3141    1.1610133    30.985945    30.985945    30.985945    29750.497 
 1207000    305.80115   -1654.7019   -23052.933   -24973.538    1920.6045    1.1610133    30.985945    30.985945    30.985945    29750.497 
 1208000    297.85241   -1243.9235   -23117.657   -24988.339     1870.682    1.1610133    30.985945    30.985945    30.985945    29750.497 
 1209000     292.3948   -1936.8098   -23141.809   -24978.214    1836.4051    1.1610133    30.985945    30.985945    30.985945    29750.497 
 1210000    290.67465   -1835.8421   -23168.868    -24994.47    1825.6016    1.1610133    30.985945    30.985945    30.985945    29750.497 
 1211000    293.19368   -656.80317   -23120.919   -24962.341    1841.4225    1.1610133    30.985945    30.985945    30.985945    29750.497 
 1212000    289.22168   -874.22142   -23100.481   -24916.957    1816.4761    1.1610133    30.985945    30.985945    30.985945    29750.497 
 1213000    302.73807   -1100.9521   -23052.114    -24953.48    1901.3667    1.1610133    30.985945    30.985945    30.985945    29750.497 
 1214000    302.48577   -1490.2704   -23116.808    -25016.59    1899.7821    1.1610133    30.985945    30.985945    30.985945    29750.497 
 1215000    295.02637   -2395.6722   -23135.205   -24988.138    1852.9328    1.1610133    30.985945    30.985945    30.985945    29750.497 
 1216000    302.29284   -1620.6821   -23089.661   -24988.231    1898.5704    1.1610133    30.985945    30.985945    30.985945    29750.497 
 1217000    294.09037   -1253.6668   -23114.717   -24961.771    1847.0542    1.1610133    30.985945    30.985945    30.985945    29750.497 
 1218000    291.63705    -2327.652   -23102.752   -24934.398     1831.646    1.1610133    30.985945    30.985945    30.985945    29750.497 
 1219000     300.3958   -1619.8938   -23072.482   -24959.138    1886.6559    1.1610133    30.985945    30.985945    30.985945    29750.497 
 1220000    296.91135   -1881.5312    -23047.59   -24912.362    1864.7716    1.1610133    30.985945    30.985945    30.985945    29750.497 
 1221000    300.48867     -1206.76   -23060.459   -24947.698    1887.2392    1.1610133    30.985945    30.985945    30.985945    29750.497 
 1222000    295.65246   -2279.0588   -23102.644   -24959.509     1856.865    1.1610133    30.985945    30.985945    30.985945    29750.497 
 1223000    306.43805   -1751.2756   -23013.298   -24937.903    1924.6047    1.1610133    30.985945    30.985945    30.985945    29750.497 
 1224000    290.73785   -1374.0398   -23186.536   -25012.534    1825.9985    1.1610133    30.985945    30.985945    30.985945    29750.497 
 1225000    292.52347   -1380.0437   -23057.913   -24895.126    1837.2132    1.1610133    30.985945    30.985945    30.985945    29750.497 
 1226000    290.93555   -2654.1898   -23078.505   -24905.745    1827.2402    1.1610133    30.985945    30.985945    30.985945    29750.497 
 1227000    296.80379   -1440.9625   -23110.755   -24974.851     1864.096    1.1610133    30.985945    30.985945    30.985945    29750.497 
 1228000    294.07575   -1225.0042   -23162.505   -25009.467    1846.9624    1.1610133    30.985945    30.985945    30.985945    29750.497 
 1229000     296.6801   -1651.0528   -23185.209   -25048.528    1863.3192    1.1610133    30.985945    30.985945    30.985945    29750.497 
 1230000    301.86339   -2142.5088   -22934.356   -24830.229    1895.8732    1.1610133    30.985945    30.985945    30.985945    29750.497 
 1231000    295.25152   -2184.5141   -23040.921   -24895.268    1854.3469    1.1610133    30.985945    30.985945    30.985945    29750.497 
 1232000     298.1487   -2079.6612   -23080.696   -24953.239    1872.5428    1.1610133    30.985945    30.985945    30.985945    29750.497 
 1233000    298.52923   -1432.0288   -23053.484   -24928.417    1874.9328    1.1610133    30.985945    30.985945    30.985945    29750.497 
 1234000    307.79866   -1072.7125   -23053.578   -24986.729    1933.1501    1.1610133    30.985945    30.985945    30.985945    29750.497 
 1235000    296.39093    -914.4028   -23075.727    -24937.23     1861.503    1.1610133    30.985945    30.985945    30.985945    29750.497 
 1236000    298.59088   -1757.6002   -23084.445   -24959.765    1875.3199    1.1610133    30.985945    30.985945    30.985945    29750.497 
 1237000    295.83716   -1106.1279   -23142.416   -25000.441     1858.025    1.1610133    30.985945    30.985945    30.985945    29750.497 
 1238000    296.69053    -2402.837   -23136.017   -24999.402    1863.3847    1.1610133    30.985945    30.985945    30.985945    29750.497 
 1239000    309.95765   -2956.9808   -22929.444   -24876.154    1946.7097    1.1610133    30.985945    30.985945    30.985945    29750.497 
 1240000    298.80027   -1715.2797    -23019.49   -24896.126    1876.6351    1.1610133    30.985945    30.985945    30.985945    29750.497 
 1241000    291.46883   -2987.1689   -23090.644   -24921.233    1830.5894    1.1610133    30.985945    30.985945    30.985945    29750.497 
 1242000    302.72401   -2352.5179   -22916.693   -24817.971    1901.2784    1.1610133    30.985945    30.985945    30.985945    29750.497 
 1243000    292.91426   -1288.0977   -23114.782    -24954.45    1839.6676    1.1610133    30.985945    30.985945    30.985945    29750.497 
 1244000     300.9596   -1949.1191   -23075.164    -24965.36    1890.1969    1.1610133    30.985945    30.985945    30.985945    29750.497 
 1245000    291.54493    -1895.586    -23075.58   -24906.648    1831.0674    1.1610133    30.985945    30.985945    30.985945    29750.497 
 1246000    287.42724   -1930.0945   -23154.626   -24959.832     1805.206    1.1610133    30.985945    30.985945    30.985945    29750.497 
 1247000      305.091   -2907.1964   -22965.295   -24881.439    1916.1444    1.1610133    30.985945    30.985945    30.985945    29750.497 
 1248000    299.68472   -1661.6913   -23002.253   -24884.443    1882.1899    1.1610133    30.985945    30.985945    30.985945    29750.497 
 1249000    304.21784   -1370.2419    -23014.58   -24925.241    1910.6605    1.1610133    30.985945    30.985945    30.985945    29750.497 
 1250000    296.20302   -1889.4489   -23101.901   -24962.224    1860.3229    1.1610133    30.985945    30.985945    30.985945    29750.497 
 1251000    294.48433   -1691.1975    -23162.01   -25011.539    1849.5285    1.1610133    30.985945    30.985945    30.985945    29750.497 
 1252000    301.04208   -1723.3685   -23082.122   -24972.837    1890.7149    1.1610133    30.985945    30.985945    30.985945    29750.497 
 1253000    303.96185   -2263.6369   -23086.894   -24995.947    1909.0527    1.1610133    30.985945    30.985945    30.985945    29750.497 
 1254000    298.71933   -2581.4955   -23046.952   -24923.079    1876.1267    1.1610133    30.985945    30.985945    30.985945    29750.497 
 1255000    298.32911   -1478.2575   -23095.137   -24968.813    1873.6759    1.1610133    30.985945    30.985945    30.985945    29750.497 
 1256000    307.61455   -1353.2669   -23122.049   -25054.042    1931.9937    1.1610133    30.985945    30.985945    30.985945    29750.497 
 1257000     298.1659   -1141.3609   -23092.415   -24965.066    1872.6508    1.1610133    30.985945    30.985945    30.985945    29750.497 
 1258000    285.87811   -1725.7217   -23121.343    -24916.82    1795.4766    1.1610133    30.985945    30.985945    30.985945    29750.497 
 1259000    292.25802    -1664.278   -23131.036   -24966.582     1835.546    1.1610133    30.985945    30.985945    30.985945    29750.497 
 1260000    298.08144   -447.88075   -23009.841   -24881.961    1872.1204    1.1610133    30.985945    30.985945    30.985945    29750.497 
 1261000    305.13368   -932.80054   -23040.956   -24957.369    1916.4124    1.1610133    30.985945    30.985945    30.985945    29750.497 
 1262000    286.51516   -1348.9181   -23105.591   -24905.069    1799.4776    1.1610133    30.985945    30.985945    30.985945    29750.497 
 1263000    305.06566   -1124.9355   -22914.389   -24830.375    1915.9852    1.1610133    30.985945    30.985945    30.985945    29750.497 
 1264000    294.07018   -1631.4047   -23103.549   -24950.476    1846.9274    1.1610133    30.985945    30.985945    30.985945    29750.497 
 1265000     304.0578   -1508.0086   -23002.428   -24912.083    1909.6553    1.1610133    30.985945    30.985945    30.985945    29750.497 
 1266000    305.04253   -818.84845   -23018.462   -24934.302      1915.84    1.1610133    30.985945    30.985945    30.985945    29750.497 
 1267000     302.6059   -2509.0811   -23015.606   -24916.143    1900.5365    1.1610133    30.985945    30.985945    30.985945    29750.497 
 1268000    294.12778   -1748.8559   -23036.967   -24884.256    1847.2892    1.1610133    30.985945    30.985945    30.985945    29750.497 
 1269000    296.10493   -958.53206   -23077.688   -24937.394    1859.7068    1.1610133    30.985945    30.985945    30.985945    29750.497 
 1270000     298.5341    -2209.239   -23150.826    -25025.79    1874.9633    1.1610133    30.985945    30.985945    30.985945    29750.497 
 1271000    293.09869   -1771.0744   -23151.653   -24992.479    1840.8259    1.1610133    30.985945    30.985945    30.985945    29750.497 
 1272000    302.09967   -2120.0458   -22998.737   -24896.094    1897.3571    1.1610133    30.985945    30.985945    30.985945    29750.497 
 1273000    305.69187   -2130.0429   -22988.626   -24908.544    1919.9182    1.1610133    30.985945    30.985945    30.985945    29750.497 
 1274000    290.14484   -1107.4497   -23131.429   -24953.703     1822.274    1.1610133    30.985945    30.985945    30.985945    29750.497 
 1275000    293.29186   -1337.8857   -23123.055   -24965.094    1842.0391    1.1610133    30.985945    30.985945    30.985945    29750.497 
 1276000     288.5704   -1339.9248   -23198.264   -25010.649    1812.3857    1.1610133    30.985945    30.985945    30.985945    29750.497 
 1277000    303.18651   -1754.0099   -23040.536   -24944.719    1904.1831    1.1610133    30.985945    30.985945    30.985945    29750.497 
 1278000    302.75501    -2567.971   -23050.003   -24951.476     1901.473    1.1610133    30.985945    30.985945    30.985945    29750.497 
 1279000    299.11036   -1782.9369   -23187.879   -25066.462    1878.5826    1.1610133    30.985945    30.985945    30.985945    29750.497 
 1280000    298.01796   -2840.5967   -23117.116   -24988.838    1871.7217    1.1610133    30.985945    30.985945    30.985945    29750.497 
 1281000     298.1314   -1765.6415   -22964.529   -24836.963    1872.4342    1.1610133    30.985945    30.985945    30.985945    29750.497 
 1282000    297.76962   -2105.3732   -23050.549   -24920.711     1870.162    1.1610133    30.985945    30.985945    30.985945    29750.497 
 1283000    297.88032   -2256.5616   -22994.642     -24865.5    1870.8573    1.1610133    30.985945    30.985945    30.985945    29750.497 
 1284000    296.62734   -1131.2608   -22994.317   -24857.304    1862.9878    1.1610133    30.985945    30.985945    30.985945    29750.497 
 1285000    295.03061   -2477.2288   -23135.345   -24988.304    1852.9595    1.1610133    30.985945    30.985945    30.985945    29750.497 
 1286000    290.07629   -2126.6469   -23156.837    -24978.68    1821.8435    1.1610133    30.985945    30.985945    30.985945    29750.497 
 1287000    298.06495   -1458.3028   -22967.581   -24839.598    1872.0168    1.1610133    30.985945    30.985945    30.985945    29750.497 
 1288000    305.12194   -515.32962   -23010.145   -24926.484    1916.3387    1.1610133    30.985945    30.985945    30.985945    29750.497 
 1289000    302.43545   -2494.8065   -23097.765   -24997.231     1899.466    1.1610133    30.985945    30.985945    30.985945    29750.497 
 1290000    295.76623   -2182.5105   -23029.235   -24886.815    1857.5795    1.1610133    30.985945    30.985945    30.985945    29750.497 
 1291000    290.03142   -1044.2653   -23072.243   -24893.805    1821.5617    1.1610133    30.985945    30.985945    30.985945    29750.497 
 1292000    298.91794   -2154.6828   -23045.749   -24923.123    1877.3741    1.1610133    30.985945    30.985945    30.985945    29750.497 
 1293000    305.54625   -748.35176   -22965.369   -24884.372    1919.0036    1.1610133    30.985945    30.985945    30.985945    29750.497 
 1294000    289.04878   -1147.6575   -23114.019   -24929.409    1815.3902    1.1610133    30.985945    30.985945    30.985945    29750.497 
 1295000    294.79682   -1574.4079   -23038.221   -24889.712    1851.4911    1.1610133    30.985945    30.985945    30.985945    29750.497 
 1296000    293.79427   -676.15338   -23113.926    -24959.12    1845.1945    1.1610133    30.985945    30.985945    30.985945    29750.497 
 1297000     291.6592   -1548.7014   -23035.634   -24867.419    1831.7851    1.1610133    30.985945    30.985945    30.985945    29750.497 
 1298000    299.71201   -1690.9425   -23109.586   -24991.947    1882.3613    1.1610133    30.985945    30.985945    30.985945    29750.497 
 1299000    298.32284   -708.65298   -23029.226   -24902.862    1873.6365    1.1610133    30.985945    30.985945    30.985945    29750.497 
 1300000    308.69621   -1206.6152   -22960.224   -24899.011    1938.7871    1.1610133    30.985945    30.985945    30.985945    29750.497 
 1301000    298.10079   -638.56056   -22996.909    -24869.15    1872.2419    1.1610133    30.985945    30.985945    30.985945    29750.497 
 1302000    296.50454   -2514.3581   -23037.813    -24900.03    1862.2166    1.1610133    30.985945    30.985945    30.985945    29750.497 
 1303000    301.26056   -675.89746   -23039.959   -24932.046     1892.087    1.1610133    30.985945    30.985945    30.985945    29750.497 
 1304000    300.98421   -1539.1074   -23068.933   -24959.284    1890.3514    1.1610133    30.985945    30.985945    30.985945    29750.497 
 1305000    295.36014   -2339.2681   -23075.927   -24930.956    1855.0291    1.1610133    30.985945    30.985945    30.985945    29750.497 
 1306000    303.90651   -2352.5587   -23093.864   -25002.569    1908.7051    1.1610133    30.985945    30.985945    30.985945    29750.497 
 1307000    302.66644   -1306.9591   -22960.173    -24861.09    1900.9168    1.1610133    30.985945    30.985945    30.985945    29750.497 
 1308000    299.49498   -2181.9177   -23120.159   -25001.157    1880.9982    1.1610133    30.985945    30.985945    30.985945    29750.497 
 1309000    297.83706   -826.02179   -23152.603   -25023.188    1870.5856    1.1610133    30.985945    30.985945    30.985945    29750.497 
 1310000    307.39257   -1065.5255   -23008.692   -24939.292    1930.5996    1.1610133    30.985945    30.985945    30.985945    29750.497 
 1311000    297.02555   -1656.4702   -23142.549   -25008.038    1865.4888    1.1610133    30.985945    30.985945    30.985945    29750.497 
 1312000     299.4532   -1813.9728    -23065.67   -24946.406    1880.7358    1.1610133    30.985945    30.985945    30.985945    29750.497 
 1313000    296.71858   -2030.8035   -22942.159    -24805.72    1863.5608    1.1610133    30.985945    30.985945    30.985945    29750.497 
 1314000    301.03978   -1902.1399   -23016.225   -24906.925    1890.7004    1.1610133    30.985945    30.985945    30.985945    29750.497 
 1315000    292.16235   -1992.0383   -23036.956   -24871.901    1834.9451    1.1610133    30.985945    30.985945    30.985945    29750.497 
 1316000    296.74375   -1645.5852    -23046.08   -24909.799    1863.7189    1.1610133    30.985945    30.985945    30.985945    29750.497 
 1317000    307.76843   -1798.5694   -22893.627   -24826.587    1932.9602    1.1610133    30.985945    30.985945    30.985945    29750.497 
 1318000    302.35515   -1767.5141   -23037.966   -24936.928    1898.9617    1.1610133    30.985945    30.985945    30.985945    29750.497 
 1319000    305.66447   -1890.1876   -22964.495   -24884.241    1919.7461    1.1610133    30.985945    30.985945    30.985945    29750.497 
 1320000    299.93696   -1423.0512   -23005.906   -24889.681    1883.7741    1.1610133    30.985945    30.985945    30.985945    29750.497 
 1321000    304.86249   -1563.2065   -22973.126   -24887.835    1914.7092    1.1610133    30.985945    30.985945    30.985945    29750.497 
 1322000    301.05579   -1339.6588   -23022.356   -24913.157     1890.801    1.1610133    30.985945    30.985945    30.985945    29750.497 
 1323000    309.97034   -942.46924   -23016.538   -24963.327    1946.7894    1.1610133    30.985945    30.985945    30.985945    29750.497 
 1324000    295.33508    -1795.996   -22934.288    -24789.16    1854.8717    1.1610133    30.985945    30.985945    30.985945    29750.497 
 1325000    317.84953   -1586.5998   -22906.233   -24902.509    1996.2752    1.1610133    30.985945    30.985945    30.985945    29750.497 
 1326000    296.05531   -1176.0636   -23078.642   -24938.037    1859.3952    1.1610133    30.985945    30.985945    30.985945    29750.497 
 1327000    302.17435   -2127.5374    -23132.56   -25030.386    1897.8262    1.1610133    30.985945    30.985945    30.985945    29750.497 
 1328000    295.56486   -1930.8717   -23023.283   -24879.598    1856.3149    1.1610133    30.985945    30.985945    30.985945    29750.497 
 1329000    296.41155   -1600.9008   -23099.065   -24960.698    1861.6325    1.1610133    30.985945    30.985945    30.985945    29750.497 
 1330000    299.20775   -1518.3998   -23109.579   -24988.773    1879.1942    1.1610133    30.985945    30.985945    30.985945    29750.497 
 1331000    301.13965   -1618.7922   -23069.662   -24960.989    1891.3277    1.1610133    30.985945    30.985945    30.985945    29750.497 
 1332000    297.84368   -1074.9585   -23106.647   -24977.274    1870.6271    1.1610133    30.985945    30.985945    30.985945    29750.497 
 1333000    292.11709   -1379.6159   -23237.993   -25072.654    1834.6609    1.1610133    30.985945    30.985945    30.985945    29750.497 
 1334000    302.73539   -1403.7741   -23003.267   -24904.617    1901.3498    1.1610133    30.985945    30.985945    30.985945    29750.497 
 1335000    298.26862   -2672.3872     -23121.3   -24994.596     1873.296    1.1610133    30.985945    30.985945    30.985945    29750.497 
 1336000    298.38928   -2248.2405   -23093.407   -24967.461    1874.0538    1.1610133    30.985945    30.985945    30.985945    29750.497 
 1337000    292.69278   -1345.4286   -23072.803    -24911.08    1838.2765    1.1610133    30.985945    30.985945    30.985945    29750.497 
 1338000    296.81837   -937.94712   -22991.405   -24855.592    1864.1876    1.1610133    30.985945    30.985945    30.985945    29750.497 
 1339000    307.06558   -1481.7338   -23015.936   -24944.482    1928.5458    1.1610133    30.985945    30.985945    30.985945    29750.497 
 1340000    302.97655   -1502.6664   -22981.433   -24884.298    1902.8644    1.1610133    30.985945    30.985945    30.985945    29750.497 
 1341000    289.63701   -1296.2608   -22979.394   -24798.478    1819.0846    1.1610133    30.985945    30.985945    30.985945    29750.497 
 1342000    300.37674   -1147.4456   -23061.206   -24947.742    1886.5362    1.1610133    30.985945    30.985945    30.985945    29750.497 
 1343000    288.31208   -1851.7259   -23108.634   -24919.398    1810.7633    1.1610133    30.985945    30.985945    30.985945    29750.497 
 1344000     292.3832   -920.42975   -23131.034   -24967.366    1836.3322    1.1610133    30.985945    30.985945    30.985945    29750.497 
 1345000     296.3337   -1777.9205   -23109.055   -24970.198    1861.1436    1.1610133    30.985945    30.985945    30.985945    29750.497 
 1346000    289.12822   -2106.1262   -23110.532   -24926.422    1815.8891    1.1610133    30.985945    30.985945    30.985945    29750.497 
 1347000    304.14274   -2714.7674   -23086.121    -24996.31    1910.1888    1.1610133    30.985945    30.985945    30.985945    29750.497 
 1348000    299.90607   -3292.3284   -23058.901   -24942.481    1883.5801    1.1610133    30.985945    30.985945    30.985945    29750.497 
 1349000    295.86998   -770.24042   -23077.579    -24935.81    1858.2312    1.1610133    30.985945    30.985945    30.985945    29750.497 
 1350000     294.8391   -839.91295   -23032.009   -24883.766    1851.7567    1.1610133    30.985945    30.985945    30.985945    29750.497 
 1351000    294.29298   -1292.5044   -23091.289   -24939.616    1848.3267    1.1610133    30.985945    30.985945    30.985945    29750.497 
 1352000    290.10154   -2037.2508   -23140.023   -24962.025    1822.0021    1.1610133    30.985945    30.985945    30.985945    29750.497 
 1353000     302.7729    -1974.798   -23044.462   -24946.047    1901.5854    1.1610133    30.985945    30.985945    30.985945    29750.497 
 1354000    300.58329   -1519.3405   -22973.929   -24861.763    1887.8335    1.1610133    30.985945    30.985945    30.985945    29750.497 
 1355000    302.22584   -1956.6248   -23022.057   -24920.207    1898.1496    1.1610133    30.985945    30.985945    30.985945    29750.497 
 1356000    298.43202   -999.11461   -23118.407   -24992.729    1874.3222    1.1610133    30.985945    30.985945    30.985945    29750.497 
 1357000     301.3891   -2157.1079   -23083.466    -24976.36    1892.8944    1.1610133    30.985945    30.985945    30.985945    29750.497 
 1358000    299.80534   -1822.4811   -23026.701   -24909.648    1882.9475    1.1610133    30.985945    30.985945    30.985945    29750.497 
 1359000    303.30201   -940.52982   -22964.091       -24869    1904.9085    1.1610133    30.985945    30.985945    30.985945    29750.497 
 1360000    305.97922   -1389.4038   -22932.475   -24854.198    1921.7229    1.1610133    30.985945    30.985945    30.985945    29750.497 
 1361000    291.01889   -1313.7676   -23098.356    -24926.12    1827.7635    1.1610133    30.985945    30.985945    30.985945    29750.497 
 1362000    298.99405   -1725.1264   -23105.845   -24983.697    1877.8521    1.1610133    30.985945    30.985945    30.985945    29750.497 
 1363000    296.27777   -1662.8158    -23061.64   -24922.432    1860.7923    1.1610133    30.985945    30.985945    30.985945    29750.497 
 1364000    296.72145   -2110.7828   -23119.863   -24983.442    1863.5789    1.1610133    30.985945    30.985945    30.985945    29750.497 
 1365000    297.45977   -1059.5762    -23023.53   -24891.746    1868.2159    1.1610133    30.985945    30.985945    30.985945    29750.497 
 1366000    306.48575   -619.89092    -22970.59   -24895.494    1924.9042    1.1610133    30.985945    30.985945    30.985945    29750.497 
 1367000    302.70609    -1362.068   -22912.176   -24813.342    1901.1658    1.1610133    30.985945    30.985945    30.985945    29750.497 
 1368000    301.53386   -1308.6984   -23068.117   -24961.921    1893.8036    1.1610133    30.985945    30.985945    30.985945    29750.497 
 1369000    297.01628   -976.65844   -23081.292   -24946.723    1865.4306    1.1610133    30.985945    30.985945    30.985945    29750.497 
 1370000    300.13122   -1107.4548    -22980.58   -24865.574    1884.9942    1.1610133    30.985945    30.985945    30.985945    29750.497 
 1371000      304.649   -1460.5316   -22946.495   -24859.863    1913.3684    1.1610133    30.985945    30.985945    30.985945    29750.497 
 1372000    298.95062   -2044.3865   -22990.481    -24868.06    1877.5793    1.1610133    30.985945    30.985945    30.985945    29750.497 
 1373000    300.60125   -1977.0518   -23043.291   -24931.238    1887.9462    1.1610133    30.985945    30.985945    30.985945    29750.497 
 1374000    296.94008   -1473.8877    -23107.59   -24972.542     1864.952    1.1610133    30.985945    30.985945    30.985945    29750.497 
 1375000    302.74876   -921.44804   -23086.317   -24987.751    1901.4338    1.1610133    30.985945    30.985945    30.985945    29750.497 
 1376000    311.27163    -1200.879   -22965.004   -24919.966    1954.9623    1.1610133    30.985945    30.985945    30.985945    29750.497 
 1377000    296.05051   -1153.4302   -23084.551   -24943.916     1859.365    1.1610133    30.985945    30.985945    30.985945    29750.497 
 1378000    298.69443   -1132.0979   -23141.039    -25017.01    1875.9703    1.1610133    30.985945    30.985945    30.985945    29750.497 
 1379000    294.70509   -1026.2745   -23176.823   -25027.738     1850.915    1.1610133    30.985945    30.985945    30.985945    29750.497 
 1380000    289.45467   -909.44144   -23102.418   -24920.358    1817.9394    1.1610133    30.985945    30.985945    30.985945    29750.497 
 1381000    295.50166   -2438.1214   -23038.573   -24894.491    1855.9179    1.1610133    30.985945    30.985945    30.985945    29750.497 
 1382000     294.3351   -2098.5133     -23118.1   -24966.691    1848.5912    1.1610133    30.985945    30.985945    30.985945    29750.497 
 1383000    302.10147   -1973.7843   -23073.329   -24970.697    1897.3685    1.1610133    30.985945    30.985945    30.985945    29750.497 
 1384000    296.33437   -769.11328    -23065.58   -24926.728    1861.1478    1.1610133    30.985945    30.985945    30.985945    29750.497 
 1385000     299.3681   -1617.9224   -23016.284   -24896.485    1880.2013    1.1610133    30.985945    30.985945    30.985945    29750.497 
 1386000    298.87366   -1869.4792    -23046.99   -24924.086     1877.096    1.1610133    30.985945    30.985945    30.985945    29750.497 
 1387000    291.67126   -962.78616   -23227.242   -25059.103    1831.8608    1.1610133    30.985945    30.985945    30.985945    29750.497 
 1388000     298.5245   -882.52641   -23042.227    -24917.13     1874.903    1.1610133    30.985945    30.985945    30.985945    29750.497 
 1389000    299.41545   -1963.6515   -23005.353   -24885.852    1880.4987    1.1610133    30.985945    30.985945    30.985945    29750.497 
 1390000    296.29504   -2250.4904   -23074.673   -24935.574    1860.9008    1.1610133    30.985945    30.985945    30.985945    29750.497 
 1391000    300.21035    -2070.655   -23118.843   -25004.334    1885.4911    1.1610133    30.985945    30.985945    30.985945    29750.497 
 1392000    293.95093   -1269.1376   -23037.048   -24883.227    1846.1784    1.1610133    30.985945    30.985945    30.985945    29750.497 
 1393000    306.34148   -1315.1382   -23025.859   -24949.857    1923.9981    1.1610133    30.985945    30.985945    30.985945    29750.497 
 1394000    301.54154   -2697.3674   -23049.109    -24942.96    1893.8518    1.1610133    30.985945    30.985945    30.985945    29750.497 
 1395000    298.63298   -1739.9692   -23124.375    -24999.96    1875.5843    1.1610133    30.985945    30.985945    30.985945    29750.497 
 1396000    297.23017   -1892.1771   -23102.116    -24968.89    1866.7739    1.1610133    30.985945    30.985945    30.985945    29750.497 
 1397000     303.6719   -1253.4718   -23084.609   -24991.841    1907.2316    1.1610133    30.985945    30.985945    30.985945    29750.497 
 1398000    296.40178   -1426.7228    -23091.31   -24952.881    1861.5712    1.1610133    30.985945    30.985945    30.985945    29750.497 
 1399000    302.33864   -976.17682   -22995.131   -24893.989     1898.858    1.1610133    30.985945    30.985945    30.985945    29750.497 
 1400000    307.63027   -1089.1298   -22946.875   -24878.968    1932.0925    1.1610133    30.985945    30.985945    30.985945    29750.497 
 1401000    300.78557   -1626.0458   -23011.277   -24900.381    1889.1039    1.1610133    30.985945    30.985945    30.985945    29750.497 
 1402000    296.29453   -1246.8231   -23032.908   -24893.806    1860.8976    1.1610133    30.985945    30.985945    30.985945    29750.497 
 1403000    304.97699   -1774.6796   -22962.251    -24877.68    1915.4284    1.1610133    30.985945    30.985945    30.985945    29750.497 
 1404000    301.07185   -1257.3616   -22938.299     -24829.2    1890.9018    1.1610133    30.985945    30.985945    30.985945    29750.497 
 1405000    293.61476   -267.18508   -23154.201   -24998.268    1844.0671    1.1610133    30.985945    30.985945    30.985945    29750.497 
 1406000    302.46645   -1181.2154    -23071.05   -24970.711    1899.6607    1.1610133    30.985945    30.985945    30.985945    29750.497 
 1407000    294.07119   -858.30274   -23084.372   -24931.306    1846.9337    1.1610133    30.985945    30.985945    30.985945    29750.497 
 1408000    298.21561   -156.57691   -23073.329   -24946.292     1872.963    1.1610133    30.985945    30.985945    30.985945    29750.497 
 1409000    305.10426   -1969.4075   -23060.365   -24976.593    1916.2277    1.1610133    30.985945    30.985945    30.985945    29750.497 
 1410000    303.51364    -1377.511   -23077.341   -24983.578    1906.2377    1.1610133    30.985945    30.985945    30.985945    29750.497 
 1411000     296.4219   -2787.6574   -23071.743   -24933.441    1861.6975    1.1610133    30.985945    30.985945    30.985945    29750.497 
 1412000    303.29288   -2154.0013   -22929.219    -24834.07    1904.8512    1.1610133    30.985945    30.985945    30.985945    29750.497 
 1413000    306.29102   -628.97781   -22973.616   -24897.297    1923.6812    1.1610133    30.985945    30.985945    30.985945    29750.497 
 1414000    295.30521   -1609.2656   -23106.075   -24960.759    1854.6841    1.1610133    30.985945    30.985945    30.985945    29750.497 
 1415000    293.91099   -976.35267   -23111.552    -24957.48    1845.9276    1.1610133    30.985945    30.985945    30.985945    29750.497 
 1416000    297.06554   -1523.0459   -23072.251   -24937.991      1865.74    1.1610133    30.985945    30.985945    30.985945    29750.497 
 1417000    304.47509   -1138.7735   -22989.307   -24901.583    1912.2761    1.1610133    30.985945    30.985945    30.985945    29750.497 
 1418000     308.2449   -2092.5623   -22964.553   -24900.505    1935.9527    1.1610133    30.985945    30.985945    30.985945    29750.497 
 1419000    301.37947   -1540.5723   -23044.214   -24937.047    1892.8339    1.1610133    30.985945    30.985945    30.985945    29750.497 
 1420000     301.2498   -2417.9208   -23020.071   -24912.091    1892.0195    1.1610133    30.985945    30.985945    30.985945    29750.497 
 1421000    293.57875   -1371.2686   -23116.685   -24960.526     1843.841    1.1610133    30.985945    30.985945    30.985945    29750.497 
 1422000    307.83096   -2123.7278   -22993.045   -24926.398    1933.3529    1.1610133    30.985945    30.985945    30.985945    29750.497 
 1423000    300.55351   -1221.0785   -23065.555   -24953.202    1887.6464    1.1610133    30.985945    30.985945    30.985945    29750.497 
 1424000     301.3172   -1526.7472   -23098.216   -24990.658    1892.4428    1.1610133    30.985945    30.985945    30.985945    29750.497 
 1425000    292.25269   -1189.4366   -23099.333   -24934.845    1835.5126    1.1610133    30.985945    30.985945    30.985945    29750.497 
 1426000    295.65662   -1976.5554   -23083.634   -24940.525    1856.8911    1.1610133    30.985945    30.985945    30.985945    29750.497 
 1427000    292.20367   -1614.1393   -23129.604   -24964.809    1835.2047    1.1610133    30.985945    30.985945    30.985945    29750.497 
 1428000    307.60605    -1389.397    -22973.63   -24905.571    1931.9404    1.1610133    30.985945    30.985945    30.985945    29750.497 
 1429000    296.36527   -1466.7157   -23068.566   -24929.908    1861.3419    1.1610133    30.985945    30.985945    30.985945    29750.497 
 1430000    298.58885   -1842.2999   -23146.763   -25022.071    1875.3072    1.1610133    30.985945    30.985945    30.985945    29750.497 
 1431000    291.99828   -2467.4787   -23102.197   -24936.112    1833.9147    1.1610133    30.985945    30.985945    30.985945    29750.497 
 1432000    294.23946   -2212.4616    -23067.59   -24915.581    1847.9906    1.1610133    30.985945    30.985945    30.985945    29750.497 
 1433000    292.92448   -1674.6685   -23100.739    -24940.47    1839.7318    1.1610133    30.985945    30.985945    30.985945    29750.497 
 1434000    296.03547   -2470.9763   -23101.155   -24960.426    1859.2705    1.1610133    30.985945    30.985945    30.985945    29750.497 
 1435000    298.05056   -1676.8868   -23086.757   -24958.683    1871.9264    1.1610133    30.985945    30.985945    30.985945    29750.497 
 1436000    299.55901   -2395.6333   -23018.933   -24900.334    1881.4004    1.1610133    30.985945    30.985945    30.985945    29750.497 
 1437000    301.52225   -1410.8777   -23062.028   -24955.758    1893.7306    1.1610133    30.985945    30.985945    30.985945    29750.497 
 1438000    295.97437   -1563.3748   -23076.709   -24935.596    1858.8868    1.1610133    30.985945    30.985945    30.985945    29750.497 
 1439000    298.01688   -648.68884    -23075.09   -24946.805    1871.7149    1.1610133    30.985945    30.985945    30.985945    29750.497 
 1440000    298.48054   -1305.4989     -23047.7   -24922.327     1874.627    1.1610133    30.985945    30.985945    30.985945    29750.497 
 1441000    300.98153   -1755.8626   -23056.446   -24946.781    1890.3346    1.1610133    30.985945    30.985945    30.985945    29750.497 
 1442000    298.90581   -954.13712   -23057.916   -24935.214    1877.2979    1.1610133    30.985945    30.985945    30.985945    29750.497 
 1443000    298.39398   -1116.4393   -23112.616   -24986.699    1874.0833    1.1610133    30.985945    30.985945    30.985945    29750.497 
 1444000    303.91931   -3025.7994   -23070.995   -24979.781    1908.7855    1.1610133    30.985945    30.985945    30.985945    29750.497 
 1445000    291.72226    -1416.624   -23163.062   -24995.243    1832.1811    1.1610133    30.985945    30.985945    30.985945    29750.497 
 1446000    310.20681   -1839.8315   -22986.991   -24935.266    1948.2746    1.1610133    30.985945    30.985945    30.985945    29750.497 
 1447000    302.26653   -1550.8898   -23071.788   -24970.193    1898.4051    1.1610133    30.985945    30.985945    30.985945    29750.497 
 1448000    292.54563   -1856.0875   -23148.078   -24985.431    1837.3524    1.1610133    30.985945    30.985945    30.985945    29750.497 
 1449000    303.57392   -1951.1599   -23059.188   -24965.804    1906.6163    1.1610133    30.985945    30.985945    30.985945    29750.497 
 1450000    303.28451   -2050.7524   -23100.003   -25004.802    1904.7986    1.1610133    30.985945    30.985945    30.985945    29750.497 
 1451000    293.75362    -2176.063   -23101.994   -24946.933    1844.9392    1.1610133    30.985945    30.985945    30.985945    29750.497 
 1452000    293.56356   -2126.8163    -23074.22   -24917.965    1843.7455    1.1610133    30.985945    30.985945    30.985945    29750.497 
 1453000    297.33502   -1834.6968   -23122.001   -24989.433    1867.4325    1.1610133    30.985945    30.985945    30.985945    29750.497 
 1454000     302.9562   -2080.2124   -23052.435   -24955.171    1902.7367    1.1610133    30.985945    30.985945    30.985945    29750.497 
 1455000    290.88016   -2034.3707   -23114.723   -24941.615    1826.8923    1.1610133    30.985945    30.985945    30.985945    29750.497 
 1456000    296.11718   -2130.4377   -23174.224   -25034.008    1859.7837    1.1610133    30.985945    30.985945    30.985945    29750.497 
 1457000    292.36274   -1754.3853   -23121.747   -24957.951    1836.2037    1.1610133    30.985945    30.985945    30.985945    29750.497 
 1458000     302.6602   -2322.7929   -23029.999   -24930.877    1900.8776    1.1610133    30.985945    30.985945    30.985945    29750.497 
 1459000    292.66673   -3060.5196   -23087.327    -24925.44    1838.1129    1.1610133    30.985945    30.985945    30.985945    29750.497 
 1460000    295.64394   -2254.2874   -23105.873   -24962.684    1856.8115    1.1610133    30.985945    30.985945    30.985945    29750.497 
 1461000     301.8087   -1700.7789   -23023.225   -24918.754    1895.5297    1.1610133    30.985945    30.985945    30.985945    29750.497 
 1462000    294.51282   -2025.7009   -23080.096   -24929.803    1849.7074    1.1610133    30.985945    30.985945    30.985945    29750.497 
 1463000    299.27097   -1973.6589   -23132.936   -25012.527    1879.5913    1.1610133    30.985945    30.985945    30.985945    29750.497 
 1464000    295.87604   -2311.8869   -23213.477   -25071.746    1858.2693    1.1610133    30.985945    30.985945    30.985945    29750.497 
 1465000    299.87493   -1662.9598   -23106.604   -24989.989    1883.3845    1.1610133    30.985945    30.985945    30.985945    29750.497 
 1466000    305.28446   -2541.2198   -23115.588   -25032.948    1917.3594    1.1610133    30.985945    30.985945    30.985945    29750.497 
 1467000    305.10428    -1476.974    -23080.15   -24996.377    1916.2278    1.1610133    30.985945    30.985945    30.985945    29750.497 
 1468000    300.26805   -1939.5823   -23060.814   -24946.667    1885.8535    1.1610133    30.985945    30.985945    30.985945    29750.497 
 1469000    296.28372    -1519.379   -23161.156   -25021.986    1860.8297    1.1610133    30.985945    30.985945    30.985945    29750.497 
 1470000    298.47018   -2038.3124    -23069.23   -24943.792    1874.5619    1.1610133    30.985945    30.985945    30.985945    29750.497 
 1471000    297.14729   -1507.7657   -23061.917    -24928.17    1866.2534    1.1610133    30.985945    30.985945    30.985945    29750.497 
 1472000     296.9094   -1485.3519   -23045.985   -24910.745    1864.7593    1.1610133    30.985945    30.985945    30.985945    29750.497 
 1473000    303.91765   -463.10363    -23056.75   -24965.525    1908.7751    1.1610133    30.985945    30.985945    30.985945    29750.497 
 1474000    300.94748   -1715.3097    -23141.73   -25031.851    1890.1207    1.1610133    30.985945    30.985945    30.985945    29750.497 
 1475000    306.47627   -1447.8246   -23042.633   -24967.478    1924.8447    1.1610133    30.985945    30.985945    30.985945    29750.497 
 1476000    297.60302   -1715.7335   -23130.495   -24999.611    1869.1157    1.1610133    30.985945    30.985945    30.985945    29750.497 
 1477000     296.4042   -2445.0485   -23174.422   -25036.009    1861.5864    1.1610133    30.985945    30.985945    30.985945    29750.497 
 1478000    292.11633   -1806.3395       -23211   -25045.656    1834.6561    1.1610133    30.985945    30.985945    30.985945    29750.497 
 1479000    302.20941    -1211.103   -23061.132   -24959.178    1898.0464    1.1610133    30.985945    30.985945    30.985945    29750.497 
 1480000    294.29474   -1725.9177   -23145.959   -24994.297    1848.3378    1.1610133    30.985945    30.985945    30.985945    29750.497 
 1481000    304.97685   -1836.0413   -23006.702   -24922.129    1915.4274    1.1610133    30.985945    30.985945    30.985945    29750.497 
 1482000    298.48798   -1193.9884   -23094.258   -24968.932    1874.6737    1.1610133    30.985945    30.985945    30.985945    29750.497 
 1483000    298.00979   -1560.9476   -23122.128   -24993.799    1871.6704    1.1610133    30.985945    30.985945    30.985945    29750.497 
 1484000    295.64893   -1441.2521   -23143.173   -25000.016    1856.8429    1.1610133    30.985945    30.985945    30.985945    29750.497 
 1485000    303.60194   -1194.7023   -22958.944   -24865.737    1906.7923    1.1610133    30.985945    30.985945    30.985945    29750.497 
 1486000    295.65681   -1831.3451   -23120.849   -24977.741    1856.8923    1.1610133    30.985945    30.985945    30.985945    29750.497 
 1487000    288.10198   -1774.3307   -23034.646    -24844.09    1809.4437    1.1610133    30.985945    30.985945    30.985945    29750.497 
 1488000     302.3149   -2082.7554   -23137.229   -25035.938    1898.7089    1.1610133    30.985945    30.985945    30.985945    29750.497 
 1489000     293.4787   -1981.0225   -23110.083   -24953.295    1843.2126    1.1610133    30.985945    30.985945    30.985945    29750.497 
 1490000    299.15583   -1939.3157   -23014.823   -24893.691    1878.8681    1.1610133    30.985945    30.985945    30.985945    29750.497 
 1491000    300.67463   -1403.5886   -23030.224   -24918.631    1888.4071    1.1610133    30.985945    30.985945    30.985945    29750.497 
 1492000    298.52167    -2425.315   -23101.778   -24976.664    1874.8853    1.1610133    30.985945    30.985945    30.985945    29750.497 
 1493000    291.11144   -1787.4216   -23088.163   -24916.508    1828.3448    1.1610133    30.985945    30.985945    30.985945    29750.497 
 1494000    296.16641   -2041.1382   -23080.266   -24940.359    1860.0929    1.1610133    30.985945    30.985945    30.985945    29750.497 
 1495000    292.90763   -1881.4529   -23178.158   -25017.784     1839.626    1.1610133    30.985945    30.985945    30.985945    29750.497 
 1496000     300.9598    -2186.991     -23062.3   -24952.498    1890.1981    1.1610133    30.985945    30.985945    30.985945    29750.497 
 1497000    297.72054   -1184.1808   -23086.312   -24956.165    1869.8537    1.1610133    30.985945    30.985945    30.985945    29750.497 
 1498000    315.51636    -1573.498   -22908.218    -24889.84    1981.6215    1.1610133    30.985945    30.985945    30.985945    29750.497 
 1499000    302.57449   -1111.2286   -23051.627   -24951.967    1900.3393    1.1610133    30.985945    30.985945    30.985945    29750.497 
 1500000     287.4564   -1765.9204   -23096.522   -24901.911    1805.3891    1.1610133    30.985945    30.985945    30.985945    29750.497 
 1501000    300.25465   -2052.6354    -23019.38    -24905.15    1885.7694    1.1610133    30.985945    30.985945    30.985945    29750.497 
 1502000    293.91326   -1503.9527   -23068.796   -24914.738    1845.9419    1.1610133    30.985945    30.985945    30.985945    29750.497 
 1503000    301.40012   -1432.7376   -23023.404   -24916.368    1892.9636    1.1610133    30.985945    30.985945    30.985945    29750.497 
 1504000    298.59624   -1434.3001   -23052.443   -24927.796    1875.3536    1.1610133    30.985945    30.985945    30.985945    29750.497 
 1505000    301.65279   -1673.7385   -23007.939   -24902.489    1894.5505    1.1610133    30.985945    30.985945    30.985945    29750.497 
 1506000    297.60811   -876.17917   -23052.686   -24921.833    1869.1476    1.1610133    30.985945    30.985945    30.985945    29750.497 
 1507000    301.02032   -1305.3497   -22989.824   -24880.402    1890.5782    1.1610133    30.985945    30.985945    30.985945    29750.497 
 1508000    297.75156    -2226.912    -22983.24   -24853.289    1870.0485    1.1610133    30.985945    30.985945    30.985945    29750.497 
 1509000    301.68473   -1343.1474   -23019.669    -24914.42    1894.7511    1.1610133    30.985945    30.985945    30.985945    29750.497 
 1510000    300.26938   -536.41983   -23070.575   -24956.437    1885.8619    1.1610133    30.985945    30.985945    30.985945    29750.497 
 1511000    299.18814   -1331.3396   -22978.814   -24857.885    1879.0711    1.1610133    30.985945    30.985945    30.985945    29750.497 
 1512000    315.01266   -1568.7174   -23000.276   -24978.734    1978.4581    1.1610133    30.985945    30.985945    30.985945    29750.497 
 1513000      299.733   -309.11398   -22977.641   -24860.134    1882.4931    1.1610133    30.985945    30.985945    30.985945    29750.497 
 1514000    298.18121   -925.15452   -23005.625   -24878.372     1872.747    1.1610133    30.985945    30.985945    30.985945    29750.497 
 1515000    292.54844   -1648.6733   -23137.369    -24974.74      1837.37    1.1610133    30.985945    30.985945    30.985945    29750.497 
 1516000      301.884   -2098.3623   -22974.186   -24870.188    1896.0026    1.1610133    30.985945    30.985945    30.985945    29750.497 
 1517000     303.2331   -1684.0717   -22919.955   -24824.431    1904.4757    1.1610133    30.985945    30.985945    30.985945    29750.497 
 1518000    300.97765   -486.69591   -22981.024   -24871.334    1890.3102    1.1610133    30.985945    30.985945    30.985945    29750.497 
 1519000     306.1367     -1493.44   -22937.488     -24860.2     1922.712    1.1610133    30.985945    30.985945    30.985945    29750.497 
 1520000    302.89253   -2250.1965   -22982.413    -24884.75    1902.3367    1.1610133    30.985945    30.985945    30.985945    29750.497 
 1521000     301.4805    -1325.731   -22996.257   -24889.725    1893.4684    1.1610133    30.985945    30.985945    30.985945    29750.497 
 1522000    284.94598   -2758.0209   -23128.761   -24918.383    1789.6223    1.1610133    30.985945    30.985945    30.985945    29750.497 
 1523000    301.87443    -2233.847   -23062.745   -24958.687    1895.9425    1.1610133    30.985945    30.985945    30.985945    29750.497 
 1524000    282.53917   -855.65344   -23207.167   -24981.673    1774.5061    1.1610133    30.985945    30.985945    30.985945    29750.497 
 1525000    292.08241   -509.00821   -23090.098   -24924.541    1834.4431    1.1610133    30.985945    30.985945    30.985945    29750.497 
 1526000    297.35381   -1059.8066   -23026.718   -24894.269    1867.5505    1.1610133    30.985945    30.985945    30.985945    29750.497 
 1527000    312.77644   -495.40461    -22998.15   -24962.563    1964.4133    1.1610133    30.985945    30.985945    30.985945    29750.497 
 1528000    301.44626    -1941.469   -23066.967    -24960.22    1893.2534    1.1610133    30.985945    30.985945    30.985945    29750.497 
 1529000    298.57705    13.170675   -23212.494   -25087.727    1875.2331    1.1610133    30.985945    30.985945    30.985945    29750.497 
 1530000    292.63928   -2433.9155   -23177.322   -25015.262    1837.9405    1.1610133    30.985945    30.985945    30.985945    29750.497 
 1531000    296.78414   -1236.3361   -23177.948   -25041.921    1863.9726    1.1610133    30.985945    30.985945    30.985945    29750.497 
 1532000    294.35847   -2025.8524   -23128.561   -24977.299     1848.738    1.1610133    30.985945    30.985945    30.985945    29750.497 
 1533000    298.27733   -1593.3928   -23209.089    -25082.44    1873.3507    1.1610133    30.985945    30.985945    30.985945    29750.497 
 1534000    294.48155   -1923.0115   -23168.843   -25018.354    1849.5111    1.1610133    30.985945    30.985945    30.985945    29750.497 
 1535000    298.18841   -900.88532   -23171.335   -25044.128    1872.7922    1.1610133    30.985945    30.985945    30.985945    29750.497 
 1536000     299.5162   -636.95897   -23055.191   -24936.323    1881.1315    1.1610133    30.985945    30.985945    30.985945    29750.497 
 1537000    300.55447   -2487.9004   -22979.296   -24866.948    1887.6524    1.1610133    30.985945    30.985945    30.985945    29750.497 
 1538000    293.07036   -1772.6261   -23083.143   -24923.791    1840.6479    1.1610133    30.985945    30.985945    30.985945    29750.497 
 1539000    306.45566   -2592.3824   -23005.358   -24930.073    1924.7152    1.1610133    30.985945    30.985945    30.985945    29750.497 
 1540000    290.16748   -1429.8197   -23156.114   -24978.531    1822.4163    1.1610133    30.985945    30.985945    30.985945    29750.497 
 1541000    299.58823   -1201.6082   -23026.592   -24908.176    1881.5839    1.1610133    30.985945    30.985945    30.985945    29750.497 
 1542000    298.31573   -1644.9462   -22999.447   -24873.038    1873.5919    1.1610133    30.985945    30.985945    30.985945    29750.497 
 1543000    298.94378   -908.77508   -23126.682   -25004.218    1877.5364    1.1610133    30.985945    30.985945    30.985945    29750.497 
 1544000     290.7644   -479.08412   -23169.639   -24995.804    1826.1652    1.1610133    30.985945    30.985945    30.985945    29750.497 
 1545000    306.35904   -2445.3996   -22963.844   -24887.952    1924.1084    1.1610133    30.985945    30.985945    30.985945    29750.497 
 1546000    294.94779   -1647.2835   -23021.751    -24874.19    1852.4393    1.1610133    30.985945    30.985945    30.985945    29750.497 
 1547000    301.43355   -1660.8363   -22938.719   -24831.892    1893.1736    1.1610133    30.985945    30.985945    30.985945    29750.497 
 1548000    294.15708   -2212.0803   -23063.766   -24911.239    1847.4732    1.1610133    30.985945    30.985945    30.985945    29750.497 
 1549000    300.25856    -2287.961   -23088.056    -24973.85    1885.7939    1.1610133    30.985945    30.985945    30.985945    29750.497 
 1550000    293.52758   -2460.1777   -23123.763   -24967.283    1843.5196    1.1610133    30.985945    30.985945    30.985945    29750.497 
 1551000     295.3775   -1554.9015    -23093.93   -24949.068    1855.1381    1.1610133    30.985945    30.985945    30.985945    29750.497 
 1552000    295.40204   -1759.1605   -23112.052   -24967.344    1855.2922    1.1610133    30.985945    30.985945    30.985945    29750.497 
 1553000    296.12127    -1133.255   -23011.208   -24871.018    1859.8094    1.1610133    30.985945    30.985945    30.985945    29750.497 
 1554000    297.32552   -778.48498   -23047.338   -24914.711    1867.3728    1.1610133    30.985945    30.985945    30.985945    29750.497 
 1555000    301.84618   -1531.0681   -23041.432   -24937.197    1895.7651    1.1610133    30.985945    30.985945    30.985945    29750.497 
 1556000    302.03706   -2021.6514   -22940.552   -24837.516    1896.9639    1.1610133    30.985945    30.985945    30.985945    29750.497 
 1557000    287.47503   -1468.6355   -23140.316   -24945.823    1805.5061    1.1610133    30.985945    30.985945    30.985945    29750.497 
 1558000    301.57324   -1411.9901   -22966.698   -24860.749    1894.0508    1.1610133    30.985945    30.985945    30.985945    29750.497 
 1559000    300.03454   -1190.4742    -23067.36   -24951.747    1884.3869    1.1610133    30.985945    30.985945    30.985945    29750.497 
 1560000    303.23439   -2055.2951   -23099.057   -25003.541    1904.4838    1.1610133    30.985945    30.985945    30.985945    29750.497 
 1561000     295.9871   -2504.7488   -23203.533     -25062.5    1858.9667    1.1610133    30.985945    30.985945    30.985945    29750.497 
 1562000    297.22973   -1949.8803   -23147.402   -25014.173    1866.7712    1.1610133    30.985945    30.985945    30.985945    29750.497 
 1563000     301.3332   -2215.4499   -23059.917    -24952.46    1892.5433    1.1610133    30.985945    30.985945    30.985945    29750.497 
 1564000     296.0509   -1675.3518   -23197.505   -25056.872    1859.3675    1.1610133    30.985945    30.985945    30.985945    29750.497 
 1565000    295.15297   -1297.4838   -23164.154   -25017.881    1853.7279    1.1610133    30.985945    30.985945    30.985945    29750.497 
 1566000      295.762   -1872.8873   -22971.167    -24828.72     1857.553    1.1610133    30.985945    30.985945    30.985945    29750.497 
 1567000    299.62358   -2311.3539   -23084.562   -24966.368    1881.8059    1.1610133    30.985945    30.985945    30.985945    29750.497 
 1568000    305.50103   -1598.5294   -23010.928   -24929.647    1918.7196    1.1610133    30.985945    30.985945    30.985945    29750.497 
 1569000    305.98621    -1778.896   -22951.417   -24873.184    1921.7668    1.1610133    30.985945    30.985945    30.985945    29750.497 
 1570000    293.95474   -1945.1167   -23093.284   -24939.486    1846.2024    1.1610133    30.985945    30.985945    30.985945    29750.497 
 1571000    291.89802   -2043.3973   -23161.526   -24994.811     1833.285    1.1610133    30.985945    30.985945    30.985945    29750.497 
 1572000    307.65178   -678.32317    -23067.54   -24999.768    1932.2276    1.1610133    30.985945    30.985945    30.985945    29750.497 
 1573000     293.4715   -1789.1147   -23100.655   -24943.823    1843.1674    1.1610133    30.985945    30.985945    30.985945    29750.497 
 1574000    299.44342   -2263.0645   -22994.314   -24874.989    1880.6744    1.1610133    30.985945    30.985945    30.985945    29750.497 
 1575000    305.24085   -699.62041   -22914.701   -24831.786    1917.0855    1.1610133    30.985945    30.985945    30.985945    29750.497 
 1576000    301.30585   -1698.8152   -23026.816   -24919.187    1892.3715    1.1610133    30.985945    30.985945    30.985945    29750.497 
 1577000    302.95217   -961.04275   -22998.179   -24900.891    1902.7113    1.1610133    30.985945    30.985945    30.985945    29750.497 
 1578000    298.38716   -945.23427   -23055.325   -24929.365    1874.0405    1.1610133    30.985945    30.985945    30.985945    29750.497 
 1579000    303.99084   -1756.0505   -23085.631   -24994.866    1909.2348    1.1610133    30.985945    30.985945    30.985945    29750.497 
 1580000    299.74944   -1550.5833    -23021.71   -24904.306    1882.5964    1.1610133    30.985945    30.985945    30.985945    29750.497 
 1581000    294.64895   -1040.4611   -23032.016   -24882.578    1850.5624    1.1610133    30.985945    30.985945    30.985945    29750.497 
 1582000    302.53251   -1547.7219   -23076.486   -24976.562    1900.0756    1.1610133    30.985945    30.985945    30.985945    29750.497 
 1583000      302.485   -1022.7109    -23037.19   -24936.967    1899.7772    1.1610133    30.985945    30.985945    30.985945    29750.497 
 1584000    311.91716   -579.16449   -22956.332   -24915.349    1959.0166    1.1610133    30.985945    30.985945    30.985945    29750.497 
 1585000    298.88534   -1445.9993   -23090.261   -24967.431    1877.1694    1.1610133    30.985945    30.985945    30.985945    29750.497 
 1586000    303.63868   -1970.8788   -23143.586   -25050.609     1907.023    1.1610133    30.985945    30.985945    30.985945    29750.497 
 1587000    296.61704   -1392.4189   -23231.589   -25094.512    1862.9231    1.1610133    30.985945    30.985945    30.985945    29750.497 
 1588000    303.65759   -1402.4583   -23049.701   -24956.842    1907.1418    1.1610133    30.985945    30.985945    30.985945    29750.497 
 1589000    291.64845   -1449.8451   -23049.513   -24881.231    1831.7176    1.1610133    30.985945    30.985945    30.985945    29750.497 
 1590000    306.43687   -1219.1606   -22997.202   -24921.799    1924.5972    1.1610133    30.985945    30.985945    30.985945    29750.497 
 1591000    289.59054   -928.87101    -23094.64   -24913.433    1818.7927    1.1610133    30.985945    30.985945    30.985945    29750.497 
 1592000    312.18725   -1243.7708   -23029.399   -24990.112    1960.7128    1.1610133    30.985945    30.985945    30.985945    29750.497 
 1593000    305.96057   -1161.7092   -23064.128   -24985.733    1921.6058    1.1610133    30.985945    30.985945    30.985945    29750.497 
 1594000    300.81719   -1346.4746   -23144.326   -25033.628    1889.3025    1.1610133    30.985945    30.985945    30.985945    29750.497 
 1595000    294.82249   -336.12493   -23061.152   -24912.804    1851.6523    1.1610133    30.985945    30.985945    30.985945    29750.497 
 1596000    297.30383   -842.59994   -23128.764       -24996    1867.2365    1.1610133    30.985945    30.985945    30.985945    29750.497 
 1597000    300.10237    -1214.418   -23094.577    -24979.39     1884.813    1.1610133    30.985945    30.985945    30.985945    29750.497 
 1598000    299.13903   -1684.7935    -23099.37   -24978.133    1878.7627    1.1610133    30.985945    30.985945    30.985945    29750.497 
 1599000    287.77394   -2036.5349   -23209.714   -25017.098    1807.3835    1.1610133    30.985945    30.985945    30.985945    29750.497 
 1600000    298.23482    -2110.165   -23064.872   -24937.956    1873.0837    1.1610133    30.985945    30.985945    30.985945    29750.497 
 1601000    295.35791   -2822.4903   -23156.397   -25011.412    1855.0151    1.1610133    30.985945    30.985945    30.985945    29750.497 
 1602000    303.04262   -1188.1221   -23020.679   -24923.958    1903.2794    1.1610133    30.985945    30.985945    30.985945    29750.497 
 1603000     295.5621   -1593.2007   -23136.436   -24992.733    1856.2975    1.1610133    30.985945    30.985945    30.985945    29750.497 
 1604000    304.35292   -1360.7489   -23073.347   -24984.856    1911.5088    1.1610133    30.985945    30.985945    30.985945    29750.497 
 1605000    297.38084   -1375.5858   -23089.027   -24956.747    1867.7203    1.1610133    30.985945    30.985945    30.985945    29750.497 
 1606000    296.54016    -1220.703   -23065.011   -24927.451    1862.4403    1.1610133    30.985945    30.985945    30.985945    29750.497 
 1607000    296.02848   -737.99894   -23097.652   -24956.879    1859.2266    1.1610133    30.985945    30.985945    30.985945    29750.497 
 1608000     294.0121   -1721.0544   -23146.319   -24992.881    1846.5626    1.1610133    30.985945    30.985945    30.985945    29750.497 
 1609000    298.35379   -2055.3509   -23205.315   -25079.146    1873.8309    1.1610133    30.985945    30.985945    30.985945    29750.497 
 1610000    307.22279   -1559.1189   -23042.264   -24971.797    1929.5332    1.1610133    30.985945    30.985945    30.985945    29750.497 
 1611000    304.45488   -1517.6749   -23093.969   -25006.119    1912.1492    1.1610133    30.985945    30.985945    30.985945    29750.497 
 1612000    304.05523   -1569.0554   -22998.486   -24908.125    1909.6392    1.1610133    30.985945    30.985945    30.985945    29750.497 
 1613000    306.94768   -2359.4809   -23019.477   -24947.282    1927.8054    1.1610133    30.985945    30.985945    30.985945    29750.497 
 1614000    300.15517   -1616.6663   -23043.589   -24928.733    1885.1446    1.1610133    30.985945    30.985945    30.985945    29750.497 
 1615000    295.53769   -1984.3284   -23186.595    -25042.74    1856.1442    1.1610133    30.985945    30.985945    30.985945    29750.497 
 1616000    299.94174   -2563.7324   -23115.701   -24999.505    1883.8041    1.1610133    30.985945    30.985945    30.985945    29750.497 
 1617000    297.80941   -2847.5868   -23095.745   -24966.157    1870.4119    1.1610133    30.985945    30.985945    30.985945    29750.497 
 1618000     287.8508    -316.4318   -23154.922   -24962.788    1807.8662    1.1610133    30.985945    30.985945    30.985945    29750.497 
 1619000    293.75956   -1792.2613   -23075.772   -24920.748    1844.9766    1.1610133    30.985945    30.985945    30.985945    29750.497 
 1620000    293.65273   -1164.2902   -23036.121   -24880.427    1844.3056    1.1610133    30.985945    30.985945    30.985945    29750.497 
 1621000    294.76741   -1998.1858   -23093.576   -24944.883    1851.3064    1.1610133    30.985945    30.985945    30.985945    29750.497 
 1622000     307.4571   -1591.2134   -22965.338   -24896.343    1931.0048    1.1610133    30.985945    30.985945    30.985945    29750.497 
 1623000    297.92634   -2296.8351   -23156.938   -25028.084    1871.1463    1.1610133    30.985945    30.985945    30.985945    29750.497 
 1624000    290.05456   -1808.1768   -23118.767   -24940.474    1821.7071    1.1610133    30.985945    30.985945    30.985945    29750.497 
 1625000    295.85856   -2303.7315   -23138.167   -24996.326    1858.1594    1.1610133    30.985945    30.985945    30.985945    29750.497 
 1626000    294.90316   -1535.2863   -23090.208   -24942.367     1852.159    1.1610133    30.985945    30.985945    30.985945    29750.497 
 1627000    302.68444   -1279.0467   -23018.889   -24919.919    1901.0298    1.1610133    30.985945    30.985945    30.985945    29750.497 
 1628000    296.59353   -1323.5459    -23122.49   -24985.265    1862.7755    1.1610133    30.985945    30.985945    30.985945    29750.497 
 1629000    294.30363   -2062.6302   -23162.089   -25010.483    1848.3936    1.1610133    30.985945    30.985945    30.985945    29750.497 
 1630000    298.68454   -2598.9718   -23078.429   -24954.337    1875.9082    1.1610133    30.985945    30.985945    30.985945    29750.497 
 1631000    301.67638   -1678.2454   -23047.998   -24942.697    1894.6986    1.1610133    30.985945    30.985945    30.985945    29750.497 
 1632000    296.81997   -730.41507   -23102.158   -24966.356    1864.1977    1.1610133    30.985945    30.985945    30.985945    29750.497 
 1633000    308.22113   -1761.6401   -23035.028   -24970.831    1935.8034    1.1610133    30.985945    30.985945    30.985945    29750.497 
 1634000    301.40833   -1609.8636   -23070.068   -24963.083    1893.0151    1.1610133    30.985945    30.985945    30.985945    29750.497 
 1635000    294.23228   -1183.8616   -22974.008   -24821.954    1847.9455    1.1610133    30.985945    30.985945    30.985945    29750.497 
 1636000     300.0139   -1356.9046   -23084.664   -24968.922    1884.2573    1.1610133    30.985945    30.985945    30.985945    29750.497 
 1637000    301.75266   -1864.2231   -22976.969   -24872.146    1895.1777    1.1610133    30.985945    30.985945    30.985945    29750.497 
 1638000     296.4459   -1206.6059   -23031.976   -24893.824    1861.8482    1.1610133    30.985945    30.985945    30.985945    29750.497 
 1639000    292.23466   -1097.5769   -23125.255   -24960.655    1835.3993    1.1610133    30.985945    30.985945    30.985945    29750.497 
 1640000    302.09774   -2125.7467   -22984.151   -24881.496    1897.3451    1.1610133    30.985945    30.985945    30.985945    29750.497 
 1641000    298.18523   -1115.9513   -23052.908    -24925.68    1872.7722    1.1610133    30.985945    30.985945    30.985945    29750.497 
 1642000    294.79374   -2121.7048   -23108.768    -24960.24    1851.4718    1.1610133    30.985945    30.985945    30.985945    29750.497 
 1643000    297.47819   -1141.4274   -23065.137   -24933.469    1868.3316    1.1610133    30.985945    30.985945    30.985945    29750.497 
 1644000    300.75717   -1274.0782   -22894.964    -24783.89    1888.9255    1.1610133    30.985945    30.985945    30.985945    29750.497 
 1645000    301.06054    51.798131   -22996.831   -24887.662    1890.8308    1.1610133    30.985945    30.985945    30.985945    29750.497 
 1646000    294.96931   -1544.6258   -23039.346   -24891.921    1852.5745    1.1610133    30.985945    30.985945    30.985945    29750.497 
 1647000    293.05936   -1712.5536   -23104.452   -24945.031    1840.5789    1.1610133    30.985945    30.985945    30.985945    29750.497 
 1648000    293.07254   -417.00205   -23057.139     -24897.8    1840.6617    1.1610133    30.985945    30.985945    30.985945    29750.497 
 1649000    292.42804   -2329.4738   -23107.178   -24943.792    1836.6138    1.1610133    30.985945    30.985945    30.985945    29750.497 
 1650000    294.71877   -1791.5383    -23201.93    -25052.93    1851.0009    1.1610133    30.985945    30.985945    30.985945    29750.497 
 1651000    301.59273   -882.06723   -23115.588   -25009.762    1894.1733    1.1610133    30.985945    30.985945    30.985945    29750.497 
 1652000    303.04739   -1854.0976   -23036.766   -24940.075    1903.3094    1.1610133    30.985945    30.985945    30.985945    29750.497 
 1653000    292.45163   -1897.9535   -23082.602   -24919.364     1836.762    1.1610133    30.985945    30.985945    30.985945    29750.497 
 1654000    311.97776   -1243.8907   -22979.394   -24938.791    1959.3971    1.1610133    30.985945    30.985945    30.985945    29750.497 
 1655000    297.10828   -1682.7437    -23078.21   -24944.219    1866.0084    1.1610133    30.985945    30.985945    30.985945    29750.497 
 1656000    296.06565   -1178.1693    -23045.34     -24904.8    1859.4601    1.1610133    30.985945    30.985945    30.985945    29750.497 
 1657000    291.25503   -1496.2335   -23176.185   -25005.432    1829.2466    1.1610133    30.985945    30.985945    30.985945    29750.497 
 1658000     294.4898    -1595.289   -23125.361   -24974.924    1849.5628    1.1610133    30.985945    30.985945    30.985945    29750.497 
 1659000    301.59497   -2191.6725   -23034.397   -24928.584    1894.1873    1.1610133    30.985945    30.985945    30.985945    29750.497 
 1660000    302.03377   -1460.4893   -23021.908   -24918.852    1896.9433    1.1610133    30.985945    30.985945    30.985945    29750.497 
 1661000    307.79297   -1960.2388   -23020.775    -24953.89    1933.1143    1.1610133    30.985945    30.985945    30.985945    29750.497 
 1662000    296.70565   -1472.2951     -23198.6    -25062.08    1863.4796    1.1610133    30.985945    30.985945    30.985945    29750.497 
 1663000    300.72507   -2104.4729   -23124.996    -25013.72    1888.7239    1.1610133    30.985945    30.985945    30.985945    29750.497 
 1664000    289.09523   -1226.0914   -23166.911   -24982.592    1815.6819    1.1610133    30.985945    30.985945    30.985945    29750.497 
 1665000    299.58518   -1925.6099   -23096.143   -24977.708    1881.5647    1.1610133    30.985945    30.985945    30.985945    29750.497 
 1666000    302.43503    -1885.016   -23104.021   -25003.485    1899.4634    1.1610133    30.985945    30.985945    30.985945    29750.497 
 1667000    297.77649   -2129.8214   -23174.617   -25044.822    1870.2052    1.1610133    30.985945    30.985945    30.985945    29750.497 
 1668000    303.44173   -1670.2334   -23124.409   -25030.195    1905.7861    1.1610133    30.985945    30.985945    30.985945    29750.497 
 1669000    300.64424    -1514.599   -23151.113   -25039.329    1888.2162    1.1610133    30.985945    30.985945    30.985945    29750.497 
 1670000    302.81378   -1452.8248   -23086.367   -24988.209    1901.8421    1.1610133    30.985945    30.985945    30.985945    29750.497 
 1671000    298.65915   -2011.3187   -23189.647   -25065.396    1875.7487    1.1610133    30.985945    30.985945    30.985945    29750.497 
 1672000    285.70784   -1786.4268    -23125.73   -24920.137    1794.4072    1.1610133    30.985945    30.985945    30.985945    29750.497 
 1673000     296.5515   -1497.9971   -23197.685   -25060.196    1862.5115    1.1610133    30.985945    30.985945    30.985945    29750.497 
 1674000    298.03572   -2526.9475   -23109.834   -24981.667    1871.8333    1.1610133    30.985945    30.985945    30.985945    29750.497 
 1675000    306.92266   -2166.6365   -22989.636   -24917.285    1927.6482    1.1610133    30.985945    30.985945    30.985945    29750.497 
 1676000     299.6295   -2259.2252   -23077.376   -24959.219    1881.8431    1.1610133    30.985945    30.985945    30.985945    29750.497 
 1677000    301.24769   -2036.4618   -23050.693   -24942.699    1892.0062    1.1610133    30.985945    30.985945    30.985945    29750.497 
 1678000    291.93636   -2084.9429   -23015.344   -24848.869    1833.5258    1.1610133    30.985945    30.985945    30.985945    29750.497 
 1679000    306.20204   -1739.2497   -22996.889   -24920.011    1923.1224    1.1610133    30.985945    30.985945    30.985945    29750.497 
 1680000    298.28437   -1431.3829   -23054.646   -24928.041    1873.3949    1.1610133    30.985945    30.985945    30.985945    29750.497 
 1681000    292.13432   -2119.3962   -23125.734   -24960.503    1834.7691    1.1610133    30.985945    30.985945    30.985945    29750.497 
 1682000    294.83337   -1822.4927   -23199.471   -25051.192    1851.7207    1.1610133    30.985945    30.985945    30.985945    29750.497 
 1683000    290.88206   -1376.5469    -23174.85   -25001.754    1826.9042    1.1610133    30.985945    30.985945    30.985945    29750.497 
 1684000    294.25969   -1612.2599   -23161.531   -25009.648    1848.1176    1.1610133    30.985945    30.985945    30.985945    29750.497 
 1685000    291.41002   -2666.4022   -23137.983   -24968.203    1830.2201    1.1610133    30.985945    30.985945    30.985945    29750.497 
 1686000    300.48406   -1701.2405   -23065.815   -24953.025    1887.2102    1.1610133    30.985945    30.985945    30.985945    29750.497 
 1687000    289.48421   -1484.9136   -23130.571   -24948.696    1818.1249    1.1610133    30.985945    30.985945    30.985945    29750.497 
 1688000    296.37185   -1670.6178   -23074.162   -24935.545    1861.3832    1.1610133    30.985945    30.985945    30.985945    29750.497 
 1689000    297.02459   -1371.7604   -23050.474   -24915.957    1865.4827    1.1610133    30.985945    30.985945    30.985945    29750.497 
 1690000    289.35776   -2784.0767   -23129.365   -24946.695    1817.3307    1.1610133    30.985945    30.985945    30.985945    29750.497 
 1691000    298.07704   -1249.2629   -23078.328    -24950.42    1872.0927    1.1610133    30.985945    30.985945    30.985945    29750.497 
 1692000    299.44884   -1234.9095   -23072.426   -24953.135    1880.7085    1.1610133    30.985945    30.985945    30.985945    29750.497 
 1693000    307.66648   -1599.7866   -23105.508   -25037.828    1932.3199    1.1610133    30.985945    30.985945    30.985945    29750.497 
 1694000    297.91112    -2261.661   -23142.158   -25013.209    1871.0507    1.1610133    30.985945    30.985945    30.985945    29750.497 
 1695000    293.22018   -3530.7175   -23097.318   -24938.907    1841.5889    1.1610133    30.985945    30.985945    30.985945    29750.497 
 1696000    295.80941   -2667.9949   -23173.315   -25031.165    1857.8507    1.1610133    30.985945    30.985945    30.985945    29750.497 
 1697000    298.09595   -1625.5091   -23100.979   -24973.191    1872.2115    1.1610133    30.985945    30.985945    30.985945    29750.497 
 1698000    301.15743   -2065.9544   -23063.262   -24954.701    1891.4393    1.1610133    30.985945    30.985945    30.985945    29750.497 
 1699000    288.34162   -1296.8709   -23150.567   -24961.516    1810.9488    1.1610133    30.985945    30.985945    30.985945    29750.497 
 1700000    297.42981   -2103.4291   -23140.487   -25008.515    1868.0278    1.1610133    30.985945    30.985945    30.985945    29750.497 
 1701000    307.10734    -2091.294   -23054.632    -24983.44    1928.8082    1.1610133    30.985945    30.985945    30.985945    29750.497 
 1702000    297.53739   -1597.0374   -23003.133   -24871.836    1868.7034    1.1610133    30.985945    30.985945    30.985945    29750.497 
 1703000    302.87914   -1502.5965   -23003.786   -24906.038    1902.2527    1.1610133    30.985945    30.985945    30.985945    29750.497 
 1704000    299.13939   -1659.9767   -23036.176   -24914.941    1878.7649    1.1610133    30.985945    30.985945    30.985945    29750.497 
 1705000    297.34171   -1588.2119   -23073.411   -24940.885    1867.4745    1.1610133    30.985945    30.985945    30.985945    29750.497 
 1706000    300.18652   -1424.4559    -23126.02   -25011.361    1885.3415    1.1610133    30.985945    30.985945    30.985945    29750.497 
 1707000    295.87073   -1407.9336    -22983.46   -24841.696    1858.2358    1.1610133    30.985945    30.985945    30.985945    29750.497 
 1708000    288.75276   -2822.0688   -23131.404   -24944.935     1813.531    1.1610133    30.985945    30.985945    30.985945    29750.497 
 1709000    302.16797   -730.35201    -22960.59   -24858.376    1897.7861    1.1610133    30.985945    30.985945    30.985945    29750.497 
 1710000     300.1357   -1486.3978   -23128.647   -25013.669    1885.0223    1.1610133    30.985945    30.985945    30.985945    29750.497 
 1711000    294.32384   -1167.3418   -23177.508   -25026.029    1848.5205    1.1610133    30.985945    30.985945    30.985945    29750.497 
 1712000    302.59506   -1515.5464   -23058.602    -24959.07    1900.4684    1.1610133    30.985945    30.985945    30.985945    29750.497 
 1713000    294.94274   -1223.0562    -23129.53   -24981.937    1852.4075    1.1610133    30.985945    30.985945    30.985945    29750.497 
 1714000     291.7414   -2250.2323   -23142.775   -24975.077    1832.3013    1.1610133    30.985945    30.985945    30.985945    29750.497 
 1715000    300.88241   -634.26495   -23140.565   -25030.278     1889.712    1.1610133    30.985945    30.985945    30.985945    29750.497 
 1716000    299.67945   -1452.8483   -23065.597   -24947.754    1882.1568    1.1610133    30.985945    30.985945    30.985945    29750.497 
 1717000    295.75744   -1019.7551   -23196.955    -25054.48    1857.5243    1.1610133    30.985945    30.985945    30.985945    29750.497 
 1718000    289.51856   -2380.0501   -23202.803   -25021.144    1818.3407    1.1610133    30.985945    30.985945    30.985945    29750.497 
 1719000    293.50399   -1733.4683   -23179.207   -25022.579    1843.3714    1.1610133    30.985945    30.985945    30.985945    29750.497 
 1720000    302.78717   -1406.8297   -23062.709   -24964.384     1901.675    1.1610133    30.985945    30.985945    30.985945    29750.497 
 1721000    300.01604   -1273.6658     -22989.2   -24873.471    1884.2708    1.1610133    30.985945    30.985945    30.985945    29750.497 
 1722000    299.72753    -2425.863   -23070.504   -24952.963    1882.4588    1.1610133    30.985945    30.985945    30.985945    29750.497 
 1723000    290.86366   -1334.8364   -23162.925   -24989.713    1826.7886    1.1610133    30.985945    30.985945    30.985945    29750.497 
 1724000    295.79405   -2094.5965   -23128.168   -24985.923    1857.7543    1.1610133    30.985945    30.985945    30.985945    29750.497 
 1725000    297.95453   -1221.9834   -22999.862   -24871.185    1871.3233    1.1610133    30.985945    30.985945    30.985945    29750.497 
 1726000    305.43664   -2087.3982   -22966.136   -24884.451    1918.3152    1.1610133    30.985945    30.985945    30.985945    29750.497 
 1727000    308.13349   -1618.9994   -23014.206   -24949.459     1935.253    1.1610133    30.985945    30.985945    30.985945    29750.497 
 1728000    309.90423   -1348.6184   -22894.632   -24841.006    1946.3742    1.1610133    30.985945    30.985945    30.985945    29750.497 
 1729000    299.20059   -1486.8633   -23044.449   -24923.599    1879.1493    1.1610133    30.985945    30.985945    30.985945    29750.497 
 1730000    299.33186   -1246.5269   -23075.199   -24955.173    1879.9737    1.1610133    30.985945    30.985945    30.985945    29750.497 
 1731000      297.183   -580.15106   -23158.242   -25024.719    1866.4777    1.1610133    30.985945    30.985945    30.985945    29750.497 
 1732000    296.47217    -1479.096   -23070.347    -24932.36    1862.0133    1.1610133    30.985945    30.985945    30.985945    29750.497 
 1733000    294.54905   -501.68844   -23054.001   -24903.936     1849.935    1.1610133    30.985945    30.985945    30.985945    29750.497 
 1734000    295.34413   -1794.0195   -23148.584   -25003.512    1854.9286    1.1610133    30.985945    30.985945    30.985945    29750.497 
 1735000    293.78757   -1991.5002   -23234.153   -25079.305    1845.1525    1.1610133    30.985945    30.985945    30.985945    29750.497 
 1736000    300.21804   -1285.9163    -23045.48   -24931.019    1885.5394    1.1610133    30.985945    30.985945    30.985945    29750.497 
 1737000    295.05681   -973.44788   -23128.436    -24981.56     1853.124    1.1610133    30.985945    30.985945    30.985945    29750.497 
 1738000     305.1253   -1759.7499   -23058.921   -24975.281    1916.3598    1.1610133    30.985945    30.985945    30.985945    29750.497 
 1739000    303.02618   -1569.4853   -23047.974    -24951.15    1903.1762    1.1610133    30.985945    30.985945    30.985945    29750.497 
 1740000    296.01749   -1907.1262   -23128.273    -24987.43    1859.1576    1.1610133    30.985945    30.985945    30.985945    29750.497 
 1741000     290.1036   -1294.3093   -23170.772   -24992.787     1822.015    1.1610133    30.985945    30.985945    30.985945    29750.497 
 1742000    300.97796   -2077.0065   -23076.352   -24966.664    1890.3122    1.1610133    30.985945    30.985945    30.985945    29750.497 
 1743000    306.07787   -1523.3746   -23121.043   -25043.386    1922.3425    1.1610133    30.985945    30.985945    30.985945    29750.497 
 1744000    287.52934   -2082.4869   -23182.121   -24987.968    1805.8472    1.1610133    30.985945    30.985945    30.985945    29750.497 
 1745000     293.2646   -1348.7617   -23162.059   -25003.927    1841.8679    1.1610133    30.985945    30.985945    30.985945    29750.497 
 1746000    300.75541   -1972.5698   -23093.326   -24982.241    1888.9144    1.1610133    30.985945    30.985945    30.985945    29750.497 
 1747000     303.8985   -831.44677     -23077.6   -24986.255    1908.6548    1.1610133    30.985945    30.985945    30.985945    29750.497 
 1748000    295.85927   -1887.6296   -23131.252   -24989.416    1858.1639    1.1610133    30.985945    30.985945    30.985945    29750.497 
 1749000    299.19377   -2360.1185   -23128.554   -25007.661    1879.1065    1.1610133    30.985945    30.985945    30.985945    29750.497 
 1750000     294.9308   -2066.9456   -23103.738   -24956.071    1852.3326    1.1610133    30.985945    30.985945    30.985945    29750.497 
 1751000    304.28274    -1342.981   -23079.493   -24990.561    1911.0681    1.1610133    30.985945    30.985945    30.985945    29750.497 
 1752000    295.72375   -1376.2375   -23201.727   -25059.039    1857.3128    1.1610133    30.985945    30.985945    30.985945    29750.497 
 1753000    295.16064   -1858.0952   -23065.302   -24919.079    1853.7761    1.1610133    30.985945    30.985945    30.985945    29750.497 
 1754000    298.41144   -824.73772   -23109.877    -24984.07     1874.193    1.1610133    30.985945    30.985945    30.985945    29750.497 
 1755000    300.15368   -1247.4456   -23125.258   -25010.393    1885.1353    1.1610133    30.985945    30.985945    30.985945    29750.497 
 1756000    296.01802   -1489.2139   -23051.153   -24910.314     1859.161    1.1610133    30.985945    30.985945    30.985945    29750.497 
 1757000    293.06483   -1819.4201   -23136.078   -24976.691    1840.6132    1.1610133    30.985945    30.985945    30.985945    29750.497 
 1758000    296.12892    -1387.484   -23098.589   -24958.447    1859.8575    1.1610133    30.985945    30.985945    30.985945    29750.497 
 1759000    302.28048   -1363.8701   -23098.995   -24997.488    1898.4927    1.1610133    30.985945    30.985945    30.985945    29750.497 
 1760000    303.23997   -1103.9283   -23074.164   -24978.683    1904.5189    1.1610133    30.985945    30.985945    30.985945    29750.497 
 1761000    300.77067   -1483.7113   -23067.145   -24956.156    1889.0103    1.1610133    30.985945    30.985945    30.985945    29750.497 
 1762000    296.02188   -1743.5369   -23100.326   -24959.511    1859.1852    1.1610133    30.985945    30.985945    30.985945    29750.497 
 1763000    294.34539   -1651.9247   -23116.712   -24965.368    1848.6559    1.1610133    30.985945    30.985945    30.985945    29750.497 
 1764000    298.93109   -1241.5654   -23064.382   -24941.839    1877.4567    1.1610133    30.985945    30.985945    30.985945    29750.497 
 1765000    300.94936    -1423.687   -22985.855   -24875.987    1890.1325    1.1610133    30.985945    30.985945    30.985945    29750.497 
 1766000     301.0602   -942.56837    -23024.64   -24915.468    1890.8287    1.1610133    30.985945    30.985945    30.985945    29750.497 
 1767000    300.30933   -937.36777   -23031.683   -24917.796    1886.1128    1.1610133    30.985945    30.985945    30.985945    29750.497 
 1768000    297.40541   -1252.3466   -23003.091   -24870.966    1867.8745    1.1610133    30.985945    30.985945    30.985945    29750.497 
 1769000    296.56417   -1236.9522    -23009.09   -24871.681    1862.5911    1.1610133    30.985945    30.985945    30.985945    29750.497 
 1770000    301.08026   -1511.6397   -23108.417   -24999.372    1890.9547    1.1610133    30.985945    30.985945    30.985945    29750.497 
 1771000    291.77472   -1246.2651   -23141.181   -24973.692    1832.5106    1.1610133    30.985945    30.985945    30.985945    29750.497 
 1772000    292.64154   -1957.5799   -23119.905    -24957.86    1837.9547    1.1610133    30.985945    30.985945    30.985945    29750.497 
 1773000     299.1798    -2130.376   -23075.233   -24954.252    1879.0187    1.1610133    30.985945    30.985945    30.985945    29750.497 
 1774000     298.6217   -1648.4397    -23132.93   -25008.443    1875.5136    1.1610133    30.985945    30.985945    30.985945    29750.497 
 1775000    288.66097   -1293.9142    -23105.51   -24918.465    1812.9545    1.1610133    30.985945    30.985945    30.985945    29750.497 
 1776000    292.21288   -1838.8442    -23051.75   -24887.012    1835.2625    1.1610133    30.985945    30.985945    30.985945    29750.497 
 1777000    311.13222   -1421.0408   -23032.762   -24986.849    1954.0867    1.1610133    30.985945    30.985945    30.985945    29750.497 
 1778000     304.5914    -1072.026   -23045.185   -24958.192    1913.0066    1.1610133    30.985945    30.985945    30.985945    29750.497 
 1779000    293.39148   -1536.2561   -23113.542   -24956.207    1842.6648    1.1610133    30.985945    30.985945    30.985945    29750.497 
 1780000    293.17505   -1454.2049   -23152.961   -24994.266    1841.3055    1.1610133    30.985945    30.985945    30.985945    29750.497 
 1781000    301.82513   -1335.9732    -22974.99   -24870.623    1895.6329    1.1610133    30.985945    30.985945    30.985945    29750.497 
 1782000    296.98582   -1844.5348   -23074.294   -24939.534    1865.2393    1.1610133    30.985945    30.985945    30.985945    29750.497 
 1783000    290.82451   -1477.8849   -23116.798    -24943.34    1826.5427    1.1610133    30.985945    30.985945    30.985945    29750.497 
 1784000    299.11135   -2107.5853   -23036.853   -24915.441    1878.5888    1.1610133    30.985945    30.985945    30.985945    29750.497 
 1785000    293.12115   -1476.4056   -23052.954   -24893.921     1840.967    1.1610133    30.985945    30.985945    30.985945    29750.497 
 1786000    293.29035   -1758.0736   -23075.754   -24917.784    1842.0296    1.1610133    30.985945    30.985945    30.985945    29750.497 
 1787000    292.06937   -1074.3824   -23009.686   -24844.047    1834.3612    1.1610133    30.985945    30.985945    30.985945    29750.497 
 1788000    298.06297   -1215.4445   -23058.803   -24930.807    1872.0044    1.1610133    30.985945    30.985945    30.985945    29750.497 
 1789000    296.55355     -965.039   -23040.164   -24902.688    1862.5243    1.1610133    30.985945    30.985945    30.985945    29750.497 
 1790000    295.72476   -683.82865   -23172.913   -25030.232    1857.3191    1.1610133    30.985945    30.985945    30.985945    29750.497 
 1791000    296.22106   -1504.2651   -23113.572   -24974.008    1860.4362    1.1610133    30.985945    30.985945    30.985945    29750.497 
 1792000    307.22694   -1429.7447   -22994.922   -24924.481    1929.5593    1.1610133    30.985945    30.985945    30.985945    29750.497 
 1793000    300.61948   -1442.3669   -23069.908   -24957.969    1888.0607    1.1610133    30.985945    30.985945    30.985945    29750.497 
 1794000    301.01233   -2028.6529   -23043.013   -24933.541     1890.528    1.1610133    30.985945    30.985945    30.985945    29750.497 
 1795000    301.50194   -1369.2962   -23098.355   -24991.958    1893.6031    1.1610133    30.985945    30.985945    30.985945    29750.497 
 1796000    297.80214    -1438.186   -23143.532   -25013.899    1870.3662    1.1610133    30.985945    30.985945    30.985945    29750.497 
 1797000    299.12594   -1858.5777   -23061.367   -24940.048    1878.6804    1.1610133    30.985945    30.985945    30.985945    29750.497 
 1798000    298.05357   -1688.2164   -23025.824   -24897.769    1871.9453    1.1610133    30.985945    30.985945    30.985945    29750.497 
 1799000    298.96552   -1544.6608   -23033.301   -24910.974    1877.6729    1.1610133    30.985945    30.985945    30.985945    29750.497 
 1800000    295.15414   -1204.4806   -23005.374   -24859.109    1853.7353    1.1610133    30.985945    30.985945    30.985945    29750.497 
 1801000    293.37607   -908.07203   -23186.545   -25029.113     1842.568    1.1610133    30.985945    30.985945    30.985945    29750.497 
 1802000    299.92191   -913.27215    -23180.46    -25064.14    1883.6796    1.1610133    30.985945    30.985945    30.985945    29750.497 
 1803000    300.02341   -1022.0377   -23067.769   -24952.086     1884.317    1.1610133    30.985945    30.985945    30.985945    29750.497 
 1804000    298.23818   -1525.6456   -23019.006    -24892.11    1873.1048    1.1610133    30.985945    30.985945    30.985945    29750.497 
 1805000    292.46922   -1760.6097   -22998.762   -24835.634    1836.8724    1.1610133    30.985945    30.985945    30.985945    29750.497 
 1806000    309.98322   -1650.3202    -22982.59    -24929.46    1946.8703    1.1610133    30.985945    30.985945    30.985945    29750.497 
 1807000    299.61096   -680.59016   -23096.356   -24978.082    1881.7267    1.1610133    30.985945    30.985945    30.985945    29750.497 
 1808000    292.73992   -1722.0201   -23124.992   -24963.565    1838.5726    1.1610133    30.985945    30.985945    30.985945    29750.497 
 1809000     296.2315   -1667.4703   -23180.077   -25040.579    1860.5017    1.1610133    30.985945    30.985945    30.985945    29750.497 
 1810000    286.61493   -1799.6214   -23111.192   -24911.296    1800.1042    1.1610133    30.985945    30.985945    30.985945    29750.497 
 1811000    301.86549   -1532.8079   -23085.366   -24981.252    1895.8864    1.1610133    30.985945    30.985945    30.985945    29750.497 
 1812000    297.03611   -1916.9014   -23078.369   -24943.924    1865.5551    1.1610133    30.985945    30.985945    30.985945    29750.497 
 1813000    301.76948     -1607.84   -23046.451   -24941.734    1895.2834    1.1610133    30.985945    30.985945    30.985945    29750.497 
 1814000    303.96849   -1620.3044   -23036.233   -24945.327    1909.0944    1.1610133    30.985945    30.985945    30.985945    29750.497 
 1815000    305.77324   -1716.7696   -23048.189   -24968.618    1920.4293    1.1610133    30.985945    30.985945    30.985945    29750.497 
 1816000    299.21418   -1279.8334   -23042.879   -24922.113    1879.2347    1.1610133    30.985945    30.985945    30.985945    29750.497 
 1817000       295.26   -1793.2631   -23088.007   -24942.407    1854.4002    1.1610133    30.985945    30.985945    30.985945    29750.497 
 1818000    296.74241   -776.54234   -22953.877   -24817.588    1863.7105    1.1610133    30.985945    30.985945    30.985945    29750.497 
 1819000    299.15039   -843.40948   -23041.506    -24920.34     1878.834    1.1610133    30.985945    30.985945    30.985945    29750.497 
 1820000    296.32344   -1280.5463   -22956.937   -24818.016    1861.0792    1.1610133    30.985945    30.985945    30.985945    29750.497 
 1821000    302.09121   -416.22311   -22944.147   -24841.451     1897.304    1.1610133    30.985945    30.985945    30.985945    29750.497 
 1822000    292.77167   -1635.3528   -23070.984   -24909.756     1838.772    1.1610133    30.985945    30.985945    30.985945    29750.497 
 1823000    301.04376   -1353.2485   -23006.831   -24897.556    1890.7254    1.1610133    30.985945    30.985945    30.985945    29750.497 
 1824000     299.2265   -2202.1986   -23058.526   -24937.838     1879.312    1.1610133    30.985945    30.985945    30.985945    29750.497 
 1825000    299.15725   -1000.2346   -23007.872   -24886.749    1878.8771    1.1610133    30.985945    30.985945    30.985945    29750.497 
 1826000    304.68463   -1513.4627   -23030.531   -24944.124    1913.5922    1.1610133    30.985945    30.985945    30.985945    29750.497 
 1827000    296.24091   -1176.5205   -23084.713   -24945.274    1860.5608    1.1610133    30.985945    30.985945    30.985945    29750.497 
 1828000    297.76661   -1378.9191   -23007.109   -24877.252    1870.1431    1.1610133    30.985945    30.985945    30.985945    29750.497 
 1829000    298.93027   -1286.2889    -23073.49   -24950.941    1877.4515    1.1610133    30.985945    30.985945    30.985945    29750.497 
 1830000    302.41276   -1340.9897   -22982.788   -24882.111    1899.3235    1.1610133    30.985945    30.985945    30.985945    29750.497 
 1831000    297.13307   -2156.0976   -23049.626    -24915.79    1866.1641    1.1610133    30.985945    30.985945    30.985945    29750.497 
 1832000    301.73659    -1403.989   -22995.002   -24890.079    1895.0768    1.1610133    30.985945    30.985945    30.985945    29750.497 
 1833000    295.70533   -1313.6196    -23084.31   -24941.507     1857.197    1.1610133    30.985945    30.985945    30.985945    29750.497 
 1834000     289.9058    -1357.121   -23090.964   -24911.736    1820.7727    1.1610133    30.985945    30.985945    30.985945    29750.497 
 1835000    298.12975   -1340.3757   -23104.082   -24976.506    1872.4238    1.1610133    30.985945    30.985945    30.985945    29750.497 
 1836000    304.08249   -1387.9661   -23114.363   -25024.173    1909.8104    1.1610133    30.985945    30.985945    30.985945    29750.497 
 1837000    304.26486     -1642.07   -23014.861   -24925.816    1910.9558    1.1610133    30.985945    30.985945    30.985945    29750.497 
 1838000    301.53849   -657.37854    -23039.68   -24933.513    1893.8326    1.1610133    30.985945    30.985945    30.985945    29750.497 
 1839000    299.88225   -953.78017   -23027.782   -24911.213    1883.4305    1.1610133    30.985945    30.985945    30.985945    29750.497 
 1840000    300.88363   -1931.5192   -22994.265   -24883.984    1889.7197    1.1610133    30.985945    30.985945    30.985945    29750.497 
 1841000    299.15133   -1318.4901   -22966.233   -24845.073    1878.8399    1.1610133    30.985945    30.985945    30.985945    29750.497 
 1842000     305.5006   -2178.3783   -22926.979   -24845.696    1918.7169    1.1610133    30.985945    30.985945    30.985945    29750.497 
 1843000    298.30121   -1948.1016    -23091.72   -24965.221    1873.5007    1.1610133    30.985945    30.985945    30.985945    29750.497 
 1844000    289.60211   -1312.1974   -23164.957   -24983.823    1818.8654    1.1610133    30.985945    30.985945    30.985945    29750.497 
 1845000    297.39484   -1189.0061   -23146.309   -25014.117    1867.8082    1.1610133    30.985945    30.985945    30.985945    29750.497 
 1846000    296.67966   -1806.3689    -23031.27   -24894.586    1863.3164    1.1610133    30.985945    30.985945    30.985945    29750.497 
 1847000    289.73374   -1761.8952   -23049.797   -24869.489    1819.6921    1.1610133    30.985945    30.985945    30.985945    29750.497 
 1848000    288.33087   -1512.6137   -23175.404   -24986.285    1810.8813    1.1610133    30.985945    30.985945    30.985945    29750.497 
 1849000    303.45909   -1656.0494   -23134.176   -25040.071    1905.8951    1.1610133    30.985945    30.985945    30.985945    29750.497 
 1850000    299.70949   -2385.5093   -23155.807   -25038.152    1882.3455    1.1610133    30.985945    30.985945    30.985945    29750.497 
 1851000    301.95842   -1687.0768   -23116.142   -25012.612      1896.47    1.1610133    30.985945    30.985945    30.985945    29750.497 
 1852000    297.31078    -1665.759   -23183.235   -25050.516    1867.2802    1.1610133    30.985945    30.985945    30.985945    29750.497 
 1853000    293.24694   -2190.5438   -23159.391   -25001.148     1841.757    1.1610133    30.985945    30.985945    30.985945    29750.497 
 1854000    301.48495   -2488.0537   -23084.485   -24977.982    1893.4964    1.1610133    30.985945    30.985945    30.985945    29750.497 
 1855000    300.90249   -2327.9578    -23150.52   -25040.358    1889.8382    1.1610133    30.985945    30.985945    30.985945    29750.497 
 1856000    303.23703   -2473.9384   -23116.706   -25021.207    1904.5004    1.1610133    30.985945    30.985945    30.985945    29750.497 
 1857000    286.54546   -2657.6172   -23229.566   -25029.233    1799.6679    1.1610133    30.985945    30.985945    30.985945    29750.497 
 1858000     308.6481   -1245.4552   -23042.535    -24981.02     1938.485    1.1610133    30.985945    30.985945    30.985945    29750.497 
 1859000    296.45993   -1299.9166   -23131.913    -24993.85    1861.9364    1.1610133    30.985945    30.985945    30.985945    29750.497 
 1860000    295.18042   -3015.0184   -23131.384   -24985.285    1853.9003    1.1610133    30.985945    30.985945    30.985945    29750.497 
 1861000     296.9469   -2260.9668   -23144.035    -25009.03    1864.9949    1.1610133    30.985945    30.985945    30.985945    29750.497 
 1862000    314.45836   -1561.4089   -22986.316   -24961.293    1974.9767    1.1610133    30.985945    30.985945    30.985945    29750.497 
 1863000    296.34943   -1836.2685   -23134.709   -24995.952    1861.2424    1.1610133    30.985945    30.985945    30.985945    29750.497 
 1864000    300.31456   -1879.6803   -23114.975    -25001.12    1886.1457    1.1610133    30.985945    30.985945    30.985945    29750.497 
 1865000    306.11791   -1418.1797   -22975.264   -24897.858     1922.594    1.1610133    30.985945    30.985945    30.985945    29750.497 
 1866000    294.88239   -2538.8354   -23048.581    -24900.61    1852.0285    1.1610133    30.985945    30.985945    30.985945    29750.497 
 1867000    301.29436   -2296.5732   -22965.141   -24857.441    1892.2994    1.1610133    30.985945    30.985945    30.985945    29750.497 
 1868000    306.16953   -2482.2795   -23012.301   -24935.219    1922.9182    1.1610133    30.985945    30.985945    30.985945    29750.497 
 1869000    293.76645   -1606.1515   -23085.691    -24930.71    1845.0198    1.1610133    30.985945    30.985945    30.985945    29750.497 
 1870000     298.2548    -1289.925   -23069.816   -24943.025    1873.2092    1.1610133    30.985945    30.985945    30.985945    29750.497 
 1871000    299.52709   -2637.0363   -23146.095   -25027.295    1881.1999    1.1610133    30.985945    30.985945    30.985945    29750.497 
 1872000     296.7119   -2211.3501   -23127.469   -24990.988    1863.5189    1.1610133    30.985945    30.985945    30.985945    29750.497 
 1873000    299.01634   -1531.6269   -23096.096   -24974.089    1877.9921    1.1610133    30.985945    30.985945    30.985945    29750.497 
 1874000    303.66723   -2423.4263   -23042.714   -24949.916    1907.2023    1.1610133    30.985945    30.985945    30.985945    29750.497 
 1875000    297.33148   -2266.1964   -23091.034   -24958.444    1867.4102    1.1610133    30.985945    30.985945    30.985945    29750.497 
 1876000    295.22342   -1270.1976   -23031.803   -24885.973    1854.1704    1.1610133    30.985945    30.985945    30.985945    29750.497 
 1877000    292.43203   -1409.3522   -23033.298   -24869.937    1836.6389    1.1610133    30.985945    30.985945    30.985945    29750.497 
 1878000    305.89393   -1956.8567   -23061.693    -24982.88    1921.1872    1.1610133    30.985945    30.985945    30.985945    29750.497 
 1879000    294.80971   -1437.9616   -23106.126   -24957.698    1851.5721    1.1610133    30.985945    30.985945    30.985945    29750.497 
 1880000     308.0694   -1274.5112   -23036.848   -24971.698    1934.8505    1.1610133    30.985945    30.985945    30.985945    29750.497 
 1881000    293.61109     -605.327    -23198.43   -25042.475    1844.0441    1.1610133    30.985945    30.985945    30.985945    29750.497 
 1882000    302.31836   -863.26014   -23049.844   -24948.574    1898.7307    1.1610133    30.985945    30.985945    30.985945    29750.497 
 1883000    308.59136   -1355.8698   -23000.129   -24938.257    1938.1287    1.1610133    30.985945    30.985945    30.985945    29750.497 
 1884000    300.16475   -1294.0871   -23076.964   -24962.168    1885.2047    1.1610133    30.985945    30.985945    30.985945    29750.497 
 1885000    297.80176   -1914.7999     -23068.3   -24938.664    1870.3638    1.1610133    30.985945    30.985945    30.985945    29750.497 
 1886000    290.81962   -1921.7314   -23128.449   -24954.961    1826.5121    1.1610133    30.985945    30.985945    30.985945    29750.497 
 1887000     305.7781   -1804.3209    -23016.57    -24937.03    1920.4598    1.1610133    30.985945    30.985945    30.985945    29750.497 
 1888000     296.5459   -2381.9077   -23066.516   -24928.993    1862.4763    1.1610133    30.985945    30.985945    30.985945    29750.497 
 1889000    306.31079   -723.64999   -23033.266   -24957.072    1923.8054    1.1610133    30.985945    30.985945    30.985945    29750.497 
 1890000    298.66857   -1311.9539   -23089.018   -24964.826    1875.8079    1.1610133    30.985945    30.985945    30.985945    29750.497 
 1891000    285.44977   -1404.3341   -23076.161   -24868.947    1792.7863    1.1610133    30.985945    30.985945    30.985945    29750.497 
 1892000    313.03948   -2030.2988   -22974.257   -24940.322    1966.0654    1.1610133    30.985945    30.985945    30.985945    29750.497 
 1893000    295.95024   -557.67395   -23126.573   -24985.308    1858.7352    1.1610133    30.985945    30.985945    30.985945    29750.497 
 1894000    297.25823   -2484.8433   -23103.543   -24970.494    1866.9501    1.1610133    30.985945    30.985945    30.985945    29750.497 
 1895000    299.75406   -828.23665   -23081.851   -24964.476    1882.6254    1.1610133    30.985945    30.985945    30.985945    29750.497 
 1896000    301.46593   -1296.5603   -23033.708   -24927.085    1893.3769    1.1610133    30.985945    30.985945    30.985945    29750.497 
 1897000    304.80483   -1723.3313    -23057.92   -24972.267    1914.3471    1.1610133    30.985945    30.985945    30.985945    29750.497 
 1898000    304.05165   -1332.0722   -23009.363   -24918.979    1909.6167    1.1610133    30.985945    30.985945    30.985945    29750.497 
 1899000    297.94265    -2245.838   -23032.391    -24903.64    1871.2487    1.1610133    30.985945    30.985945    30.985945    29750.497 
 1900000    298.21828   -594.65479   -23024.077   -24897.056    1872.9798    1.1610133    30.985945    30.985945    30.985945    29750.497 
 1901000    299.55025   -807.11854   -22985.953   -24867.299    1881.3453    1.1610133    30.985945    30.985945    30.985945    29750.497 
 1902000    305.63275   -1323.2659   -22934.034   -24853.581    1919.5469    1.1610133    30.985945    30.985945    30.985945    29750.497 
 1903000    295.83997   -979.66888   -23092.623   -24950.665    1858.0427    1.1610133    30.985945    30.985945    30.985945    29750.497 
 1904000    292.57507   -232.24496    -23065.31   -24902.847    1837.5373    1.1610133    30.985945    30.985945    30.985945    29750.497 
 1905000    296.37536   -1120.6939   -23087.823   -24949.228    1861.4052    1.1610133    30.985945    30.985945    30.985945    29750.497 
 1906000    300.05568   -1307.3335   -23043.388   -24927.907    1884.5197    1.1610133    30.985945    30.985945    30.985945    29750.497 
 1907000    299.13876   -1808.2759   -23009.966   -24888.727    1878.7609    1.1610133    30.985945    30.985945    30.985945    29750.497 
 1908000    295.82187   -2448.7044   -23135.567   -24993.496     1857.929    1.1610133    30.985945    30.985945    30.985945    29750.497 
 1909000    296.47924   -1510.0039   -23113.431   -24975.489    1862.0576    1.1610133    30.985945    30.985945    30.985945    29750.497 
 1910000    288.86163   -1858.9081   -23088.173   -24902.388    1814.2147    1.1610133    30.985945    30.985945    30.985945    29750.497 
 1911000    307.00376   -1383.5325   -23092.557   -25020.715    1928.1576    1.1610133    30.985945    30.985945    30.985945    29750.497 
 1912000    297.14586   -1879.8677   -23116.906    -24983.15    1866.2444    1.1610133    30.985945    30.985945    30.985945    29750.497 
 1913000    291.90986   -2203.3515   -23168.336   -25001.696    1833.3594    1.1610133    30.985945    30.985945    30.985945    29750.497 
 1914000    292.11065   -1573.0915   -23084.902   -24919.523    1834.6205    1.1610133    30.985945    30.985945    30.985945    29750.497 
 1915000    300.34568   -2365.7435   -23104.492   -24990.833    1886.3411    1.1610133    30.985945    30.985945    30.985945    29750.497 
 1916000    296.20745    -2177.903   -23143.247   -25003.598    1860.3507    1.1610133    30.985945    30.985945    30.985945    29750.497 
 1917000    294.75045   -2511.9304    -23124.45    -24975.65    1851.1999    1.1610133    30.985945    30.985945    30.985945    29750.497 
 1918000    296.42331   -1708.1712   -23149.576   -25011.282    1861.7064    1.1610133    30.985945    30.985945    30.985945    29750.497 
 1919000    291.07007   -1522.3876   -23011.905    -24839.99     1828.085    1.1610133    30.985945    30.985945    30.985945    29750.497 
 1920000     299.8749   -2223.6189   -23043.295   -24926.679    1883.3843    1.1610133    30.985945    30.985945    30.985945    29750.497 
 1921000    297.74092   -358.54293   -23088.898   -24958.879    1869.9817    1.1610133    30.985945    30.985945    30.985945    29750.497 
 1922000     306.4855   -1966.8802   -22992.986   -24917.889    1924.9027    1.1610133    30.985945    30.985945    30.985945    29750.497 
 1923000    299.98624   -1643.7577   -23118.084   -25002.168    1884.0836    1.1610133    30.985945    30.985945    30.985945    29750.497 
 1924000    295.40727     -1719.51   -23040.776   -24896.101    1855.3251    1.1610133    30.985945    30.985945    30.985945    29750.497 
 1925000    307.46514   -1249.8704   -23075.054    -25006.11    1931.0554    1.1610133    30.985945    30.985945    30.985945    29750.497 
 1926000    303.64905   -1779.2976   -22973.793   -24880.881    1907.0881    1.1610133    30.985945    30.985945    30.985945    29750.497 
 1927000    299.21972   -2854.7119   -23065.461   -24944.731    1879.2694    1.1610133    30.985945    30.985945    30.985945    29750.497 
 1928000     301.4134   -2252.8783   -23112.262   -25005.309     1893.047    1.1610133    30.985945    30.985945    30.985945    29750.497 
 1929000    304.57669   -1708.5727   -23121.498   -25034.412    1912.9142    1.1610133    30.985945    30.985945    30.985945    29750.497 
 1930000    291.95739   -1166.0041   -23087.324   -24920.982    1833.6579    1.1610133    30.985945    30.985945    30.985945    29750.497 
 1931000    305.01224   -1953.2163    -22997.16    -24912.81    1915.6497    1.1610133    30.985945    30.985945    30.985945    29750.497 
 1932000    298.23463   -2414.0712   -23071.962   -24945.045    1873.0825    1.1610133    30.985945    30.985945    30.985945    29750.497 
 1933000    296.19542   -1496.8358   -23112.642   -24972.917    1860.2751    1.1610133    30.985945    30.985945    30.985945    29750.497 
 1934000    295.66126   -2081.3236   -23175.678   -25032.598    1856.9203    1.1610133    30.985945    30.985945    30.985945    29750.497 
 1935000    305.09738   -1917.3518   -22969.333   -24885.518    1916.1845    1.1610133    30.985945    30.985945    30.985945    29750.497 
 1936000    297.28451   -1904.9482   -23076.381   -24943.496    1867.1152    1.1610133    30.985945    30.985945    30.985945    29750.497 
 1937000     303.7908     -2252.42   -23069.734   -24977.712    1907.9784    1.1610133    30.985945    30.985945    30.985945    29750.497 
 1938000    296.22137   -2635.2488   -23048.141   -24908.579    1860.4381    1.1610133    30.985945    30.985945    30.985945    29750.497 
 1939000     294.0259   -2081.7308   -23084.917   -24931.566    1846.6493    1.1610133    30.985945    30.985945    30.985945    29750.497 
 1940000    298.80946   -1477.3211   -23083.297   -24959.989    1876.6928    1.1610133    30.985945    30.985945    30.985945    29750.497 
 1941000    299.52545   -1490.1744    -23088.38   -24969.569    1881.1896    1.1610133    30.985945    30.985945    30.985945    29750.497 
 1942000    307.10624   -1922.6661   -22946.681   -24875.483    1928.8013    1.1610133    30.985945    30.985945    30.985945    29750.497 
 1943000    296.85259   -1773.5158   -23096.042   -24960.444    1864.4025    1.1610133    30.985945    30.985945    30.985945    29750.497 
 1944000    299.12522   -1525.6325   -23135.612   -25014.288    1878.6759    1.1610133    30.985945    30.985945    30.985945    29750.497 
 1945000    292.67841    -2526.038   -23052.675   -24890.862    1838.1863    1.1610133    30.985945    30.985945    30.985945    29750.497 
 1946000     294.8927   -1850.5487   -23122.776   -24974.869    1852.0933    1.1610133    30.985945    30.985945    30.985945    29750.497 
 1947000    303.57677   -1325.8971   -23081.825   -24988.459    1906.6342    1.1610133    30.985945    30.985945    30.985945    29750.497 
 1948000    306.16273   -1887.0199   -23069.151   -24992.027    1922.8754    1.1610133    30.985945    30.985945    30.985945    29750.497 
 1949000    292.29947   -2766.7906   -23098.687   -24934.493    1835.8063    1.1610133    30.985945    30.985945    30.985945    29750.497 
 1950000    285.57509   -1665.4827   -23081.581   -24875.154    1793.5734    1.1610133    30.985945    30.985945    30.985945    29750.497 
 1951000    301.99659   -1614.6707   -23066.189   -24962.899    1896.7097    1.1610133    30.985945    30.985945    30.985945    29750.497 
 1952000    313.70006   -1737.5082       -22945   -24915.214    1970.2142    1.1610133    30.985945    30.985945    30.985945    29750.497 
 1953000    294.12934   -1834.9652   -23120.072   -24967.371     1847.299    1.1610133    30.985945    30.985945    30.985945    29750.497 
 1954000    299.80016   -1294.9666   -23039.175    -24922.09    1882.9149    1.1610133    30.985945    30.985945    30.985945    29750.497 
 1955000    294.69572   -2527.1608   -23091.728   -24942.584    1850.8561    1.1610133    30.985945    30.985945    30.985945    29750.497 
 1956000    296.47437    -1503.667   -23122.959   -24984.987    1862.0271    1.1610133    30.985945    30.985945    30.985945    29750.497 
 1957000    300.90798   -1287.7595   -23161.945   -25051.818    1889.8727    1.1610133    30.985945    30.985945    30.985945    29750.497 
 1958000    298.27795   -1288.1096   -23073.091   -24946.446    1873.3546    1.1610133    30.985945    30.985945    30.985945    29750.497 
 1959000    300.33584   -740.07424   -23094.401    -24980.68    1886.2793    1.1610133    30.985945    30.985945    30.985945    29750.497 
 1960000    309.60191   -1883.6334   -23008.523   -24952.998    1944.4755    1.1610133    30.985945    30.985945    30.985945    29750.497 
 1961000    292.32306   -1651.8687   -23097.122   -24933.076    1835.9545    1.1610133    30.985945    30.985945    30.985945    29750.497 
 1962000    299.03826    -1240.527   -23079.413   -24957.543    1878.1298    1.1610133    30.985945    30.985945    30.985945    29750.497 
 1963000    294.24571   -1921.8869   -23159.403   -25007.433    1848.0298    1.1610133    30.985945    30.985945    30.985945    29750.497 
 1964000     299.6248   -1826.4349   -23022.619   -24904.432    1881.8136    1.1610133    30.985945    30.985945    30.985945    29750.497 
 1965000    306.34485   -2037.8954   -23054.331    -24978.35    1924.0193    1.1610133    30.985945    30.985945    30.985945    29750.497 
 1966000    296.17015   -1668.5557    -22973.76   -24833.876    1860.1164    1.1610133    30.985945    30.985945    30.985945    29750.497 
 1967000    301.06203   -1801.3062   -22932.968   -24823.808    1890.8402    1.1610133    30.985945    30.985945    30.985945    29750.497 
 1968000    297.29856   -1501.8087   -23109.494   -24976.697    1867.2035    1.1610133    30.985945    30.985945    30.985945    29750.497 
 1969000    298.13354   -967.42557   -23066.234   -24938.682    1872.4476    1.1610133    30.985945    30.985945    30.985945    29750.497 
 1970000    301.02221   -1633.2419   -23011.718   -24902.309    1890.5901    1.1610133    30.985945    30.985945    30.985945    29750.497 
 1971000    298.59205   -1794.4675   -23057.414   -24932.742    1875.3273    1.1610133    30.985945    30.985945    30.985945    29750.497 
 1972000     298.1665   -975.74215     -23041.7   -24914.355    1872.6546    1.1610133    30.985945    30.985945    30.985945    29750.497 
 1973000    297.56386   -998.48102   -23074.798   -24943.668    1868.8697    1.1610133    30.985945    30.985945    30.985945    29750.497 
 1974000    287.53638   -2115.8948   -23160.466   -24966.358    1805.8915    1.1610133    30.985945    30.985945    30.985945    29750.497 
 1975000    300.79001   -1258.9014    -23036.81   -24925.942    1889.1318    1.1610133    30.985945    30.985945    30.985945    29750.497 
 1976000    293.10113   -1605.8811   -23073.775   -24914.616    1840.8412    1.1610133    30.985945    30.985945    30.985945    29750.497 
 1977000    298.63576   -1207.6062   -23170.482   -25046.084    1875.6019    1.1610133    30.985945    30.985945    30.985945    29750.497 
 1978000    300.52651   -1198.6906   -22958.933    -24846.41    1887.4768    1.1610133    30.985945    30.985945    30.985945    29750.497 
 1979000    297.51011   -1653.0077   -23066.968     -24935.5    1868.5321    1.1610133    30.985945    30.985945    30.985945    29750.497 
 1980000    303.53985   -2075.2326   -23007.325   -24913.728    1906.4023    1.1610133    30.985945    30.985945    30.985945    29750.497 
 1981000    294.72047    -1481.338   -23097.711   -24948.723    1851.0116    1.1610133    30.985945    30.985945    30.985945    29750.497 
 1982000    299.31748   -2098.9722   -23050.348   -24930.232    1879.8834    1.1610133    30.985945    30.985945    30.985945    29750.497 
 1983000    294.77966   -1873.7281   -23170.833   -25022.216    1851.3833    1.1610133    30.985945    30.985945    30.985945    29750.497 
 1984000    295.40424    -1728.964   -23083.693   -24938.999    1855.3061    1.1610133    30.985945    30.985945    30.985945    29750.497 
 1985000     296.4596   -1493.1887   -23102.495   -24964.429    1861.9343    1.1610133    30.985945    30.985945    30.985945    29750.497 
 1986000    295.48997   -1594.2375   -23122.321   -24978.165    1855.8445    1.1610133    30.985945    30.985945    30.985945    29750.497 
 1987000    297.61272   -1389.6933    -23001.31   -24870.487    1869.1766    1.1610133    30.985945    30.985945    30.985945    29750.497 
 1988000    290.58673   -1033.3837   -23096.909   -24921.958    1825.0494    1.1610133    30.985945    30.985945    30.985945    29750.497 
 1989000    297.89945   -598.20148    -23125.78   -24996.758    1870.9774    1.1610133    30.985945    30.985945    30.985945    29750.497 
 1990000    297.32106   -1516.7343   -23135.213   -25002.557    1867.3448    1.1610133    30.985945    30.985945    30.985945    29750.497 
 1991000     298.6607   -907.25067   -23142.085   -25017.843    1875.7584    1.1610133    30.985945    30.985945    30.985945    29750.497 
 1992000    302.76095   -2033.3774   -23005.653   -24907.163    1901.5104    1.1610133    30.985945    30.985945    30.985945    29750.497 
 1993000    294.80019     -2176.29    -23069.63   -24921.142    1851.5123    1.1610133    30.985945    30.985945    30.985945    29750.497 
 1994000    297.23146   -1347.1567   -23141.994   -25008.777     1866.782    1.1610133    30.985945    30.985945    30.985945    29750.497 
 1995000    293.24833   -776.32558   -23048.011   -24889.776    1841.7657    1.1610133    30.985945    30.985945    30.985945    29750.497 
 1996000    299.62293    -1671.146   -23022.556   -24904.357    1881.8018    1.1610133    30.985945    30.985945    30.985945    29750.497 
 1997000    300.46204   -2222.3199   -23028.482   -24915.554    1887.0719    1.1610133    30.985945    30.985945    30.985945    29750.497 
 1998000    303.26468   -1292.1769    -23036.82   -24941.494    1904.6741    1.1610133    30.985945    30.985945    30.985945    29750.497 
 1999000    302.60545   -1554.5918   -23055.552   -24956.086    1900.5338    1.1610133    30.985945    30.985945    30.985945    29750.497 
 2000000    302.36771   -1320.3375   -23113.805   -25012.846    1899.0406    1.1610133    30.985945    30.985945    30.985945    29750.497 
 2001000    291.91245   -1785.5054   -23102.601   -24935.977    1833.3757    1.1610133    30.985945    30.985945    30.985945    29750.497 
 2002000    293.58681   -2222.4095    -23080.71   -24924.601    1843.8915    1.1610133    30.985945    30.985945    30.985945    29750.497 
 2003000    295.40441   -1634.9929   -23059.549   -24914.856    1855.3071    1.1610133    30.985945    30.985945    30.985945    29750.497 
 2004000    294.39571   -1606.7359   -23050.451   -24899.423    1848.9719    1.1610133    30.985945    30.985945    30.985945    29750.497 
 2005000    298.03294   -1130.3517   -23162.483   -25034.299    1871.8158    1.1610133    30.985945    30.985945    30.985945    29750.497 
 2006000     298.4454   -1594.2379   -23210.154    -25084.56    1874.4062    1.1610133    30.985945    30.985945    30.985945    29750.497 
 2007000     302.5506    -1145.892    -23131.72   -25031.909    1900.1892    1.1610133    30.985945    30.985945    30.985945    29750.497 
 2008000    293.64933   -1823.2142   -23166.126    -25010.41    1844.2842    1.1610133    30.985945    30.985945    30.985945    29750.497 
 2009000    300.87482   -1112.7537   -23148.639   -25038.303    1889.6644    1.1610133    30.985945    30.985945    30.985945    29750.497 
 2010000    299.57635   -809.07932   -23180.433   -25061.943    1881.5093    1.1610133    30.985945    30.985945    30.985945    29750.497 
 2011000    298.52885   -1045.3703   -23136.512   -25011.442    1874.9304    1.1610133    30.985945    30.985945    30.985945    29750.497 
 2012000    297.93669   -992.39633   -23151.375   -25022.586    1871.2113    1.1610133    30.985945    30.985945    30.985945    29750.497 
 2013000    299.03301   -1689.8522   -23086.986   -24965.083    1878.0968    1.1610133    30.985945    30.985945    30.985945    29750.497 
 2014000    299.91534   -1483.2533   -23220.657   -25104.296    1883.6383    1.1610133    30.985945    30.985945    30.985945    29750.497 
 2015000    295.35707   -904.70354   -23138.722   -24993.731    1855.0098    1.1610133    30.985945    30.985945    30.985945    29750.497 
 2016000    297.98007   -1496.8085   -23024.254   -24895.737    1871.4837    1.1610133    30.985945    30.985945    30.985945    29750.497 
 2017000    296.22077   -1432.2754   -23154.648   -25015.082    1860.4343    1.1610133    30.985945    30.985945    30.985945    29750.497 
 2018000    299.84269   -1384.2286   -23060.599   -24943.781     1883.182    1.1610133    30.985945    30.985945    30.985945    29750.497 
 2019000     298.8411   -1966.8288   -23091.544   -24968.436    1876.8915    1.1610133    30.985945    30.985945    30.985945    29750.497 
 2020000    296.32112    -2152.566   -23118.435     -24979.5    1861.0646    1.1610133    30.985945    30.985945    30.985945    29750.497 
 2021000     303.1114    -2437.881    -23069.44   -24973.151    1903.7114    1.1610133    30.985945    30.985945    30.985945    29750.497 
 2022000    300.83718   -1552.4715   -23108.716   -24998.144     1889.428    1.1610133    30.985945    30.985945    30.985945    29750.497 
 2023000    297.90561   -820.96338   -23156.829   -25027.845    1871.0161    1.1610133    30.985945    30.985945    30.985945    29750.497 
 2024000    301.27305    -1958.335   -23036.917   -24929.083    1892.1655    1.1610133    30.985945    30.985945    30.985945    29750.497 
 2025000    302.27382   -2112.7285   -23042.441   -24940.892    1898.4509    1.1610133    30.985945    30.985945    30.985945    29750.497 
 2026000    302.87419    -1789.929   -23017.684   -24919.905    1902.2216    1.1610133    30.985945    30.985945    30.985945    29750.497 
 2027000    301.54789    -1439.479   -23066.925   -24960.817    1893.8916    1.1610133    30.985945    30.985945    30.985945    29750.497 
 2028000    295.58925   -956.27649   -23108.992    -24965.46     1856.468    1.1610133    30.985945    30.985945    30.985945    29750.497 
 2029000    294.56637    -1103.012   -23019.638   -24869.682    1850.0438    1.1610133    30.985945    30.985945    30.985945    29750.497 
 2030000    300.05453   -2115.3978   -23071.666   -24956.179    1884.5125    1.1610133    30.985945    30.985945    30.985945    29750.497 
 2031000     290.5315   -1971.6265   -23099.271   -24923.973    1824.7025    1.1610133    30.985945    30.985945    30.985945    29750.497 
 2032000    296.26171   -1270.4803   -23060.997   -24921.688    1860.6915    1.1610133    30.985945    30.985945    30.985945    29750.497 
 2033000    297.59338   -738.71124    -23028.16   -24897.215    1869.0551    1.1610133    30.985945    30.985945    30.985945    29750.497 
 2034000    291.51431   -1120.0184   -23100.386   -24931.262    1830.8751    1.1610133    30.985945    30.985945    30.985945    29750.497 
 2035000    297.61532   -1224.9252   -23107.749   -24976.942    1869.1929    1.1610133    30.985945    30.985945    30.985945    29750.497 
 2036000    297.85748   -1721.9411   -23091.091   -24961.805    1870.7138    1.1610133    30.985945    30.985945    30.985945    29750.497 
 2037000    291.06374   -1609.2046   -23125.885    -24953.93    1828.0452    1.1610133    30.985945    30.985945    30.985945    29750.497 
 2038000    295.29918   -1241.8114   -23164.468   -25019.114    1854.6462    1.1610133    30.985945    30.985945    30.985945    29750.497 
 2039000    304.58703   -1319.7957   -23068.048   -24981.027    1912.9792    1.1610133    30.985945    30.985945    30.985945    29750.497 
 2040000     295.0535    -572.3749   -23189.891   -25042.995    1853.1032    1.1610133    30.985945    30.985945    30.985945    29750.497 
 2041000    311.32928   -1547.1115   -22963.224   -24918.548    1955.3244    1.1610133    30.985945    30.985945    30.985945    29750.497 
 2042000    296.99301   -1339.2992   -23073.425   -24938.709    1865.2844    1.1610133    30.985945    30.985945    30.985945    29750.497 
 2043000    305.92171   -1881.4295   -23066.115   -24987.476    1921.3617    1.1610133    30.985945    30.985945    30.985945    29750.497 
 2044000    298.10933   -2568.9181   -23115.199   -24987.494    1872.2956    1.1610133    30.985945    30.985945    30.985945    29750.497 
 2045000    292.68894   -1543.6945   -23138.769   -24977.021    1838.2524    1.1610133    30.985945    30.985945    30.985945    29750.497 
 2046000    301.39651   -1677.2551   -23071.417   -24964.358    1892.9409    1.1610133    30.985945    30.985945    30.985945    29750.497 
 2047000    308.19109    -841.8997   -23059.282   -24994.896    1935.6147    1.1610133    30.985945    30.985945    30.985945    29750.497 
 2048000    298.75729   -1147.0707   -23105.257   -24981.622    1876.3651    1.1610133    30.985945    30.985945    30.985945    29750.497 
 2049000    303.39449   -1537.0887   -23079.773   -24985.263    1905.4894    1.1610133    30.985945    30.985945    30.985945    29750.497 
 2050000    298.48675   -1334.7357   -23100.998   -24975.664     1874.666    1.1610133    30.985945    30.985945    30.985945    29750.497 
 2051000    306.38745   -1351.8325   -22911.925   -24836.212    1924.2868    1.1610133    30.985945    30.985945    30.985945    29750.497 
 2052000    302.98448   -1001.3161   -23116.797   -25019.711    1902.9143    1.1610133    30.985945    30.985945    30.985945    29750.497 
 2053000    291.57146   -1496.7962   -23156.454   -24987.688     1831.234    1.1610133    30.985945    30.985945    30.985945    29750.497 
 2054000    302.56666   -1050.7569   -23014.872   -24915.162    1900.2901    1.1610133    30.985945    30.985945    30.985945    29750.497 
 2055000    305.19801    -1652.111   -23156.353    -25073.17    1916.8165    1.1610133    30.985945    30.985945    30.985945    29750.497 
 2056000    294.84183   -1161.2042   -23092.332   -24944.105    1851.7738    1.1610133    30.985945    30.985945    30.985945    29750.497 
 2057000    292.41379   -1471.8935   -23115.577   -24952.101    1836.5243    1.1610133    30.985945    30.985945    30.985945    29750.497 
 2058000    288.62659    -1119.456   -23075.923   -24888.661    1812.7385    1.1610133    30.985945    30.985945    30.985945    29750.497 
 2059000    299.87814   -2195.3743   -23069.296     -24952.7    1883.4047    1.1610133    30.985945    30.985945    30.985945    29750.497 
 2060000    301.38792   -1821.3524    -23055.23   -24948.117     1892.887    1.1610133    30.985945    30.985945    30.985945    29750.497 
 2061000    300.91745   -741.91811   -23059.194   -24949.126    1889.9321    1.1610133    30.985945    30.985945    30.985945    29750.497 
 2062000    302.19878   -1566.9312   -23075.129   -24973.109    1897.9796    1.1610133    30.985945    30.985945    30.985945    29750.497 
 2063000    294.96732   -1107.1054   -23092.029   -24944.591    1852.5619    1.1610133    30.985945    30.985945    30.985945    29750.497 
 2064000    292.30311   -1421.6169   -23079.899   -24915.728    1835.8292    1.1610133    30.985945    30.985945    30.985945    29750.497 
 2065000    291.87993   -1867.3137   -23209.092   -25042.263    1833.1714    1.1610133    30.985945    30.985945    30.985945    29750.497 
 2066000    301.38971   -1533.0231   -23065.317   -24958.215    1892.8982    1.1610133    30.985945    30.985945    30.985945    29750.497 
 2067000    292.01036    -1764.989    -23154.43    -24988.42    1833.9906    1.1610133    30.985945    30.985945    30.985945    29750.497 
 2068000    302.85879   -1847.4953   -23066.457   -24968.582    1902.1249    1.1610133    30.985945    30.985945    30.985945    29750.497 
 2069000    290.87806   -2325.5626   -23211.526   -25038.405    1826.8791    1.1610133    30.985945    30.985945    30.985945    29750.497 
 2070000    306.66338   -2068.1602   -23100.543   -25026.563    1926.0198    1.1610133    30.985945    30.985945    30.985945    29750.497 
 2071000    305.23404    -1840.324   -23011.086   -24928.129    1917.0428    1.1610133    30.985945    30.985945    30.985945    29750.497 
 2072000    300.96995   -2851.9925   -23090.097   -24980.358    1890.2619    1.1610133    30.985945    30.985945    30.985945    29750.497 
 2073000    294.04776   -1439.5252   -23069.616   -24916.403    1846.7866    1.1610133    30.985945    30.985945    30.985945    29750.497 
 2074000    303.85219   -2523.8693   -23061.154   -24969.518    1908.3639    1.1610133    30.985945    30.985945    30.985945    29750.497 
 2075000    303.87924   -1128.9024   -23135.102   -25043.636    1908.5339    1.1610133    30.985945    30.985945    30.985945    29750.497 
 2076000    293.00239   -804.21303    -23132.29   -24972.511     1840.221    1.1610133    30.985945    30.985945    30.985945    29750.497 
 2077000    300.28838   -940.62292   -23164.186   -25050.167    1885.9812    1.1610133    30.985945    30.985945    30.985945    29750.497 
 2078000    301.38062   -1443.5885   -23051.208   -24944.049    1892.8411    1.1610133    30.985945    30.985945    30.985945    29750.497 
 2079000    289.94375   -838.38856   -23116.182   -24937.193    1821.0111    1.1610133    30.985945    30.985945    30.985945    29750.497 
 2080000    300.71228   -1279.4316   -23084.743   -24973.387    1888.6436    1.1610133    30.985945    30.985945    30.985945    29750.497 
 2081000     297.0173   -1347.3055   -23083.511   -24948.948     1865.437    1.1610133    30.985945    30.985945    30.985945    29750.497 
 2082000    304.55368   -2523.3328   -23009.275   -24922.044    1912.7697    1.1610133    30.985945    30.985945    30.985945    29750.497 
 2083000     295.2192   -776.99987   -23177.752   -25031.896    1854.1439    1.1610133    30.985945    30.985945    30.985945    29750.497 
 2084000    307.56464   -2009.9962   -23084.374   -25016.054    1931.6802    1.1610133    30.985945    30.985945    30.985945    29750.497 
 2085000    301.39649   -1260.1975   -23022.933   -24915.873    1892.9408    1.1610133    30.985945    30.985945    30.985945    29750.497 
 2086000    293.13442   -1430.6467   -23081.014   -24922.065    1841.0503    1.1610133    30.985945    30.985945    30.985945    29750.497 
 2087000    302.76188    -1229.664   -23128.394    -25029.91    1901.5162    1.1610133    30.985945    30.985945    30.985945    29750.497 
 2088000    303.99716   -1027.3702   -23105.711   -25014.986    1909.2744    1.1610133    30.985945    30.985945    30.985945    29750.497 
 2089000    296.53232     -1287.04    -23087.27   -24949.661     1862.391    1.1610133    30.985945    30.985945    30.985945    29750.497 
 2090000    290.44518   -1566.3386   -23191.923   -25016.083    1824.1603    1.1610133    30.985945    30.985945    30.985945    29750.497 
 2091000    299.03349   -1353.5088   -23094.458   -24972.558    1878.0998    1.1610133    30.985945    30.985945    30.985945    29750.497 
 2092000    291.90825   -2029.0895   -23212.294   -25045.643    1833.3492    1.1610133    30.985945    30.985945    30.985945    29750.497 
 2093000    308.40557   -2278.4968   -22976.555   -24913.517    1936.9618    1.1610133    30.985945    30.985945    30.985945    29750.497 
 2094000     299.0023   -1501.4056   -23144.587   -25022.491    1877.9039    1.1610133    30.985945    30.985945    30.985945    29750.497 
 2095000    288.09986   -1734.9997   -23082.812   -24892.243    1809.4304    1.1610133    30.985945    30.985945    30.985945    29750.497 
 2096000    297.08142   -1865.9507   -23082.423   -24948.263    1865.8397    1.1610133    30.985945    30.985945    30.985945    29750.497 
 2097000    294.18044   -2655.7428   -23169.568   -25017.188    1847.6199    1.1610133    30.985945    30.985945    30.985945    29750.497 
 2098000    286.39707   -1131.9308   -23149.373   -24948.109    1798.7359    1.1610133    30.985945    30.985945    30.985945    29750.497 
 2099000    288.55649   -2336.1334   -23133.699   -24945.997    1812.2983    1.1610133    30.985945    30.985945    30.985945    29750.497 
 2100000     297.0048   -1032.8455   -23078.949   -24944.308    1865.3585    1.1610133    30.985945    30.985945    30.985945    29750.497 
 2101000    292.80222   -1672.1045   -23218.288   -25057.252    1838.9639    1.1610133    30.985945    30.985945    30.985945    29750.497 
 2102000    306.43134   -2264.0395   -23098.343   -25022.906    1924.5625    1.1610133    30.985945    30.985945    30.985945    29750.497 
 2103000    310.03298   -1421.1053   -23122.052   -25069.235    1947.1828    1.1610133    30.985945    30.985945    30.985945    29750.497 
 2104000    294.95822   -969.18258   -23063.676   -24916.181    1852.5048    1.1610133    30.985945    30.985945    30.985945    29750.497 
 2105000    302.67647   -1231.9164   -23245.149   -25146.129    1900.9798    1.1610133    30.985945    30.985945    30.985945    29750.497 
 2106000    295.58871   -1602.7208   -22995.158   -24851.623    1856.4646    1.1610133    30.985945    30.985945    30.985945    29750.497 
 2107000    308.64061   -1249.1057   -23100.837   -25039.275     1938.438    1.1610133    30.985945    30.985945    30.985945    29750.497 
 2108000    295.45646   -1819.8264   -23197.611   -25053.245     1855.634    1.1610133    30.985945    30.985945    30.985945    29750.497 
 2109000    302.66051   -1305.7973    -23119.06    -25019.94    1900.8796    1.1610133    30.985945    30.985945    30.985945    29750.497 
 2110000    288.42575   -2369.4306   -23269.145   -25080.622    1811.4772    1.1610133    30.985945    30.985945    30.985945    29750.497 
 2111000    302.87422   -1067.1628   -23041.719   -24943.941    1902.2217    1.1610133    30.985945    30.985945    30.985945    29750.497 
 2112000    299.33997   -1702.8883   -23063.649   -24943.674    1880.0247    1.1610133    30.985945    30.985945    30.985945    29750.497 
 2113000    295.45682   -310.17815   -23078.699   -24934.335    1855.6363    1.1610133    30.985945    30.985945    30.985945    29750.497 
 2114000    302.77778   -2134.4358   -23103.281   -25004.897     1901.616    1.1610133    30.985945    30.985945    30.985945    29750.497 
 2115000    297.21357   -1017.3836   -23113.023   -24979.693    1866.6697    1.1610133    30.985945    30.985945    30.985945    29750.497 
 2116000    300.18708   -2684.0747   -23109.939   -24995.284     1885.345    1.1610133    30.985945    30.985945    30.985945    29750.497 
 2117000    292.17849   -1119.4253   -23125.701   -24960.747    1835.0465    1.1610133    30.985945    30.985945    30.985945    29750.497 
 2118000    303.77713   -1253.1185   -23069.072   -24976.964    1907.8925    1.1610133    30.985945    30.985945    30.985945    29750.497 
 2119000     298.2673   -2287.1248   -23097.466   -24970.754    1873.2877    1.1610133    30.985945    30.985945    30.985945    29750.497 
 2120000    298.12673   -1359.8304   -23098.394   -24970.799    1872.4048    1.1610133    30.985945    30.985945    30.985945    29750.497 
 2121000    299.85297   -1959.9461   -23105.475   -24988.722    1883.2466    1.1610133    30.985945    30.985945    30.985945    29750.497 
 2122000    299.35417   -1613.9791   -23074.445   -24954.559    1880.1138    1.1610133    30.985945    30.985945    30.985945    29750.497 
 2123000    292.23511   -1456.7028   -23118.195   -24953.597    1835.4021    1.1610133    30.985945    30.985945    30.985945    29750.497 
 2124000    284.01765   -1225.9478   -23209.995   -24993.786    1783.7918    1.1610133    30.985945    30.985945    30.985945    29750.497 
 2125000    293.03914   -1646.1415   -23218.108    -25058.56    1840.4519    1.1610133    30.985945    30.985945    30.985945    29750.497 
 2126000    303.03923   -2038.1521   -23073.934   -24977.192    1903.2581    1.1610133    30.985945    30.985945    30.985945    29750.497 
 2127000    302.14788   -1827.7417   -23138.143   -25035.802      1897.66    1.1610133    30.985945    30.985945    30.985945    29750.497 
 2128000    298.59406   -2094.3983   -23098.262   -24973.602      1875.34    1.1610133    30.985945    30.985945    30.985945    29750.497 
 2129000    300.48853   -2276.8339   -22991.706   -24878.944    1887.2383    1.1610133    30.985945    30.985945    30.985945    29750.497 
 2130000    295.34118   -2072.4617   -23125.113   -24980.023      1854.91    1.1610133    30.985945    30.985945    30.985945    29750.497 
 2131000    292.31657   -1639.3817   -23119.551   -24955.465    1835.9137    1.1610133    30.985945    30.985945    30.985945    29750.497 
 2132000    293.94804    -1215.839   -23075.343   -24921.503    1846.1603    1.1610133    30.985945    30.985945    30.985945    29750.497 
 2133000    295.95598   -2068.5714   -23077.521   -24936.292    1858.7713    1.1610133    30.985945    30.985945    30.985945    29750.497 
 2134000      294.159   -1785.2438    -23070.57   -24918.055    1847.4852    1.1610133    30.985945    30.985945    30.985945    29750.497 
 2135000    302.48119   -1440.5571   -22961.637   -24861.391    1899.7533    1.1610133    30.985945    30.985945    30.985945    29750.497 
 2136000    294.38033   -1670.9557   -23077.761   -24926.636    1848.8753    1.1610133    30.985945    30.985945    30.985945    29750.497 
 2137000    293.19152   -2852.6703   -23035.669   -24877.078    1841.4089    1.1610133    30.985945    30.985945    30.985945    29750.497 
 2138000    296.01828   -2422.2451    -23041.21   -24900.373    1859.1626    1.1610133    30.985945    30.985945    30.985945    29750.497 
 2139000    303.29492   -841.87254   -23059.195   -24964.059     1904.864    1.1610133    30.985945    30.985945    30.985945    29750.497 
 2140000    292.22758   -1602.8004   -23116.057   -24951.411    1835.3548    1.1610133    30.985945    30.985945    30.985945    29750.497 
 2141000    292.44904   -1373.5121   -23118.873   -24955.618    1836.7457    1.1610133    30.985945    30.985945    30.985945    29750.497 
 2142000    298.26284   -1748.8615   -23147.866   -25021.126    1873.2597    1.1610133    30.985945    30.985945    30.985945    29750.497 
 2143000    296.92729   -1041.9895   -23075.559    -24940.43    1864.8717    1.1610133    30.985945    30.985945    30.985945    29750.497 
 2144000    303.70648   -586.46266   -23033.026   -24940.475    1907.4488    1.1610133    30.985945    30.985945    30.985945    29750.497 
 2145000    302.46213   -1434.0482   -23111.421   -25011.055    1899.6336    1.1610133    30.985945    30.985945    30.985945    29750.497 
 2146000    291.76572   -2037.1409   -23166.874   -24999.328    1832.4541    1.1610133    30.985945    30.985945    30.985945    29750.497 
 2147000    296.46901   -1507.2097   -23065.442   -24927.436    1861.9934    1.1610133    30.985945    30.985945    30.985945    29750.497 
 2148000    313.59979    -1426.642    -22967.23   -24936.814    1969.5844    1.1610133    30.985945    30.985945    30.985945    29750.497 
 2149000     299.6328   -1580.1863   -23101.766    -24983.63    1881.8638    1.1610133    30.985945    30.985945    30.985945    29750.497 
 2150000    294.43306   -1748.8239   -23109.063    -24958.27    1849.2065    1.1610133    30.985945    30.985945    30.985945    29750.497 
 2151000     297.7745   -1430.0765   -23079.524   -24949.717    1870.1926    1.1610133    30.985945    30.985945    30.985945    29750.497 
 2152000    300.43134    -1432.608   -23070.592   -24957.471    1886.8791    1.1610133    30.985945    30.985945    30.985945    29750.497 
 2153000    305.93785   -2305.2267   -23036.994   -24958.457    1921.4631    1.1610133    30.985945    30.985945    30.985945    29750.497 
 2154000     295.5083   -1154.1151   -23043.694   -24899.653    1855.9596    1.1610133    30.985945    30.985945    30.985945    29750.497 
 2155000    287.84164   -1529.2899   -23152.062   -24959.871    1807.8086    1.1610133    30.985945    30.985945    30.985945    29750.497 
 2156000    294.21827   -2173.3483    -23172.33   -25020.187    1847.8575    1.1610133    30.985945    30.985945    30.985945    29750.497 
 2157000    295.46143   -2442.6013    -23065.57   -24921.235    1855.6652    1.1610133    30.985945    30.985945    30.985945    29750.497 
 2158000    295.36511   -2095.2803   -23113.204   -24968.264    1855.0603    1.1610133    30.985945    30.985945    30.985945    29750.497 
 2159000    290.83497   -1993.1715   -23128.478   -24955.086    1826.6085    1.1610133    30.985945    30.985945    30.985945    29750.497 
 2160000    288.15795   -989.74338   -23200.117   -25009.912    1809.7952    1.1610133    30.985945    30.985945    30.985945    29750.497 
 2161000    299.39648   -1472.7206   -23164.379   -25044.758    1880.3796    1.1610133    30.985945    30.985945    30.985945    29750.497 
 2162000     295.6191   -3008.5436   -23115.802   -24972.457    1856.6555    1.1610133    30.985945    30.985945    30.985945    29750.497 
 2163000    294.60945   -2637.7866   -23178.647   -25028.961    1850.3143    1.1610133    30.985945    30.985945    30.985945    29750.497 
 2164000    286.17333   -2414.1498   -23231.559   -25028.889    1797.3307    1.1610133    30.985945    30.985945    30.985945    29750.497 
 2165000    291.11451   -1681.1209   -23125.923   -24954.287    1828.3641    1.1610133    30.985945    30.985945    30.985945    29750.497 
 2166000    301.57199   -1838.4758   -23016.507    -24910.55     1894.043    1.1610133    30.985945    30.985945    30.985945    29750.497 
 2167000    298.61154   -1465.9576   -23113.418   -24988.868    1875.4497    1.1610133    30.985945    30.985945    30.985945    29750.497 
 2168000    299.11016   -1557.1606    -23050.32   -24928.901    1878.5813    1.1610133    30.985945    30.985945    30.985945    29750.497 
 2169000    297.35162   -1960.5378   -23148.308   -25015.844    1867.5367    1.1610133    30.985945    30.985945    30.985945    29750.497 
 2170000    305.09825   -1988.8562    -23022.14    -24938.33      1916.19    1.1610133    30.985945    30.985945    30.985945    29750.497 
 2171000    294.70935   -1563.0072   -23151.469   -25002.411    1850.9418    1.1610133    30.985945    30.985945    30.985945    29750.497 
 2172000    297.54118   -2330.1843   -23138.997   -25007.725    1868.7272    1.1610133    30.985945    30.985945    30.985945    29750.497 
 2173000    294.15242   -2715.5725   -23115.973   -24963.417    1847.4439    1.1610133    30.985945    30.985945    30.985945    29750.497 
 2174000    302.11902    -1907.416   -22999.911    -24897.39    1897.4787    1.1610133    30.985945    30.985945    30.985945    29750.497 
 2175000    299.30256   -1553.0509   -23032.153   -24911.943    1879.7897    1.1610133    30.985945    30.985945    30.985945    29750.497 
 2176000    302.39239   -2239.0574   -23023.842   -24923.038    1899.1956    1.1610133    30.985945    30.985945    30.985945    29750.497 
 2177000    306.07815   -926.28247   -23025.483   -24947.827    1922.3443    1.1610133    30.985945    30.985945    30.985945    29750.497 
 2178000    300.91946   -1884.4535   -23066.517   -24956.461    1889.9447    1.1610133    30.985945    30.985945    30.985945    29750.497 
 2179000    291.79359   -1413.7353   -23078.865   -24911.494    1832.6291    1.1610133    30.985945    30.985945    30.985945    29750.497 
 2180000    300.30649    -2628.454   -22929.304   -24815.399     1886.095    1.1610133    30.985945    30.985945    30.985945    29750.497 
 2181000     302.8246   -2121.6703   -23063.657   -24965.567    1901.9101    1.1610133    30.985945    30.985945    30.985945    29750.497 
 2182000    303.11409   -2229.1922   -23071.783   -24975.511    1903.7283    1.1610133    30.985945    30.985945    30.985945    29750.497 
 2183000    302.00696   -1489.7319   -23066.897   -24963.672    1896.7749    1.1610133    30.985945    30.985945    30.985945    29750.497 
 2184000    293.96661   -1490.1285   -23058.125   -24904.402    1846.2769    1.1610133    30.985945    30.985945    30.985945    29750.497 
 2185000    308.36532   -1346.9846   -23008.268   -24944.977     1936.709    1.1610133    30.985945    30.985945    30.985945    29750.497 
 2186000    303.26047   -1505.5884   -22965.652     -24870.3    1904.6476    1.1610133    30.985945    30.985945    30.985945    29750.497 
 2187000    295.85847   -1606.2387   -23069.705   -24927.864    1858.1588    1.1610133    30.985945    30.985945    30.985945    29750.497 
 2188000    293.83948   -1100.3657   -23095.971   -24941.449    1845.4785    1.1610133    30.985945    30.985945    30.985945    29750.497 
 2189000    296.80244   -1381.1786   -23137.196   -25001.284    1864.0875    1.1610133    30.985945    30.985945    30.985945    29750.497 
 2190000    297.65643   -874.46173   -23066.052   -24935.503    1869.4511    1.1610133    30.985945    30.985945    30.985945    29750.497 
 2191000    298.94655   -1703.5096   -23045.956    -24923.51    1877.5538    1.1610133    30.985945    30.985945    30.985945    29750.497 
 2192000    303.30443   -2031.8317   -22990.905   -24895.829    1904.9237    1.1610133    30.985945    30.985945    30.985945    29750.497 
 2193000    304.01711   -2302.2127     -23049.2   -24958.599    1909.3998    1.1610133    30.985945    30.985945    30.985945    29750.497 
 2194000    298.15261   -1531.6408    -23010.47   -24883.037    1872.5674    1.1610133    30.985945    30.985945    30.985945    29750.497 
 2195000    306.63518   -970.21546   -23049.016   -24974.859    1925.8427    1.1610133    30.985945    30.985945    30.985945    29750.497 
 2196000    295.55704   -1461.3354    -23125.28   -24981.546    1856.2657    1.1610133    30.985945    30.985945    30.985945    29750.497 
 2197000    299.10269   -738.85162   -23117.882   -24996.416    1878.5344    1.1610133    30.985945    30.985945    30.985945    29750.497 
 2198000    292.21449   -1597.3517     -23147.6   -24982.873    1835.2726    1.1610133    30.985945    30.985945    30.985945    29750.497 
 2199000    291.39326   -1409.9279   -23036.631   -24866.746    1830.1148    1.1610133    30.985945    30.985945    30.985945    29750.497 
 2200000    304.54657   -1846.9651   -23126.409   -25039.134     1912.725    1.1610133    30.985945    30.985945    30.985945    29750.497 
 2201000    312.33233   -2750.8808   -23087.644   -25049.268     1961.624    1.1610133    30.985945    30.985945    30.985945    29750.497 
 2202000    303.17866   -1899.7046   -23190.115   -25094.249    1904.1338    1.1610133    30.985945    30.985945    30.985945    29750.497 
 2203000    293.65832   -616.96922   -23075.754   -24920.095    1844.3407    1.1610133    30.985945    30.985945    30.985945    29750.497 
 2204000    298.65381   -2192.0347   -22991.214    -24866.93    1875.7152    1.1610133    30.985945    30.985945    30.985945    29750.497 
 2205000    301.52098   -1366.0823   -23097.915   -24991.637    1893.7227    1.1610133    30.985945    30.985945    30.985945    29750.497 
 2206000    306.66793   -1739.1987   -22961.811   -24887.859    1926.0484    1.1610133    30.985945    30.985945    30.985945    29750.497 
 2207000    294.70794   -1517.4534   -23031.697    -24882.63    1850.9329    1.1610133    30.985945    30.985945    30.985945    29750.497 
 2208000    303.63846   -1530.6788   -23011.881   -24918.903    1907.0216    1.1610133    30.985945    30.985945    30.985945    29750.497 
 2209000    302.35369   -1711.6465   -23050.712   -24949.665    1898.9526    1.1610133    30.985945    30.985945    30.985945    29750.497 
 2210000    301.75544   -1516.8771   -23004.099   -24899.294    1895.1952    1.1610133    30.985945    30.985945    30.985945    29750.497 
 2211000    294.88503   -672.49343    -23057.81   -24909.855    1852.0451    1.1610133    30.985945    30.985945    30.985945    29750.497 
 2212000    303.38763   -2189.1921   -23026.062   -24931.509    1905.4463    1.1610133    30.985945    30.985945    30.985945    29750.497 
 2213000    301.28545   -1661.4646   -23087.989   -24980.233    1892.2434    1.1610133    30.985945    30.985945    30.985945    29750.497 
 2214000    305.95412   -1710.9877   -22973.125   -24894.691    1921.5653    1.1610133    30.985945    30.985945    30.985945    29750.497 
 2215000    307.33878    -1582.719   -23095.267   -25025.529    1930.2618    1.1610133    30.985945    30.985945    30.985945    29750.497 
 2216000    304.92693   -1644.9956   -23036.906    -24952.02    1915.1139    1.1610133    30.985945    30.985945    30.985945    29750.497 
 2217000    298.01609   -808.33381   -23103.858   -24975.568      1871.71    1.1610133    30.985945    30.985945    30.985945    29750.497 
 2218000    291.62736   -1811.9892   -23112.773   -24944.358    1831.5851    1.1610133    30.985945    30.985945    30.985945    29750.497 
 2219000    302.42095   -2058.1447   -23088.544   -24987.919     1899.375    1.1610133    30.985945    30.985945    30.985945    29750.497 
 2220000    296.93829   -607.18151   -23081.353   -24946.294    1864.9408    1.1610133    30.985945    30.985945    30.985945    29750.497 
 2221000    301.12864   -954.67764   -23103.045   -24994.303    1891.2585    1.1610133    30.985945    30.985945    30.985945    29750.497 
 2222000     294.1223   -1071.6657   -23064.317   -24911.572    1847.2548    1.1610133    30.985945    30.985945    30.985945    29750.497 
 2223000     299.4762   -1143.0183   -23105.755   -24986.636    1880.8803    1.1610133    30.985945    30.985945    30.985945    29750.497 
 2224000    300.01996   -1862.8319   -23057.918   -24942.214    1884.2954    1.1610133    30.985945    30.985945    30.985945    29750.497 
 2225000    298.01891   -1200.5951   -23006.275   -24878.003    1871.7276    1.1610133    30.985945    30.985945    30.985945    29750.497 
 2226000    301.38488   -1366.8375   -23112.883   -25005.751    1892.8679    1.1610133    30.985945    30.985945    30.985945    29750.497 
 2227000    292.83117   -2628.0125   -23113.161   -24952.307    1839.1457    1.1610133    30.985945    30.985945    30.985945    29750.497 
 2228000    299.11923   -1454.5719    -23105.12   -24983.758    1878.6383    1.1610133    30.985945    30.985945    30.985945    29750.497 
 2229000    296.59444   -1722.0274   -23095.793   -24958.574    1862.7812    1.1610133    30.985945    30.985945    30.985945    29750.497 
 2230000    288.95598   -2375.3047    -23206.56   -25021.367    1814.8073    1.1610133    30.985945    30.985945    30.985945    29750.497 
 2231000    299.93689   -1883.6963   -23157.232   -25041.005    1883.7737    1.1610133    30.985945    30.985945    30.985945    29750.497 
 2232000    298.72002   -3038.0553   -23075.369   -24951.501     1876.131    1.1610133    30.985945    30.985945    30.985945    29750.497 
 2233000    299.02244   -1668.6338   -23121.656   -24999.687    1878.0304    1.1610133    30.985945    30.985945    30.985945    29750.497 
 2234000    297.19664   -1545.1576   -23106.771   -24973.334    1866.5633    1.1610133    30.985945    30.985945    30.985945    29750.497 
 2235000    299.26113   -1960.5394   -23093.024   -24972.553    1879.5295    1.1610133    30.985945    30.985945    30.985945    29750.497 
 2236000    293.95841   -1869.9575    -23113.55   -24959.775    1846.2254    1.1610133    30.985945    30.985945    30.985945    29750.497 
 2237000    296.42469   -2092.3648   -23132.479   -24994.194    1861.7151    1.1610133    30.985945    30.985945    30.985945    29750.497 
 2238000    292.25344   -1315.6343   -23152.586   -24988.103    1835.5173    1.1610133    30.985945    30.985945    30.985945    29750.497 
 2239000    293.14759   -1593.5871   -23073.286   -24914.419     1841.133    1.1610133    30.985945    30.985945    30.985945    29750.497 
 2240000    299.44452   -1747.8466    -23067.61   -24948.292    1880.6813    1.1610133    30.985945    30.985945    30.985945    29750.497 
 2241000    293.82385   -1396.9986   -23137.613   -24982.994    1845.3803    1.1610133    30.985945    30.985945    30.985945    29750.497 
 2242000    294.78072    -1620.404    -22991.13    -24842.52      1851.39    1.1610133    30.985945    30.985945    30.985945    29750.497 
 2243000    301.97061   -2714.9704   -23070.161   -24966.708    1896.5466    1.1610133    30.985945    30.985945    30.985945    29750.497 
 2244000    295.38549   -1063.0305    -23203.63   -25058.818    1855.1883    1.1610133    30.985945    30.985945    30.985945    29750.497 
 2245000    287.83537   -1537.3297   -23187.109   -24994.879    1807.7693    1.1610133    30.985945    30.985945    30.985945    29750.497 
 2246000    292.25328   -1793.2432   -23144.293    -24979.81    1835.5162    1.1610133    30.985945    30.985945    30.985945    29750.497 
 2247000    309.20965   -905.70277   -22930.087   -24872.099    1942.0119    1.1610133    30.985945    30.985945    30.985945    29750.497 
 2248000    298.79528   -1712.4665   -23085.257   -24961.861    1876.6037    1.1610133    30.985945    30.985945    30.985945    29750.497 
 2249000    300.16809   -1213.9283   -23122.023   -25007.249    1885.2257    1.1610133    30.985945    30.985945    30.985945    29750.497 
 2250000    293.44052   -1311.9774   -23181.544   -25024.517    1842.9728    1.1610133    30.985945    30.985945    30.985945    29750.497 
 2251000    295.00555   -1500.7247   -23210.259   -25063.061    1852.8021    1.1610133    30.985945    30.985945    30.985945    29750.497 
 2252000    303.15138   -1719.5119   -23044.714   -24948.677    1903.9625    1.1610133    30.985945    30.985945    30.985945    29750.497 
 2253000     297.8909   -1480.7597   -23064.613   -24935.536    1870.9237    1.1610133    30.985945    30.985945    30.985945    29750.497 
 2254000     289.9694   -1539.0691   -23106.616   -24927.789    1821.1722    1.1610133    30.985945    30.985945    30.985945    29750.497 
 2255000     305.3961   -1492.4017   -23098.989   -25017.049    1918.0606    1.1610133    30.985945    30.985945    30.985945    29750.497 
 2256000    300.14015   -2074.4155   -23078.022   -24963.072    1885.0503    1.1610133    30.985945    30.985945    30.985945    29750.497 
 2257000    300.18902   -1531.3393   -23120.158   -25005.515    1885.3572    1.1610133    30.985945    30.985945    30.985945    29750.497 
 2258000    295.86051    -1528.265   -23096.881   -24955.053    1858.1717    1.1610133    30.985945    30.985945    30.985945    29750.497 
 2259000    301.97918    -1175.453   -23095.507   -24992.107    1896.6004    1.1610133    30.985945    30.985945    30.985945    29750.497 
 2260000    304.35607   -1935.3597   -23037.323   -24948.851    1911.5286    1.1610133    30.985945    30.985945    30.985945    29750.497 
 2261000    294.91687   -2136.1719    -23093.21   -24945.455    1852.2451    1.1610133    30.985945    30.985945    30.985945    29750.497 
 2262000    295.20113   -1869.5384   -23045.037   -24899.067    1854.0304    1.1610133    30.985945    30.985945    30.985945    29750.497 
 2263000    303.15805    -1779.922   -23045.571   -24949.575    1904.0044    1.1610133    30.985945    30.985945    30.985945    29750.497 
 2264000    295.94175   -1186.1468   -23112.066   -24970.748    1858.6819    1.1610133    30.985945    30.985945    30.985945    29750.497 
 2265000    299.88206   -1157.6925   -23105.537   -24988.967    1883.4293    1.1610133    30.985945    30.985945    30.985945    29750.497 
 2266000    304.59047   -1962.0324   -23097.578   -25010.579    1913.0008    1.1610133    30.985945    30.985945    30.985945    29750.497 
 2267000    305.48062   -2163.3153    -23053.01   -24971.602    1918.5914    1.1610133    30.985945    30.985945    30.985945    29750.497 
 2268000    304.44636   -1620.9246   -23069.157   -24981.252    1912.0957    1.1610133    30.985945    30.985945    30.985945    29750.497 
 2269000    301.36314   -1746.6303   -23119.527   -25012.258    1892.7313    1.1610133    30.985945    30.985945    30.985945    29750.497 
 2270000    308.28429   -2713.7606   -23022.766   -24958.966    1936.2001    1.1610133    30.985945    30.985945    30.985945    29750.497 
 2271000    298.59267   -2118.2926   -23144.517   -25019.849    1875.3312    1.1610133    30.985945    30.985945    30.985945    29750.497 
 2272000    299.01404    -671.4148   -23115.207   -24993.185    1877.9776    1.1610133    30.985945    30.985945    30.985945    29750.497 
 2273000    300.02949   -2161.0748   -23092.273   -24976.628    1884.3552    1.1610133    30.985945    30.985945    30.985945    29750.497 
 2274000    295.75432    -2441.003    -23055.49   -24912.995    1857.5047    1.1610133    30.985945    30.985945    30.985945    29750.497 
 2275000    299.86573   -1842.1558   -23157.794    -25041.12    1883.3267    1.1610133    30.985945    30.985945    30.985945    29750.497 
 2276000    297.76207   -2021.5162   -23212.006    -25082.12    1870.1145    1.1610133    30.985945    30.985945    30.985945    29750.497 
 2277000     288.0835   -2221.8652    -23320.21   -25129.537    1809.3277    1.1610133    30.985945    30.985945    30.985945    29750.497 
 2278000    295.64356   -1945.9305   -23085.581    -24942.39    1856.8091    1.1610133    30.985945    30.985945    30.985945    29750.497 
 2279000    292.76116   -2528.5705   -23127.012   -24965.718     1838.706    1.1610133    30.985945    30.985945    30.985945    29750.497 
 2280000    306.23038   -1896.5843    -22970.72   -24894.021    1923.3003    1.1610133    30.985945    30.985945    30.985945    29750.497 
 2281000    301.67836   -1552.5647   -23105.651   -25000.363    1894.7111    1.1610133    30.985945    30.985945    30.985945    29750.497 
 2282000    299.18919   -1688.1697   -23038.313   -24917.391    1879.0777    1.1610133    30.985945    30.985945    30.985945    29750.497 
 2283000    295.31382   -993.26521   -23034.325   -24889.063    1854.7382    1.1610133    30.985945    30.985945    30.985945    29750.497 
 2284000    292.93586   -2497.9923   -23135.231   -24975.034    1839.8032    1.1610133    30.985945    30.985945    30.985945    29750.497 
 2285000    299.69991   -1029.6686   -23075.279   -24957.565    1882.2853    1.1610133    30.985945    30.985945    30.985945    29750.497 
 2286000    294.84461   -826.04427   -23070.817   -24922.609    1851.7913    1.1610133    30.985945    30.985945    30.985945    29750.497 
 2287000    292.95235   -2470.6268   -23145.668   -24985.575    1839.9068    1.1610133    30.985945    30.985945    30.985945    29750.497 
 2288000    304.45389    -1150.048   -23086.389   -24998.532     1912.143    1.1610133    30.985945    30.985945    30.985945    29750.497 
 2289000    309.55675   -1661.2628   -22986.055   -24930.247    1944.1918    1.1610133    30.985945    30.985945    30.985945    29750.497 
 2290000    303.46695   -1590.0167   -23018.709   -24924.653    1905.9445    1.1610133    30.985945    30.985945    30.985945    29750.497 
 2291000     293.0723   -1543.5989   -23116.881   -24957.541    1840.6602    1.1610133    30.985945    30.985945    30.985945    29750.497 
 2292000    298.90547   -1498.3638   -23034.867   -24912.163    1877.2958    1.1610133    30.985945    30.985945    30.985945    29750.497 
 2293000    288.67562   -1190.9984   -23167.719   -24980.766    1813.0465    1.1610133    30.985945    30.985945    30.985945    29750.497 
 2294000     293.8231   -2043.2674    -23091.17   -24936.545    1845.3756    1.1610133    30.985945    30.985945    30.985945    29750.497 
 2295000    313.87148   -2570.8816    -22933.77   -24905.061    1971.2908    1.1610133    30.985945    30.985945    30.985945    29750.497 
 2296000    300.18955    -909.8047   -22998.206   -24883.567    1885.3605    1.1610133    30.985945    30.985945    30.985945    29750.497 
 2297000    294.93641   -861.71889   -22979.347   -24831.714    1852.3678    1.1610133    30.985945    30.985945    30.985945    29750.497 
 2298000    296.83866   -763.85184   -23117.574   -24981.889     1864.315    1.1610133    30.985945    30.985945    30.985945    29750.497 
 2299000    301.35142   -1488.6375   -23057.475   -24950.132    1892.6577    1.1610133    30.985945    30.985945    30.985945    29750.497 
 2300000    297.84872   -1033.1492     -23107.1   -24977.759    1870.6588    1.1610133    30.985945    30.985945    30.985945    29750.497 
 2301000    294.58876   -969.65253   -23056.247   -24906.432    1850.1844    1.1610133    30.985945    30.985945    30.985945    29750.497 
 2302000    300.03851   -1880.9488   -22971.073   -24855.485    1884.4119    1.1610133    30.985945    30.985945    30.985945    29750.497 
 2303000    296.97632   -972.55608   -23072.114   -24937.293    1865.1796    1.1610133    30.985945    30.985945    30.985945    29750.497 
 2304000     299.9252   -520.01534   -23090.173   -24973.873    1883.7003    1.1610133    30.985945    30.985945    30.985945    29750.497 
 2305000    299.31233   -1046.3621   -23131.645   -25011.496    1879.8511    1.1610133    30.985945    30.985945    30.985945    29750.497 
 2306000    296.75086   -1639.0343   -23171.047    -25034.81    1863.7636    1.1610133    30.985945    30.985945    30.985945    29750.497 
 2307000    303.95906    -1298.241   -23013.103   -24922.138    1909.0352    1.1610133    30.985945    30.985945    30.985945    29750.497 
 2308000     294.5593    -1056.272   -23055.643   -24905.642    1849.9994    1.1610133    30.985945    30.985945    30.985945    29750.497 
 2309000    295.23239   -1295.7068   -23026.658   -24880.884    1854.2267    1.1610133    30.985945    30.985945    30.985945    29750.497 
 2310000    303.28744   -2296.8297   -22989.232   -24894.049     1904.817    1.1610133    30.985945    30.985945    30.985945    29750.497 
 2311000     298.4314   -1856.6183   -23045.272    -24919.59    1874.3183    1.1610133    30.985945    30.985945    30.985945    29750.497 
 2312000     307.4321   -1618.0783   -23106.492    -25037.34    1930.8479    1.1610133    30.985945    30.985945    30.985945    29750.497 
 2313000    307.39921   -1754.0131   -22999.662   -24930.303    1930.6413    1.1610133    30.985945    30.985945    30.985945    29750.497 
 2314000    298.31984   -1069.7633   -23026.244   -24899.861    1873.6177    1.1610133    30.985945    30.985945    30.985945    29750.497 
 2315000    290.52481   -681.88834   -23098.674   -24923.335    1824.6604    1.1610133    30.985945    30.985945    30.985945    29750.497 
 2316000    299.29659    -1782.322   -23042.361   -24922.114    1879.7522    1.1610133    30.985945    30.985945    30.985945    29750.497 
 2317000    306.16202   -1265.1279   -22961.816   -24884.687     1922.871    1.1610133    30.985945    30.985945    30.985945    29750.497 
 2318000    307.49567    -1056.495   -22946.922   -24878.169    1931.2471    1.1610133    30.985945    30.985945    30.985945    29750.497 
 2319000    303.42211   -1440.5435   -23006.136   -24911.799    1905.6628    1.1610133    30.985945    30.985945    30.985945    29750.497 
 2320000     297.3146   -1481.4969   -22985.482   -24852.786    1867.3042    1.1610133    30.985945    30.985945    30.985945    29750.497 
 2321000     293.3566   -1531.4625    -23064.08   -24906.526    1842.4457    1.1610133    30.985945    30.985945    30.985945    29750.497 
 2322000    294.83764   -1009.6708   -23099.987   -24951.735    1851.7475    1.1610133    30.985945    30.985945    30.985945    29750.497 
 2323000    300.90108    -1551.259   -22966.254   -24856.083    1889.8293    1.1610133    30.985945    30.985945    30.985945    29750.497 
 2324000    300.81821   -1272.2802   -22948.329   -24837.638    1889.3089    1.1610133    30.985945    30.985945    30.985945    29750.497 
 2325000    299.59598   -1697.5224   -23067.028   -24948.661    1881.6325    1.1610133    30.985945    30.985945    30.985945    29750.497 
 2326000     295.9632   -573.96852   -23072.041   -24930.858    1858.8166    1.1610133    30.985945    30.985945    30.985945    29750.497 
 2327000    295.78066   -877.78378   -23088.075   -24945.745    1857.6702    1.1610133    30.985945    30.985945    30.985945    29750.497 
 2328000    300.05725   -1188.9624   -23023.208   -24907.737    1884.5296    1.1610133    30.985945    30.985945    30.985945    29750.497 
 2329000    299.75833   -2343.8346    -22979.37   -24862.022    1882.6522    1.1610133    30.985945    30.985945    30.985945    29750.497 
 2330000    290.08492   -2093.7302   -23096.874   -24918.772    1821.8977    1.1610133    30.985945    30.985945    30.985945    29750.497 
 2331000    303.23674   -1148.7875   -22999.564   -24904.063    1904.4986    1.1610133    30.985945    30.985945    30.985945    29750.497 
 2332000    292.56645   -1455.3628   -23089.443   -24926.926    1837.4831    1.1610133    30.985945    30.985945    30.985945    29750.497 
 2333000    293.48977   -1298.5857   -23129.606   -24972.888    1843.2821    1.1610133    30.985945    30.985945    30.985945    29750.497 
 2334000    298.67926   -1628.8857   -23055.758   -24931.633    1875.8751    1.1610133    30.985945    30.985945    30.985945    29750.497 
 2335000     295.9265   -1104.8823    -22946.01   -24804.596    1858.5862    1.1610133    30.985945    30.985945    30.985945    29750.497 
 2336000    300.39476   -1689.2349   -23018.467   -24905.116    1886.6493    1.1610133    30.985945    30.985945    30.985945    29750.497 
 2337000    291.01947    -2561.001   -23058.817   -24886.584    1827.7672    1.1610133    30.985945    30.985945    30.985945    29750.497 
 2338000    297.61316   -1428.4505   -23057.948   -24927.128    1869.1793    1.1610133    30.985945    30.985945    30.985945    29750.497 
 2339000    297.02439   -1468.5978    -23175.98   -25041.462    1865.4815    1.1610133    30.985945    30.985945    30.985945    29750.497 
 2340000    286.70871   -1272.2688   -23144.746   -24945.439    1800.6932    1.1610133    30.985945    30.985945    30.985945    29750.497 
 2341000       299.56   -1100.7077    -23010.43   -24891.837    1881.4066    1.1610133    30.985945    30.985945    30.985945    29750.497 
 2342000    297.89387    -1051.373   -22958.245   -24829.187    1870.9423    1.1610133    30.985945    30.985945    30.985945    29750.497 
 2343000    300.88247    -1498.533   -23057.205   -24946.917    1889.7125    1.1610133    30.985945    30.985945    30.985945    29750.497 
 2344000    299.33444   -1610.0605   -23033.799   -24913.789    1879.9899    1.1610133    30.985945    30.985945    30.985945    29750.497 
 2345000     295.5301    -1809.967   -22999.147   -24855.244    1856.0965    1.1610133    30.985945    30.985945    30.985945    29750.497 
 2346000    302.00732    -1786.118   -23024.752   -24921.529    1896.7771    1.1610133    30.985945    30.985945    30.985945    29750.497 
 2347000    301.27458   -2068.2088   -23005.084   -24897.259    1892.1751    1.1610133    30.985945    30.985945    30.985945    29750.497 
 2348000     293.8887   -1070.4504   -23048.987   -24894.774    1845.7876    1.1610133    30.985945    30.985945    30.985945    29750.497 
 2349000    301.17808   -1759.8598   -23093.103   -24984.672    1891.5691    1.1610133    30.985945    30.985945    30.985945    29750.497 
 2350000    301.11185   -1790.4014   -23067.396   -24958.549    1891.1531    1.1610133    30.985945    30.985945    30.985945    29750.497 
 2351000    297.80523   -1890.0417   -23107.729   -24978.115    1870.3856    1.1610133    30.985945    30.985945    30.985945    29750.497 
 2352000    297.13703   -1306.1296   -23106.219   -24972.408     1866.189    1.1610133    30.985945    30.985945    30.985945    29750.497 
 2353000    302.97629   -976.15698   -23033.095   -24935.958    1902.8628    1.1610133    30.985945    30.985945    30.985945    29750.497 
 2354000    297.61791      -1686.2   -23053.707   -24922.916    1869.2092    1.1610133    30.985945    30.985945    30.985945    29750.497 
 2355000    310.41526   -2076.1202   -22979.674   -24929.258    1949.5838    1.1610133    30.985945    30.985945    30.985945    29750.497 
 2356000    289.69792   -1714.7769   -23088.252   -24907.719    1819.4671    1.1610133    30.985945    30.985945    30.985945    29750.497 
 2357000    292.22422   -1232.9595   -23064.427   -24899.761    1835.3337    1.1610133    30.985945    30.985945    30.985945    29750.497 
 2358000    299.77939   -2325.3617   -23021.589   -24904.373    1882.7845    1.1610133    30.985945    30.985945    30.985945    29750.497 
 2359000    310.30844   -1454.7893   -22980.686   -24929.599    1948.9129    1.1610133    30.985945    30.985945    30.985945    29750.497 
 2360000    293.80398   -205.74019   -23113.005    -24958.26    1845.2555    1.1610133    30.985945    30.985945    30.985945    29750.497 
 2361000    301.22446   -1857.1721   -23069.917   -24961.778    1891.8604    1.1610133    30.985945    30.985945    30.985945    29750.497 
 2362000    287.90102   -1182.4241   -23114.517   -24922.699    1808.1816    1.1610133    30.985945    30.985945    30.985945    29750.497 
 2363000     306.0275   -1556.0105   -23009.806   -24931.832    1922.0261    1.1610133    30.985945    30.985945    30.985945    29750.497 
 2364000    301.01649   -1063.9111    -22985.56   -24876.114    1890.5542    1.1610133    30.985945    30.985945    30.985945    29750.497 
 2365000     299.4072   -2086.2446   -23049.987   -24930.434    1880.4469    1.1610133    30.985945    30.985945    30.985945    29750.497 
 2366000    297.94691   -2090.3883    -23091.71   -24962.986    1871.2755    1.1610133    30.985945    30.985945    30.985945    29750.497 
 2367000    296.73903   -2003.3193   -23080.597   -24944.287    1863.6893    1.1610133    30.985945    30.985945    30.985945    29750.497 
 2368000     303.4264   -2169.5476   -23176.829   -25082.519    1905.6898    1.1610133    30.985945    30.985945    30.985945    29750.497 
 2369000    303.74722   -1228.8455    -23083.05   -24990.754    1907.7047    1.1610133    30.985945    30.985945    30.985945    29750.497 
 2370000    299.22428   -1247.6508    -23132.45   -25011.748    1879.2981    1.1610133    30.985945    30.985945    30.985945    29750.497 
 2371000    298.46409   -2129.5858   -23076.188   -24950.712    1874.5237    1.1610133    30.985945    30.985945    30.985945    29750.497 
 2372000    305.75174   -2318.2957    -22992.91   -24913.204    1920.2942    1.1610133    30.985945    30.985945    30.985945    29750.497 
 2373000    296.87354   -1328.2151   -23090.472   -24955.006    1864.5341    1.1610133    30.985945    30.985945    30.985945    29750.497 
 2374000    297.26392   -1463.8709   -23131.122   -24998.108    1866.9859    1.1610133    30.985945    30.985945    30.985945    29750.497 
 2375000     303.5213   -1702.5455   -23080.451   -24986.737    1906.2858    1.1610133    30.985945    30.985945    30.985945    29750.497 
 2376000    299.69096   -1850.1855   -23075.714   -24957.943    1882.2291    1.1610133    30.985945    30.985945    30.985945    29750.497 
 2377000    307.65077   -1912.5651   -23056.433   -24988.654    1932.2212    1.1610133    30.985945    30.985945    30.985945    29750.497 
 2378000    300.62186   -1565.1646   -23044.762   -24932.838    1888.0757    1.1610133    30.985945    30.985945    30.985945    29750.497 
 2379000    301.51588   -1205.0971    -23088.98   -24982.671    1893.6906    1.1610133    30.985945    30.985945    30.985945    29750.497 
 2380000    303.04208   -831.92592   -23009.947   -24913.223     1903.276    1.1610133    30.985945    30.985945    30.985945    29750.497 
 2381000     288.8184   -1988.8832    -23133.71   -24947.654    1813.9433    1.1610133    30.985945    30.985945    30.985945    29750.497 
 2382000    289.02702   -1467.3542   -23131.846   -24947.099    1815.2535    1.1610133    30.985945    30.985945    30.985945    29750.497 
 2383000    294.64731   -2158.7992   -23206.168    -25056.72    1850.5521    1.1610133    30.985945    30.985945    30.985945    29750.497 
 2384000    289.25759   -1937.1317   -23171.954   -24988.656    1816.7016    1.1610133    30.985945    30.985945    30.985945    29750.497 
 2385000    296.53445   -1919.8178   -23044.872   -24907.276    1862.4044    1.1610133    30.985945    30.985945    30.985945    29750.497 
 2386000    293.62891   -2332.8603   -23204.821   -25048.977     1844.156    1.1610133    30.985945    30.985945    30.985945    29750.497 
 2387000    295.55462   -1755.6043   -23195.434   -25051.685    1856.2505    1.1610133    30.985945    30.985945    30.985945    29750.497 
 2388000    299.01053   -1388.6952    -23102.93   -24980.885    1877.9556    1.1610133    30.985945    30.985945    30.985945    29750.497 
 2389000    297.69648   -2326.8842    -23157.91   -25027.612    1869.7026    1.1610133    30.985945    30.985945    30.985945    29750.497 
 2390000    298.98197   -1893.8608   -23187.908   -25065.685    1877.7763    1.1610133    30.985945    30.985945    30.985945    29750.497 
 2391000    297.42648   -1536.9627   -23178.714   -25046.721    1868.0069    1.1610133    30.985945    30.985945    30.985945    29750.497 
 2392000    299.97208   -2384.6834   -23010.507   -24894.502    1883.9947    1.1610133    30.985945    30.985945    30.985945    29750.497 
 2393000    293.04405    -2762.886   -23126.009   -24966.492    1840.4827    1.1610133    30.985945    30.985945    30.985945    29750.497 
 2394000     295.9875   -2254.8538   -23110.034   -24969.003    1858.9693    1.1610133    30.985945    30.985945    30.985945    29750.497 
 2395000    300.50621   -2560.6931   -23143.275   -25030.624    1887.3493    1.1610133    30.985945    30.985945    30.985945    29750.497 
 2396000    298.00162   -1637.4627   -23208.568   -25080.187    1871.6191    1.1610133    30.985945    30.985945    30.985945    29750.497 
 2397000    298.19118   -2268.3595   -23214.352   -25087.162    1872.8096    1.1610133    30.985945    30.985945    30.985945    29750.497 
 2398000    290.88711   -1285.8958   -23193.617   -25020.553    1826.9359    1.1610133    30.985945    30.985945    30.985945    29750.497 
 2399000    292.81376   -1745.3585   -23092.072   -24931.108    1839.0364    1.1610133    30.985945    30.985945    30.985945    29750.497 
 2400000    302.06342   -2486.3567   -23041.152   -24938.281    1897.1294    1.1610133    30.985945    30.985945    30.985945    29750.497 
 2401000    303.18094   -2284.9406   -23122.453   -25026.601    1904.1481    1.1610133    30.985945    30.985945    30.985945    29750.497 
 2402000    297.77352   -1922.0639   -23112.096   -24982.282    1870.1865    1.1610133    30.985945    30.985945    30.985945    29750.497 
 2403000    299.22309   -863.13564   -23070.153   -24949.443    1879.2906    1.1610133    30.985945    30.985945    30.985945    29750.497 
 2404000    293.64769   -2427.2007   -23083.799   -24928.073    1844.2739    1.1610133    30.985945    30.985945    30.985945    29750.497 
 2405000    300.09577   -1307.6098   -22998.957   -24883.729    1884.7715    1.1610133    30.985945    30.985945    30.985945    29750.497 
 2406000    306.98774   -947.17509   -22983.643     -24911.7     1928.057    1.1610133    30.985945    30.985945    30.985945    29750.497 
 2407000    303.99753   -2446.3299   -22974.846   -24884.123    1909.2768    1.1610133    30.985945    30.985945    30.985945    29750.497 
 2408000    294.88441   -1902.7081   -23141.816   -24993.857    1852.0413    1.1610133    30.985945    30.985945    30.985945    29750.497 
 2409000     300.4502   -1413.3592   -23173.874   -25060.872    1886.9975    1.1610133    30.985945    30.985945    30.985945    29750.497 
 2410000    310.33926    -1609.757   -22981.434   -24930.541    1949.1064    1.1610133    30.985945    30.985945    30.985945    29750.497 
 2411000    302.53429   -1568.9989   -23030.194   -24930.281    1900.0868    1.1610133    30.985945    30.985945    30.985945    29750.497 
 2412000    296.00147   -1831.4398   -23084.503    -24943.56     1859.057    1.1610133    30.985945    30.985945    30.985945    29750.497 
 2413000    297.44203   -2049.7664   -23190.042   -25058.146    1868.1045    1.1610133    30.985945    30.985945    30.985945    29750.497 
 2414000    282.82054   -1707.3314   -23180.345   -24956.618    1776.2733    1.1610133    30.985945    30.985945    30.985945    29750.497 
 2415000    299.79967   -812.15757   -23012.908    -24895.82    1882.9119    1.1610133    30.985945    30.985945    30.985945    29750.497 
 2416000    295.07873   -1867.4578   -23021.701   -24874.963    1853.2616    1.1610133    30.985945    30.985945    30.985945    29750.497 
 2417000    300.41101   -1822.2601   -23056.365   -24943.116    1886.7514    1.1610133    30.985945    30.985945    30.985945    29750.497 
 2418000    302.60425   -1850.5582   -23131.288   -25031.814    1900.5262    1.1610133    30.985945    30.985945    30.985945    29750.497 
 2419000    303.74079   -1503.6197   -23045.375   -24953.039    1907.6643    1.1610133    30.985945    30.985945    30.985945    29750.497 
 2420000    294.24397   -1412.1252   -23061.705   -24909.724    1848.0189    1.1610133    30.985945    30.985945    30.985945    29750.497 
 2421000    294.26661   -1486.8049   -23036.416   -24884.577    1848.1611    1.1610133    30.985945    30.985945    30.985945    29750.497 
 2422000     295.0066   -1270.8944   -23129.969   -24982.777    1852.8087    1.1610133    30.985945    30.985945    30.985945    29750.497 
 2423000    308.69045   -858.40454   -22979.089    -24917.84     1938.751    1.1610133    30.985945    30.985945    30.985945    29750.497 
 2424000    301.15482   -1450.9704   -23116.866   -25008.289     1891.423    1.1610133    30.985945    30.985945    30.985945    29750.497 
 2425000    295.58068   -1270.1729   -23113.593   -24970.007    1856.4142    1.1610133    30.985945    30.985945    30.985945    29750.497 
 2426000    290.66776   -1710.3311   -23188.115   -25013.674    1825.5583    1.1610133    30.985945    30.985945    30.985945    29750.497 
 2427000    298.83816   -2018.8592   -23104.584   -24981.457     1876.873    1.1610133    30.985945    30.985945    30.985945    29750.497 
 2428000    292.04607   -2124.2599   -23057.987   -24892.202    1834.2149    1.1610133    30.985945    30.985945    30.985945    29750.497 
 2429000    300.59707   -2721.9365    -23117.62    -25005.54      1887.92    1.1610133    30.985945    30.985945    30.985945    29750.497 
 2430000    301.47118   -1669.8622   -23056.909   -24950.319    1893.4099    1.1610133    30.985945    30.985945    30.985945    29750.497 
 2431000    304.98623   -1614.7317   -23014.302   -24929.788    1915.4864    1.1610133    30.985945    30.985945    30.985945    29750.497 
 2432000    296.05653   -1783.8545   -23136.252   -24995.654    1859.4028    1.1610133    30.985945    30.985945    30.985945    29750.497 
 2433000     307.0621   -1088.7162   -23159.512   -25088.036     1928.524    1.1610133    30.985945    30.985945    30.985945    29750.497 
 2434000    296.90563   -2012.6408   -23108.474    -24973.21    1864.7356    1.1610133    30.985945    30.985945    30.985945    29750.497 
 2435000    301.19117   -1984.3473   -23160.513   -25052.164    1891.6512    1.1610133    30.985945    30.985945    30.985945    29750.497 
 2436000    299.75122   -2231.8983   -23064.728   -24947.335    1882.6076    1.1610133    30.985945    30.985945    30.985945    29750.497 
 2437000    302.11532    -1620.838   -23095.859   -24993.314    1897.4554    1.1610133    30.985945    30.985945    30.985945    29750.497 
 2438000     299.3915   -1500.5781   -23088.704   -24969.052    1880.3483    1.1610133    30.985945    30.985945    30.985945    29750.497 
 2439000    291.09252   -592.44919    -23113.56   -24941.786     1828.226    1.1610133    30.985945    30.985945    30.985945    29750.497 
 2440000    293.99768   -708.62686   -23231.113   -25077.585    1846.4721    1.1610133    30.985945    30.985945    30.985945    29750.497 
 2441000    295.42913   -1044.1393   -23066.706   -24922.168    1855.4624    1.1610133    30.985945    30.985945    30.985945    29750.497 
 2442000    299.61184   -2187.2546   -23111.481   -24993.213    1881.7322    1.1610133    30.985945    30.985945    30.985945    29750.497 
 2443000    296.33475   -1811.3905   -23116.675   -24977.826    1861.1502    1.1610133    30.985945    30.985945    30.985945    29750.497 
 2444000    297.27281   -1709.7629   -23199.324   -25066.366    1867.0417    1.1610133    30.985945    30.985945    30.985945    29750.497 
 2445000    310.43916   -1535.8465   -23086.272   -25036.006    1949.7339    1.1610133    30.985945    30.985945    30.985945    29750.497 
 2446000    294.66603   -2984.4246   -23118.109   -24968.779    1850.6697    1.1610133    30.985945    30.985945    30.985945    29750.497 
 2447000    298.28318   -1477.6073   -23138.041   -25011.428    1873.3874    1.1610133    30.985945    30.985945    30.985945    29750.497 
 2448000    288.08135   -1836.0002   -23166.664   -24975.979    1809.3141    1.1610133    30.985945    30.985945    30.985945    29750.497 
 2449000    296.45979   -2058.1019   -23140.057   -25001.993    1861.9355    1.1610133    30.985945    30.985945    30.985945    29750.497 
 2450000    299.13852   -2606.1167   -23131.481   -25010.241    1878.7594    1.1610133    30.985945    30.985945    30.985945    29750.497 
 2451000    292.10154   -2117.4578   -23168.412   -25002.975    1834.5632    1.1610133    30.985945    30.985945    30.985945    29750.497 
 2452000    299.65178    -1816.477   -23141.518   -25023.501     1881.983    1.1610133    30.985945    30.985945    30.985945    29750.497 
 2453000     294.2786   -1359.5652   -23166.778   -25015.015    1848.2364    1.1610133    30.985945    30.985945    30.985945    29750.497 
 2454000    302.30919   -2133.2022   -22982.704   -24881.377    1898.6731    1.1610133    30.985945    30.985945    30.985945    29750.497 
 2455000    298.84698   -1691.5169   -23055.432    -24932.36    1876.9284    1.1610133    30.985945    30.985945    30.985945    29750.497 
 2456000    301.13206   -2174.9988   -23085.732   -24977.012      1891.28    1.1610133    30.985945    30.985945    30.985945    29750.497 
 2457000    291.31504   -2900.5891   -23124.028   -24953.652    1829.6236    1.1610133    30.985945    30.985945    30.985945    29750.497 
 2458000    294.11507   -2397.4509   -23205.261    -25052.47    1847.2094    1.1610133    30.985945    30.985945    30.985945    29750.497 
 2459000    297.70794   -1724.4168   -23104.847   -24974.621    1869.7746    1.1610133    30.985945    30.985945    30.985945    29750.497 
 2460000    291.24552   -1504.5602   -23147.217   -24976.404    1829.1869    1.1610133    30.985945    30.985945    30.985945    29750.497 
 2461000    298.56796   -1471.7683   -23118.262   -24993.438     1875.176    1.1610133    30.985945    30.985945    30.985945    29750.497 
 2462000    297.48348   -2442.1423   -23108.631   -24976.996    1868.3649    1.1610133    30.985945    30.985945    30.985945    29750.497 
 2463000    297.07758   -1636.6261     -23082.6   -24948.416    1865.8156    1.1610133    30.985945    30.985945    30.985945    29750.497 
 2464000    296.80903   -2168.1938   -23140.273   -25004.402    1864.1289    1.1610133    30.985945    30.985945    30.985945    29750.497 
 2465000    306.10993   -1088.3554   -23050.585   -24973.129    1922.5439    1.1610133    30.985945    30.985945    30.985945    29750.497 
 2466000    302.91001   -2854.3914   -23087.101   -24989.547    1902.4466    1.1610133    30.985945    30.985945    30.985945    29750.497 
 2467000    301.07898   -1359.2398   -23102.197   -24993.143    1890.9466    1.1610133    30.985945    30.985945    30.985945    29750.497 
 2468000    294.53515   -1750.7381   -23148.645   -24998.493    1849.8477    1.1610133    30.985945    30.985945    30.985945    29750.497 
 2469000    304.98867   -1347.0357   -22996.779    -24912.28    1915.5017    1.1610133    30.985945    30.985945    30.985945    29750.497 
 2470000    304.20595   -1932.6549   -23071.742   -24982.328    1910.5858    1.1610133    30.985945    30.985945    30.985945    29750.497 
 2471000    300.63924   -1537.6019   -23168.189   -25056.374    1888.1848    1.1610133    30.985945    30.985945    30.985945    29750.497 
 2472000    297.71295   -1081.3502   -23197.382   -25067.188     1869.806    1.1610133    30.985945    30.985945    30.985945    29750.497 
 2473000    301.64917   -1773.2555   -23033.329   -24927.857    1894.5278    1.1610133    30.985945    30.985945    30.985945    29750.497 
 2474000    308.80432   -1213.8325   -23103.858   -25043.324    1939.4661    1.1610133    30.985945    30.985945    30.985945    29750.497 
 2475000    300.27703   -2545.2094   -23134.199   -25020.109      1885.91    1.1610133    30.985945    30.985945    30.985945    29750.497 
 2476000    292.17849   -2145.6078   -23188.303    -25023.35    1835.0465    1.1610133    30.985945    30.985945    30.985945    29750.497 
 2477000    297.42532   -1606.4526   -23119.771    -24987.77    1867.9996    1.1610133    30.985945    30.985945    30.985945    29750.497 
 2478000    297.04885   -1370.0391   -23168.204   -25033.839    1865.6352    1.1610133    30.985945    30.985945    30.985945    29750.497 
 2479000    303.62917   -2435.4398   -23137.286   -25044.249    1906.9633    1.1610133    30.985945    30.985945    30.985945    29750.497 
 2480000    299.41164   -496.18174   -23135.991   -25016.466    1880.4748    1.1610133    30.985945    30.985945    30.985945    29750.497 
 2481000    297.50385   -1974.9801   -23097.319   -24965.812    1868.4928    1.1610133    30.985945    30.985945    30.985945    29750.497 
 2482000    298.43353   -1996.2988   -23056.017   -24930.348    1874.3317    1.1610133    30.985945    30.985945    30.985945    29750.497 
 2483000    300.58367   -1331.9681   -23058.874   -24946.709    1887.8358    1.1610133    30.985945    30.985945    30.985945    29750.497 
 2484000    296.23906   -1836.8072   -23081.253   -24941.802    1860.5492    1.1610133    30.985945    30.985945    30.985945    29750.497 
 2485000     296.7659   -1715.3404   -23117.736   -24981.594     1863.858    1.1610133    30.985945    30.985945    30.985945    29750.497 
 2486000    304.07878   -1863.6056   -23078.766   -24988.554    1909.7871    1.1610133    30.985945    30.985945    30.985945    29750.497 
 2487000    301.25377   -2132.6391    -23094.16   -24986.205    1892.0444    1.1610133    30.985945    30.985945    30.985945    29750.497 
 2488000    293.82867   -1707.6301    -23060.57   -24905.981    1845.4106    1.1610133    30.985945    30.985945    30.985945    29750.497 
 2489000    306.69089   -1325.1362   -23028.085   -24954.277    1926.1926    1.1610133    30.985945    30.985945    30.985945    29750.497 
 2490000    302.84188   -837.66278   -23043.679   -24945.698    1902.0186    1.1610133    30.985945    30.985945    30.985945    29750.497 
 2491000    303.95881   -1383.6637    -23109.01   -25018.043    1909.0336    1.1610133    30.985945    30.985945    30.985945    29750.497 
 2492000    300.26102   -1881.0427   -23079.508   -24965.317    1885.8094    1.1610133    30.985945    30.985945    30.985945    29750.497 
 2493000    296.06044   -1617.6686   -23076.737   -24936.164    1859.4274    1.1610133    30.985945    30.985945    30.985945    29750.497 
 2494000    299.78947   -1449.7013   -23154.371   -25037.219    1882.8478    1.1610133    30.985945    30.985945    30.985945    29750.497 
 2495000    301.82766   -1812.4454   -23164.393   -25060.042    1895.6488    1.1610133    30.985945    30.985945    30.985945    29750.497 
 2496000    301.42873   -1379.9138   -23196.225   -25089.368    1893.1433    1.1610133    30.985945    30.985945    30.985945    29750.497 
 2497000    297.09947   -2487.9716   -23172.891   -25038.844    1865.9531    1.1610133    30.985945    30.985945    30.985945    29750.497 
 2498000    304.88139    -1833.759   -23086.404   -25001.232    1914.8279    1.1610133    30.985945    30.985945    30.985945    29750.497 
 2499000    299.22527   -2061.1681   -23137.925   -25017.229    1879.3043    1.1610133    30.985945    30.985945    30.985945    29750.497 
 2500000    296.71195   -1906.4404   -23156.365   -25019.885    1863.5192    1.1610133    30.985945    30.985945    30.985945    29750.497 
 2501000    307.23541   -1951.1231   -23026.483   -24956.095    1929.6125    1.1610133    30.985945    30.985945    30.985945    29750.497 
 2502000      296.946   -1621.1337   -23159.898   -25024.887    1864.9892    1.1610133    30.985945    30.985945    30.985945    29750.497 
 2503000    296.41741   -1338.2281   -23145.605   -25007.274    1861.6694    1.1610133    30.985945    30.985945    30.985945    29750.497 
 2504000    299.14954    -2416.326   -23104.945   -24983.774    1878.8287    1.1610133    30.985945    30.985945    30.985945    29750.497 
 2505000    304.81183   -1273.2092   -23038.717   -24953.108     1914.391    1.1610133    30.985945    30.985945    30.985945    29750.497 
 2506000    301.45987   -919.01423    -23147.85   -25041.189    1893.3389    1.1610133    30.985945    30.985945    30.985945    29750.497 
 2507000    306.25448   -1090.7221    -23142.57   -25066.021    1923.4517    1.1610133    30.985945    30.985945    30.985945    29750.497 
 2508000    309.32951   -1284.1098   -23032.758   -24975.523    1942.7647    1.1610133    30.985945    30.985945    30.985945    29750.497 
 2509000     293.5426   -1736.7667   -23143.227   -24986.841    1843.6139    1.1610133    30.985945    30.985945    30.985945    29750.497 
 2510000    291.90388   -1706.3337   -23136.482   -24969.804    1833.3218    1.1610133    30.985945    30.985945    30.985945    29750.497 
 2511000    302.26442   -1271.6866   -23134.987   -25033.379    1898.3919    1.1610133    30.985945    30.985945    30.985945    29750.497 
 2512000    294.90611   -1442.0604   -23140.863    -24993.04    1852.1775    1.1610133    30.985945    30.985945    30.985945    29750.497 
 2513000    290.74893   -1931.4594   -23158.285   -24984.353    1826.0681    1.1610133    30.985945    30.985945    30.985945    29750.497 
 2514000    305.42322   -1198.1625   -23086.555   -25004.786    1918.2309    1.1610133    30.985945    30.985945    30.985945    29750.497 
 2515000    293.32149   -1316.9722    -23223.64   -25065.865    1842.2252    1.1610133    30.985945    30.985945    30.985945    29750.497 
 2516000     298.6623   -1075.1946   -23077.405   -24953.174    1875.7685    1.1610133    30.985945    30.985945    30.985945    29750.497 
 2517000    292.38348    -2159.291   -23159.856    -24996.19     1836.334    1.1610133    30.985945    30.985945    30.985945    29750.497 
 2518000     293.0561   -1587.7517   -23139.272   -24979.831    1840.5584    1.1610133    30.985945    30.985945    30.985945    29750.497 
 2519000    293.82415   -1495.1857   -23161.178    -25006.56    1845.3822    1.1610133    30.985945    30.985945    30.985945    29750.497 
 2520000    294.75196   -1864.8013   -23155.441   -25006.651    1851.2094    1.1610133    30.985945    30.985945    30.985945    29750.497 
 2521000     300.3759   -1499.2701   -23097.089    -24983.62    1886.5309    1.1610133    30.985945    30.985945    30.985945    29750.497 
 2522000    299.80136    -2045.155   -23207.675   -25090.598    1882.9225    1.1610133    30.985945    30.985945    30.985945    29750.497 
 2523000    299.98135   -2140.1802   -23109.716   -24993.769    1884.0529    1.1610133    30.985945    30.985945    30.985945    29750.497 
 2524000    301.05634   -1919.6753    -23195.48   -25086.285    1890.8045    1.1610133    30.985945    30.985945    30.985945    29750.497 
 2525000    297.53299   -1361.1331   -23200.092   -25068.768    1868.6758    1.1610133    30.985945    30.985945    30.985945    29750.497 
 2526000    309.47386   -3068.6582   -23126.669    -25070.34    1943.6712    1.1610133    30.985945    30.985945    30.985945    29750.497 
 2527000    289.40771   -2220.8245   -23098.552   -24916.196    1817.6444    1.1610133    30.985945    30.985945    30.985945    29750.497 
 2528000    296.94049   -1795.9921   -23063.676   -24928.631    1864.9546    1.1610133    30.985945    30.985945    30.985945    29750.497 
 2529000    303.79574   -2332.2972   -22990.018   -24898.027    1908.0094    1.1610133    30.985945    30.985945    30.985945    29750.497 
 2530000    299.33193   -1713.7188   -23064.457   -24944.431    1879.9742    1.1610133    30.985945    30.985945    30.985945    29750.497 
 2531000    295.44323   -1779.8269   -23068.195   -24923.746    1855.5509    1.1610133    30.985945    30.985945    30.985945    29750.497 
 2532000    300.74519   -2158.2429   -23097.075   -24985.925    1888.8503    1.1610133    30.985945    30.985945    30.985945    29750.497 
 2533000     294.9992   -1552.4424   -23127.413   -24980.175    1852.7622    1.1610133    30.985945    30.985945    30.985945    29750.497 
 2534000    301.43581   -2549.1066   -23058.799   -24951.987    1893.1877    1.1610133    30.985945    30.985945    30.985945    29750.497 
 2535000    291.03157   -1141.5186   -23123.657     -24951.5    1827.8432    1.1610133    30.985945    30.985945    30.985945    29750.497 
 2536000    301.26165   -1344.1911   -23024.305   -24916.399    1892.0939    1.1610133    30.985945    30.985945    30.985945    29750.497 
 2537000    296.46897   -1925.0438   -23065.548   -24927.541    1861.9932    1.1610133    30.985945    30.985945    30.985945    29750.497 
 2538000    310.62257   -426.78919   -22937.797   -24888.683    1950.8858    1.1610133    30.985945    30.985945    30.985945    29750.497 
 2539000    294.97301   -2044.1518   -23078.312   -24930.909    1852.5977    1.1610133    30.985945    30.985945    30.985945    29750.497 
 2540000    301.64957   -1248.0794   -23009.431   -24903.961    1894.5303    1.1610133    30.985945    30.985945    30.985945    29750.497 
 2541000    296.09986   -2001.2885   -23082.171   -24941.845    1859.6749    1.1610133    30.985945    30.985945    30.985945    29750.497 
 2542000     303.7262   -950.35007   -23019.578    -24927.15    1907.5727    1.1610133    30.985945    30.985945    30.985945    29750.497 
 2543000    298.08075   -1358.9105   -23200.864    -25072.98     1872.116    1.1610133    30.985945    30.985945    30.985945    29750.497 
 2544000    299.28803   -640.30731   -23109.388   -24989.086    1879.6985    1.1610133    30.985945    30.985945    30.985945    29750.497 
 2545000    299.22084   -2152.7297   -23133.536   -25012.812    1879.2765    1.1610133    30.985945    30.985945    30.985945    29750.497 
 2546000    299.97355   -2477.1629   -23108.203   -24992.207    1884.0039    1.1610133    30.985945    30.985945    30.985945    29750.497 
 2547000    301.41107   -1527.0196   -23169.448    -25062.48    1893.0324    1.1610133    30.985945    30.985945    30.985945    29750.497 
 2548000     300.8623    -1570.387   -23115.446   -25005.032    1889.5858    1.1610133    30.985945    30.985945    30.985945    29750.497 
 2549000    303.58913   -1649.2703   -23043.017   -24949.728    1906.7118    1.1610133    30.985945    30.985945    30.985945    29750.497 
 2550000    293.70005   -2016.9873   -23204.258   -25048.861    1844.6028    1.1610133    30.985945    30.985945    30.985945    29750.497 
 2551000    300.95707   -2438.4925   -23047.137   -24937.318     1890.181    1.1610133    30.985945    30.985945    30.985945    29750.497 
 2552000    304.43664   -2314.4225   -23005.103   -24917.138    1912.0347    1.1610133    30.985945    30.985945    30.985945    29750.497 
 2553000    287.98314   -2143.1799   -23125.756   -24934.453    1808.6973    1.1610133    30.985945    30.985945    30.985945    29750.497 
 2554000    307.83064    -2232.816   -22929.047   -24862.398    1933.3509    1.1610133    30.985945    30.985945    30.985945    29750.497 
 2555000     288.4235   -2081.9393   -23038.259   -24849.722     1811.463    1.1610133    30.985945    30.985945    30.985945    29750.497 
 2556000    297.92539   -1578.8103   -23137.443   -25008.583    1871.1403    1.1610133    30.985945    30.985945    30.985945    29750.497 
 2557000    299.88127   -1940.3474   -23030.408   -24913.833    1883.4244    1.1610133    30.985945    30.985945    30.985945    29750.497 
 2558000    298.52012   -1657.5817   -23048.229   -24923.105    1874.8755    1.1610133    30.985945    30.985945    30.985945    29750.497 
 2559000    296.73955   -2138.6269   -23112.765   -24976.458    1863.6926    1.1610133    30.985945    30.985945    30.985945    29750.497 
 2560000    296.98157   -942.74554   -23050.535   -24915.748    1865.2126    1.1610133    30.985945    30.985945    30.985945    29750.497 
 2561000    303.53957   -1405.9873   -23040.796   -24947.197    1906.4005    1.1610133    30.985945    30.985945    30.985945    29750.497 
 2562000    290.13487   -2043.4469   -23099.681   -24921.892    1822.2114    1.1610133    30.985945    30.985945    30.985945    29750.497 
 2563000    302.71432   -2699.5366   -22997.517   -24898.734    1901.2175    1.1610133    30.985945    30.985945    30.985945    29750.497 
 2564000    296.47448   -2405.4768   -23067.065   -24929.093    1862.0278    1.1610133    30.985945    30.985945    30.985945    29750.497 
 2565000    298.61472   -1798.3119   -23069.544   -24945.014    1875.4697    1.1610133    30.985945    30.985945    30.985945    29750.497 
 2566000    306.03911   -1481.9724   -23037.584   -24959.683     1922.099    1.1610133    30.985945    30.985945    30.985945    29750.497 
 2567000    303.05498   -1475.4551   -22961.134   -24864.491     1903.357    1.1610133    30.985945    30.985945    30.985945    29750.497 
 2568000    306.01584   -2003.4183   -22882.344   -24804.297    1921.9529    1.1610133    30.985945    30.985945    30.985945    29750.497 
 2569000    306.41404   -927.08932   -22989.006    -24913.46    1924.4538    1.1610133    30.985945    30.985945    30.985945    29750.497 
 2570000     300.5846   -1707.4527   -22983.298    -24871.14    1887.8417    1.1610133    30.985945    30.985945    30.985945    29750.497 
 2571000    306.40633   -1962.1119   -22911.743   -24836.149    1924.4054    1.1610133    30.985945    30.985945    30.985945    29750.497 
 2572000    295.87985   -1191.3248   -23026.781   -24885.074    1858.2931    1.1610133    30.985945    30.985945    30.985945    29750.497 
 2573000    301.17017   -1359.4283    -22985.09   -24876.609    1891.5194    1.1610133    30.985945    30.985945    30.985945    29750.497 
 2574000    303.44795    -1184.152   -23028.281   -24934.106    1905.8251    1.1610133    30.985945    30.985945    30.985945    29750.497 
 2575000    286.11233   -1940.5174   -23123.555   -24920.503    1796.9476    1.1610133    30.985945    30.985945    30.985945    29750.497 
 2576000    299.15599   -1063.0971    -23024.43   -24903.299    1878.8692    1.1610133    30.985945    30.985945    30.985945    29750.497 
 2577000    305.67784   -1866.5157   -22993.814   -24913.644    1919.8301    1.1610133    30.985945    30.985945    30.985945    29750.497 
 2578000    303.94236   -1736.8027   -23011.825   -24920.755    1908.9303    1.1610133    30.985945    30.985945    30.985945    29750.497 
 2579000    300.58501   -1472.3347   -23023.502   -24911.346    1887.8442    1.1610133    30.985945    30.985945    30.985945    29750.497 
 2580000    299.90904   -1922.8284   -23050.714   -24934.312    1883.5987    1.1610133    30.985945    30.985945    30.985945    29750.497 
 2581000    292.49307   -993.18335   -23155.556   -24992.578    1837.0222    1.1610133    30.985945    30.985945    30.985945    29750.497 
 2582000    295.97258   -1931.9241   -23053.276   -24912.152    1858.8755    1.1610133    30.985945    30.985945    30.985945    29750.497 
 2583000    300.50153   -1455.8094   -23168.469   -25055.789    1887.3199    1.1610133    30.985945    30.985945    30.985945    29750.497 
 2584000    283.80163   -2424.9067   -23258.667   -25041.102    1782.4351    1.1610133    30.985945    30.985945    30.985945    29750.497 
 2585000    291.86776   -1615.4059   -23099.603   -24932.698     1833.095    1.1610133    30.985945    30.985945    30.985945    29750.497 
 2586000    301.51681   -1947.6974   -23089.399   -24983.095    1893.6965    1.1610133    30.985945    30.985945    30.985945    29750.497 
 2587000    300.44929   -2302.8765   -23120.523   -25007.515    1886.9918    1.1610133    30.985945    30.985945    30.985945    29750.497 
 2588000    299.35887    -1777.552    -23129.05   -25009.193    1880.1434    1.1610133    30.985945    30.985945    30.985945    29750.497 
 2589000     293.9517   -2308.7104    -23055.35   -24901.533    1846.1833    1.1610133    30.985945    30.985945    30.985945    29750.497 
 2590000      301.483   -1368.6247   -23066.371   -24959.856    1893.4841    1.1610133    30.985945    30.985945    30.985945    29750.497 
 2591000    286.56715   -2548.3256   -23251.133   -25050.937    1799.8041    1.1610133    30.985945    30.985945    30.985945    29750.497 
 2592000    307.93831   -1894.4721   -23007.322   -24941.349    1934.0271    1.1610133    30.985945    30.985945    30.985945    29750.497 
 2593000    297.37315   -1461.0398   -23079.693   -24947.365    1867.6719    1.1610133    30.985945    30.985945    30.985945    29750.497 
 2594000    292.84083   -1925.6152   -23081.192   -24920.399    1839.2064    1.1610133    30.985945    30.985945    30.985945    29750.497 
 2595000      300.629   -1569.6005   -22939.778   -24827.898    1888.1205    1.1610133    30.985945    30.985945    30.985945    29750.497 
 2596000    299.84211   -2068.7855   -23000.957   -24884.135    1883.1784    1.1610133    30.985945    30.985945    30.985945    29750.497 
 2597000    301.79404   -2476.8623   -23045.784   -24941.221    1895.4376    1.1610133    30.985945    30.985945    30.985945    29750.497 
 2598000     297.2907   -1672.5266   -22980.068   -24847.222    1867.1541    1.1610133    30.985945    30.985945    30.985945    29750.497 
 2599000    304.33146   -1820.2989   -22971.486    -24882.86    1911.3741    1.1610133    30.985945    30.985945    30.985945    29750.497 
 2600000     289.5981   -1635.2317   -23201.124   -25019.964    1818.8402    1.1610133    30.985945    30.985945    30.985945    29750.497 
 2601000    300.23949   -970.75783   -22986.974   -24872.649    1885.6741    1.1610133    30.985945    30.985945    30.985945    29750.497 
 2602000    295.19295   -1174.4332   -23056.606   -24910.585    1853.9791    1.1610133    30.985945    30.985945    30.985945    29750.497 
 2603000    296.73232     -2231.57   -23101.454   -24965.102    1863.6472    1.1610133    30.985945    30.985945    30.985945    29750.497 
 2604000    299.17381   -1120.7311   -23032.819     -24911.8    1878.9811    1.1610133    30.985945    30.985945    30.985945    29750.497 
 2605000    292.65038   -1756.6938   -23033.874   -24871.884    1838.0103    1.1610133    30.985945    30.985945    30.985945    29750.497 
 2606000    299.56957   -1219.7314   -23050.153   -24931.619    1881.4667    1.1610133    30.985945    30.985945    30.985945    29750.497 
 2607000    295.93825   -1256.6706   -23070.977   -24929.637      1858.66    1.1610133    30.985945    30.985945    30.985945    29750.497 
 2608000    297.97228    -608.2525   -23039.213   -24910.648    1871.4348    1.1610133    30.985945    30.985945    30.985945    29750.497 
 2609000    295.63338     -1963.56   -23012.054   -24868.799    1856.7452    1.1610133    30.985945    30.985945    30.985945    29750.497 
 2610000     286.9097   -2105.8844   -23101.545     -24903.5    1801.9555    1.1610133    30.985945    30.985945    30.985945    29750.497 
 2611000    296.47871   -2051.6668   -23070.272   -24932.326    1862.0543    1.1610133    30.985945    30.985945    30.985945    29750.497 
 2612000    295.31182   -1533.2061   -23075.696   -24930.422    1854.7256    1.1610133    30.985945    30.985945    30.985945    29750.497 
 2613000    301.04248   -2061.6617   -23036.354   -24927.071    1890.7174    1.1610133    30.985945    30.985945    30.985945    29750.497 
 2614000    300.20571   -1605.9474   -23040.571   -24926.033     1885.462    1.1610133    30.985945    30.985945    30.985945    29750.497 
 2615000     310.6911   -2394.2653   -22927.827   -24879.143    1951.3162    1.1610133    30.985945    30.985945    30.985945    29750.497 
 2616000    296.59355   -2396.9559    -23097.45   -24960.226    1862.7756    1.1610133    30.985945    30.985945    30.985945    29750.497 
 2617000    294.30245   -1548.4626   -23030.824    -24879.21    1848.3862    1.1610133    30.985945    30.985945    30.985945    29750.497 
 2618000    295.33952   -2341.7828   -23083.522   -24938.422    1854.8996    1.1610133    30.985945    30.985945    30.985945    29750.497 
 2619000    297.57567   -1770.3438   -23079.373   -24948.317    1868.9439    1.1610133    30.985945    30.985945    30.985945    29750.497 
 2620000    303.09173   -1886.0624   -23095.045   -24998.633    1903.5879    1.1610133    30.985945    30.985945    30.985945    29750.497 
 2621000    297.27876   -893.65411   -23083.389   -24950.468    1867.0791    1.1610133    30.985945    30.985945    30.985945    29750.497 
 2622000    290.80633   -2795.7632   -23172.284   -24998.713    1826.4286    1.1610133    30.985945    30.985945    30.985945    29750.497 
 2623000    310.32454   -1741.3377   -23062.706    -25011.72     1949.014    1.1610133    30.985945    30.985945    30.985945    29750.497 
 2624000    290.78262    -1330.009   -23083.759   -24910.039    1826.2797    1.1610133    30.985945    30.985945    30.985945    29750.497 
 2625000    309.07169   -1784.8433   -22975.981   -24917.127    1941.1454    1.1610133    30.985945    30.985945    30.985945    29750.497 
 2626000    295.53509   -1428.7903    -23069.17   -24925.298    1856.1279    1.1610133    30.985945    30.985945    30.985945    29750.497 
 2627000    291.41412   -1132.0172   -23072.929   -24903.175    1830.2458    1.1610133    30.985945    30.985945    30.985945    29750.497 
 2628000    290.70718   -1799.2601   -23071.014    -24896.82    1825.8059    1.1610133    30.985945    30.985945    30.985945    29750.497 
 2629000     305.8754   -1551.8038   -22964.456   -24885.527    1921.0708    1.1610133    30.985945    30.985945    30.985945    29750.497 
 2630000    307.07419   -1474.4571   -22936.484   -24865.084    1928.5999    1.1610133    30.985945    30.985945    30.985945    29750.497 
 2631000    301.68889    -1753.851   -23036.656   -24931.433    1894.7772    1.1610133    30.985945    30.985945    30.985945    29750.497 
 2632000    305.43293   -1374.7419   -22997.068    -24915.36    1918.2919    1.1610133    30.985945    30.985945    30.985945    29750.497 
 2633000    304.95466   -1306.3675   -23055.394   -24970.683    1915.2881    1.1610133    30.985945    30.985945    30.985945    29750.497 
 2634000    296.76364   -1804.7935   -23087.529   -24951.373    1863.8439    1.1610133    30.985945    30.985945    30.985945    29750.497 
 2635000    294.55018   -2237.3652   -23074.946   -24924.888    1849.9421    1.1610133    30.985945    30.985945    30.985945    29750.497 
 2636000     301.1068   -2466.1204   -23002.836   -24893.958    1891.1214    1.1610133    30.985945    30.985945    30.985945    29750.497 
 2637000    305.23166   -2165.7696   -22936.239   -24853.267    1917.0279    1.1610133    30.985945    30.985945    30.985945    29750.497 
 2638000    299.54588   -1572.8072   -23080.376   -24961.694    1881.3179    1.1610133    30.985945    30.985945    30.985945    29750.497 
 2639000     300.9911   -2280.0305   -23066.716    -24957.11    1890.3947    1.1610133    30.985945    30.985945    30.985945    29750.497 
 2640000    295.51668   -939.63508   -23073.991   -24930.003    1856.0123    1.1610133    30.985945    30.985945    30.985945    29750.497 
 2641000    295.89451   -1746.7546   -23112.421   -24970.806    1858.3852    1.1610133    30.985945    30.985945    30.985945    29750.497 
 2642000    295.59019   -2674.2801   -23070.938   -24927.412    1856.4739    1.1610133    30.985945    30.985945    30.985945    29750.497 
 2643000    302.86514   -2640.9661   -23043.202   -24945.367    1902.1647    1.1610133    30.985945    30.985945    30.985945    29750.497 
 2644000    293.53373   -1617.3788   -23098.092   -24941.651    1843.5582    1.1610133    30.985945    30.985945    30.985945    29750.497 
 2645000    287.46787   -1904.9714   -23087.129    -24892.59    1805.4612    1.1610133    30.985945    30.985945    30.985945    29750.497 
 2646000    302.42189   -1091.1927   -23125.458   -25024.838    1899.3809    1.1610133    30.985945    30.985945    30.985945    29750.497 
 2647000    296.87864    -1253.614   -23114.331   -24978.897    1864.5661    1.1610133    30.985945    30.985945    30.985945    29750.497 
 2648000    295.01156   -1857.1517   -23110.251   -24963.091    1852.8398    1.1610133    30.985945    30.985945    30.985945    29750.497 
 2649000    296.34092   -1217.2288   -23092.433   -24953.622    1861.1889    1.1610133    30.985945    30.985945    30.985945    29750.497 
 2650000    297.49416   -976.15904   -22923.626   -24792.058    1868.4319    1.1610133    30.985945    30.985945    30.985945    29750.497 
 2651000    290.78011   -2881.5401   -23065.071   -24891.335    1826.2639    1.1610133    30.985945    30.985945    30.985945    29750.497 
 2652000    304.06731   -1344.1968   -23030.293   -24940.008     1909.715    1.1610133    30.985945    30.985945    30.985945    29750.497 
 2653000    298.06381   -2339.2807   -23149.729   -25021.739    1872.0096    1.1610133    30.985945    30.985945    30.985945    29750.497 
 2654000    293.87517   -2140.5765   -23159.524   -25005.227    1845.7027    1.1610133    30.985945    30.985945    30.985945    29750.497 
 2655000    292.33334    -1530.553   -23070.346   -24906.365    1836.0191    1.1610133    30.985945    30.985945    30.985945    29750.497 
 2656000     285.8042   -1515.3863   -23110.429   -24905.442    1795.0124    1.1610133    30.985945    30.985945    30.985945    29750.497 
 2657000    300.06624   -2105.6844   -22965.319   -24849.905    1884.5861    1.1610133    30.985945    30.985945    30.985945    29750.497 
 2658000    295.77643   -1356.9919    -23144.89   -25002.534    1857.6436    1.1610133    30.985945    30.985945    30.985945    29750.497 
 2659000    307.26206   -1140.7012   -23046.116   -24975.896    1929.7799    1.1610133    30.985945    30.985945    30.985945    29750.497 
 2660000    304.55829   -767.00288     -23036.6   -24949.399    1912.7987    1.1610133    30.985945    30.985945    30.985945    29750.497 
 2661000     306.8365   -1923.9463   -22895.368   -24822.476    1927.1071    1.1610133    30.985945    30.985945    30.985945    29750.497 
 2662000    294.85324   -1628.8912   -23003.904   -24855.749    1851.8455    1.1610133    30.985945    30.985945    30.985945    29750.497 
 2663000    297.37381   -2217.4188   -23013.784   -24881.461    1867.6761    1.1610133    30.985945    30.985945    30.985945    29750.497 
 2664000    291.63732   -1549.4645   -23124.536   -24956.184    1831.6477    1.1610133    30.985945    30.985945    30.985945    29750.497 
 2665000    301.73967   -1901.9049   -23009.171   -24904.267    1895.0961    1.1610133    30.985945    30.985945    30.985945    29750.497 
 2666000    301.69053   -820.21528   -23066.329   -24961.117    1894.7875    1.1610133    30.985945    30.985945    30.985945    29750.497 
 2667000    300.08784   -801.55622   -23082.378     -24967.1    1884.7217    1.1610133    30.985945    30.985945    30.985945    29750.497 
 2668000    298.82902   -1732.7148   -23068.421   -24945.236    1876.8156    1.1610133    30.985945    30.985945    30.985945    29750.497 
 2669000    297.01378   -1811.6975   -23055.424   -24920.839    1865.4149    1.1610133    30.985945    30.985945    30.985945    29750.497 
 2670000     303.1423   -685.50151    -22964.77   -24868.676    1903.9055    1.1610133    30.985945    30.985945    30.985945    29750.497 
 2671000    294.35576   -855.41528   -23083.693   -24932.414     1848.721    1.1610133    30.985945    30.985945    30.985945    29750.497 
 2672000     292.4865   -866.80924    -23081.31   -24918.291     1836.981    1.1610133    30.985945    30.985945    30.985945    29750.497 
 2673000    299.83886   -1002.7188   -23089.747   -24972.905     1883.158    1.1610133    30.985945    30.985945    30.985945    29750.497 
 2674000    291.14432   -1864.4036   -23111.958   -24940.509    1828.5513    1.1610133    30.985945    30.985945    30.985945    29750.497 
 2675000    299.35303   -1999.5062   -23051.966   -24932.073    1880.1067    1.1610133    30.985945    30.985945    30.985945    29750.497 
 2676000    298.65654   -1207.0811   -23080.598    -24956.33    1875.7323    1.1610133    30.985945    30.985945    30.985945    29750.497 
 2677000    300.18165   -1908.5235   -23082.453   -24967.764    1885.3109    1.1610133    30.985945    30.985945    30.985945    29750.497 
 2678000    307.03655   -1804.0783   -23076.629   -25004.992    1928.3636    1.1610133    30.985945    30.985945    30.985945    29750.497 
 2679000    301.46596   -2338.5165   -23096.547   -24989.924    1893.3771    1.1610133    30.985945    30.985945    30.985945    29750.497 
 2680000    298.58798   -2050.0352   -23037.795   -24913.097    1875.3018    1.1610133    30.985945    30.985945    30.985945    29750.497 
 2681000    301.14614   -2150.5281   -23018.483   -24909.852    1891.3684    1.1610133    30.985945    30.985945    30.985945    29750.497 
 2682000    294.75469   -2380.5822    -23053.33   -24904.556    1851.2265    1.1610133    30.985945    30.985945    30.985945    29750.497 
 2683000     289.0369    -1357.622   -23106.701   -24922.017    1815.3155    1.1610133    30.985945    30.985945    30.985945    29750.497 
 2684000     293.7822   -1083.8638    -23040.76   -24885.879    1845.1187    1.1610133    30.985945    30.985945    30.985945    29750.497 
 2685000    295.51557   -2152.5812   -23097.349   -24953.355    1856.0053    1.1610133    30.985945    30.985945    30.985945    29750.497 
 2686000    303.46092   -1485.0412   -23057.671   -24963.577    1905.9066    1.1610133    30.985945    30.985945    30.985945    29750.497 
 2687000     296.8786   -1391.8187    -23063.45   -24928.016    1864.5658    1.1610133    30.985945    30.985945    30.985945    29750.497 
 2688000    296.39943   -2391.2157   -23061.584    -24923.14    1861.5564    1.1610133    30.985945    30.985945    30.985945    29750.497 
 2689000    297.63396   -1565.1724   -23081.032   -24950.342      1869.31    1.1610133    30.985945    30.985945    30.985945    29750.497 
 2690000    299.29809   -844.97813   -23021.849   -24901.611    1879.7616    1.1610133    30.985945    30.985945    30.985945    29750.497 
 2691000    298.68336   -2168.3267   -23055.805   -24931.706    1875.9008    1.1610133    30.985945    30.985945    30.985945    29750.497 
 2692000    297.37313   -1293.2386   -23003.701   -24871.372    1867.6718    1.1610133    30.985945    30.985945    30.985945    29750.497 
 2693000    296.69721   -1885.0208   -23108.356   -24971.783    1863.4266    1.1610133    30.985945    30.985945    30.985945    29750.497 
 2694000    292.26177   -1463.5732    -23135.06    -24970.63    1835.5696    1.1610133    30.985945    30.985945    30.985945    29750.497 
 2695000    313.99096   -1991.5248   -22998.701   -24970.743    1972.0412    1.1610133    30.985945    30.985945    30.985945    29750.497 
 2696000    300.23533    -1146.578   -22927.818   -24813.466     1885.648    1.1610133    30.985945    30.985945    30.985945    29750.497 
 2697000    292.15617   -1653.1535   -23076.595   -24911.502    1834.9064    1.1610133    30.985945    30.985945    30.985945    29750.497 
 2698000    302.87985   -1333.3776   -23156.071   -25058.328    1902.2571    1.1610133    30.985945    30.985945    30.985945    29750.497 
 2699000    303.26981   -1703.8065   -23040.271   -24944.977    1904.7063    1.1610133    30.985945    30.985945    30.985945    29750.497 
 2700000    290.80291    -808.5167    -23120.54   -24946.947    1826.4071    1.1610133    30.985945    30.985945    30.985945    29750.497 
 2701000    305.12605   -1529.1091   -22999.125    -24915.49    1916.3645    1.1610133    30.985945    30.985945    30.985945    29750.497 
 2702000    295.29442   -861.08523   -23093.832   -24948.448    1854.6163    1.1610133    30.985945    30.985945    30.985945    29750.497 
 2703000    288.55958   -1780.2924   -23091.985   -24904.303    1812.3177    1.1610133    30.985945    30.985945    30.985945    29750.497 
 2704000    295.83398   -1628.3214    -23124.78   -24982.785    1858.0051    1.1610133    30.985945    30.985945    30.985945    29750.497 
 2705000    299.45447   -683.56394   -23099.713   -24980.457    1880.7438    1.1610133    30.985945    30.985945    30.985945    29750.497 
 2706000    295.25134   -2585.2466   -23119.779   -24974.125    1854.3458    1.1610133    30.985945    30.985945    30.985945    29750.497 
 2707000    300.26815   -1695.0605   -23030.124   -24915.978    1885.8542    1.1610133    30.985945    30.985945    30.985945    29750.497 
 2708000    293.79258   -1736.4198   -23105.735   -24950.919    1845.1839    1.1610133    30.985945    30.985945    30.985945    29750.497 
 2709000    305.31405   -2407.5542   -22982.122   -24899.667    1917.5453    1.1610133    30.985945    30.985945    30.985945    29750.497 
 2710000    303.10013    -1070.464   -23096.977   -25000.617    1903.6406    1.1610133    30.985945    30.985945    30.985945    29750.497 
 2711000    298.58473   -1457.4375   -23076.016   -24951.298    1875.2814    1.1610133    30.985945    30.985945    30.985945    29750.497 
 2712000    307.66427   -1820.6218   -23070.769   -25003.075     1932.306    1.1610133    30.985945    30.985945    30.985945    29750.497 
 2713000    306.32926   -1498.6497   -22997.135   -24921.057    1923.9214    1.1610133    30.985945    30.985945    30.985945    29750.497 
 2714000    292.05005   -1704.1941   -23051.295   -24885.535    1834.2398    1.1610133    30.985945    30.985945    30.985945    29750.497 
 2715000    290.99717   -1913.6884   -23087.029   -24914.656    1827.6272    1.1610133    30.985945    30.985945    30.985945    29750.497 
 2716000    300.72922   -1824.9398    -22980.95     -24869.7      1888.75    1.1610133    30.985945    30.985945    30.985945    29750.497 
 2717000    303.99782   -2118.5233   -23034.839   -24944.118    1909.2786    1.1610133    30.985945    30.985945    30.985945    29750.497 
 2718000    289.95367   -1507.9348   -23153.538   -24974.611    1821.0734    1.1610133    30.985945    30.985945    30.985945    29750.497 
 2719000     303.6031     -1796.17   -23134.827   -25041.627    1906.7996    1.1610133    30.985945    30.985945    30.985945    29750.497 
 2720000    291.66463   -1300.9916   -23231.604   -25063.424    1831.8192    1.1610133    30.985945    30.985945    30.985945    29750.497 
 2721000    295.45762   -2016.9659   -23165.343   -25020.984    1855.6413    1.1610133    30.985945    30.985945    30.985945    29750.497 
 2722000    305.96959   -1708.8366   -23013.232   -24934.894    1921.6624    1.1610133    30.985945    30.985945    30.985945    29750.497 
 2723000    305.50392   -1445.6525   -22976.724   -24895.462    1918.7378    1.1610133    30.985945    30.985945    30.985945    29750.497 
 2724000    300.68059   -1559.5512   -23060.115   -24948.559    1888.4445    1.1610133    30.985945    30.985945    30.985945    29750.497 
 2725000    298.28226    -1926.022   -23038.412   -24911.794    1873.3816    1.1610133    30.985945    30.985945    30.985945    29750.497 
 2726000    295.82334   -1913.4499   -23118.704   -24976.642    1857.9383    1.1610133    30.985945    30.985945    30.985945    29750.497 
 2727000    299.05617   -1679.7185   -23060.107   -24938.349    1878.2422    1.1610133    30.985945    30.985945    30.985945    29750.497 
 2728000    298.41251   -2307.8284   -23115.603   -24989.802    1874.1997    1.1610133    30.985945    30.985945    30.985945    29750.497 
 2729000    295.24116   -1267.6026   -23141.097   -24995.379    1854.2818    1.1610133    30.985945    30.985945    30.985945    29750.497 
 2730000    301.31538   -1681.7339   -23089.921   -24982.352    1892.4314    1.1610133    30.985945    30.985945    30.985945    29750.497 
 2731000    297.33336   -1169.4817   -23081.376   -24948.798     1867.422    1.1610133    30.985945    30.985945    30.985945    29750.497 
 2732000     302.8401   -1490.8715   -23098.699   -25000.706    1902.0075    1.1610133    30.985945    30.985945    30.985945    29750.497 
 2733000    301.38384   -536.52798   -23065.914   -24958.775    1892.8613    1.1610133    30.985945    30.985945    30.985945    29750.497 
 2734000     308.8356    -551.2641    -23008.75   -24948.413    1939.6626    1.1610133    30.985945    30.985945    30.985945    29750.497 
 2735000    304.40461   -1754.1035   -23026.956   -24938.789    1911.8335    1.1610133    30.985945    30.985945    30.985945    29750.497 
 2736000    296.23443    -1452.411   -23098.668   -24959.188    1860.5201    1.1610133    30.985945    30.985945    30.985945    29750.497 
 2737000     296.8504   -1578.3766   -23077.277   -24941.666    1864.3887    1.1610133    30.985945    30.985945    30.985945    29750.497 
 2738000    294.52752   -1320.3064   -23078.487   -24928.287    1849.7998    1.1610133    30.985945    30.985945    30.985945    29750.497 
 2739000    293.88175   -1085.9126   -23102.003   -24947.747     1845.744    1.1610133    30.985945    30.985945    30.985945    29750.497 
 2740000    291.97674   -1422.0117   -23244.516   -25078.295    1833.7794    1.1610133    30.985945    30.985945    30.985945    29750.497 
 2741000    299.49357   -2021.5439   -23122.361    -25003.35    1880.9894    1.1610133    30.985945    30.985945    30.985945    29750.497 
 2742000    291.74094   -1311.1289   -23198.433   -25030.732    1832.2985    1.1610133    30.985945    30.985945    30.985945    29750.497 
 2743000    294.31492   -1000.2101   -23092.503   -24940.967    1848.4645    1.1610133    30.985945    30.985945    30.985945    29750.497 
 2744000    295.55984   -2018.2647   -23085.695   -24941.979    1856.2833    1.1610133    30.985945    30.985945    30.985945    29750.497 
 2745000    288.13533   -1577.7916   -23144.677    -24954.33    1809.6532    1.1610133    30.985945    30.985945    30.985945    29750.497 
 2746000    299.54019   -845.63278   -23063.981   -24945.263    1881.2822    1.1610133    30.985945    30.985945    30.985945    29750.497 
 2747000    292.50102   -1035.0251   -23077.627   -24914.699    1837.0722    1.1610133    30.985945    30.985945    30.985945    29750.497 
 2748000    296.65814   -2197.8931   -23200.918   -25064.099    1863.1813    1.1610133    30.985945    30.985945    30.985945    29750.497 
 2749000    303.05743   -519.85637   -23099.862   -25003.235    1903.3724    1.1610133    30.985945    30.985945    30.985945    29750.497 
 2750000    292.07058   -2325.5657   -23129.949   -24964.318    1834.3688    1.1610133    30.985945    30.985945    30.985945    29750.497 
 2751000    296.77395   -2100.8622   -23150.395   -25014.304    1863.9086    1.1610133    30.985945    30.985945    30.985945    29750.497 
 2752000    294.77607   -1588.3419   -23164.553   -25015.914    1851.3608    1.1610133    30.985945    30.985945    30.985945    29750.497 
 2753000    298.17657   -1879.8172   -23049.024   -24921.742    1872.7179    1.1610133    30.985945    30.985945    30.985945    29750.497 
 2754000    301.63212   -1724.2468   -23102.454   -24996.875    1894.4206    1.1610133    30.985945    30.985945    30.985945    29750.497 
 2755000    296.50997   -1051.3545   -23128.804   -24991.054    1862.2507    1.1610133    30.985945    30.985945    30.985945    29750.497 
 2756000    300.21809   -1227.2443   -23111.707   -24997.247    1885.5398    1.1610133    30.985945    30.985945    30.985945    29750.497 
 2757000    298.64334   -2041.4934   -23085.594   -24961.244    1875.6494    1.1610133    30.985945    30.985945    30.985945    29750.497 
 2758000     297.3316   -1505.0229   -23048.977   -24916.388     1867.411    1.1610133    30.985945    30.985945    30.985945    29750.497 
 2759000     293.1265   -1367.6151   -23070.048   -24911.048    1841.0005    1.1610133    30.985945    30.985945    30.985945    29750.497 
 2760000    295.14423   -1945.8881   -23077.756   -24931.429    1853.6731    1.1610133    30.985945    30.985945    30.985945    29750.497 
 2761000     300.1951   -1340.6936    -23035.99   -24921.386    1885.3954    1.1610133    30.985945    30.985945    30.985945    29750.497 
 2762000    303.61841   -1273.7537   -22987.573   -24894.469    1906.8957    1.1610133    30.985945    30.985945    30.985945    29750.497 
 2763000    305.48402   -1125.4927   -22946.064   -24864.677    1918.6128    1.1610133    30.985945    30.985945    30.985945    29750.497 
 2764000    304.36367   -1047.9139   -22910.666   -24822.242    1911.5763    1.1610133    30.985945    30.985945    30.985945    29750.497 
 2765000     296.8519   -1963.8333   -23129.417   -24993.816    1864.3982    1.1610133    30.985945    30.985945    30.985945    29750.497 
 2766000     295.3243   -1467.0542   -23068.734   -24923.538     1854.804    1.1610133    30.985945    30.985945    30.985945    29750.497 
 2767000    301.26738    -1421.289   -23053.572   -24945.702    1892.1299    1.1610133    30.985945    30.985945    30.985945    29750.497 
 2768000    288.01373   -1318.8981   -23091.606   -24900.495    1808.8895    1.1610133    30.985945    30.985945    30.985945    29750.497 
 2769000    294.88016     -1659.33    -23078.04   -24930.055    1852.0145    1.1610133    30.985945    30.985945    30.985945    29750.497 
 2770000    299.35046   -1512.7783   -23155.093   -25035.183    1880.0906    1.1610133    30.985945    30.985945    30.985945    29750.497 
 2771000     300.5257   -1987.3642   -23098.853   -24986.325    1887.4717    1.1610133    30.985945    30.985945    30.985945    29750.497 
 2772000     309.2812    -1521.024   -22952.942   -24895.403    1942.4612    1.1610133    30.985945    30.985945    30.985945    29750.497 
 2773000    304.30558   -726.94362   -23093.835   -25005.047    1911.2115    1.1610133    30.985945    30.985945    30.985945    29750.497 
 2774000    293.35822   -2003.5506   -23055.175   -24897.631    1842.4559    1.1610133    30.985945    30.985945    30.985945    29750.497 
 2775000    295.90965   -2177.0799    -23175.89    -25034.37    1858.4803    1.1610133    30.985945    30.985945    30.985945    29750.497 
 2776000    298.14434   -2255.5514   -23040.991   -24913.506    1872.5155    1.1610133    30.985945    30.985945    30.985945    29750.497 
 2777000    303.47892   -1218.3452    -23029.11    -24935.13    1906.0196    1.1610133    30.985945    30.985945    30.985945    29750.497 
 2778000    300.66826   -2352.9517   -23173.747   -25062.114    1888.3671    1.1610133    30.985945    30.985945    30.985945    29750.497 
 2779000    297.29631   -2338.6271   -23120.105   -24987.295    1867.1893    1.1610133    30.985945    30.985945    30.985945    29750.497 
 2780000    294.02503   -2140.2056   -23071.506   -24918.149    1846.6438    1.1610133    30.985945    30.985945    30.985945    29750.497 
 2781000    298.76822   -1874.2295   -22970.554   -24846.988    1876.4338    1.1610133    30.985945    30.985945    30.985945    29750.497 
 2782000      307.382    -666.8183   -22974.588   -24905.121    1930.5332    1.1610133    30.985945    30.985945    30.985945    29750.497 
 2783000    294.44498   -1894.9576   -23111.781   -24961.062    1849.2813    1.1610133    30.985945    30.985945    30.985945    29750.497 
 2784000    298.68939   -906.86483   -22974.115   -24850.053    1875.9387    1.1610133    30.985945    30.985945    30.985945    29750.497 
 2785000    299.34908   -1325.4274   -23044.547   -24924.629    1880.0819    1.1610133    30.985945    30.985945    30.985945    29750.497 
 2786000    297.29727   -1478.2092   -23074.428   -24941.624    1867.1954    1.1610133    30.985945    30.985945    30.985945    29750.497 
 2787000    295.25718   -1287.9783   -23066.974   -24921.356    1854.3824    1.1610133    30.985945    30.985945    30.985945    29750.497 
 2788000    302.85435   -1473.1616   -23016.881   -24918.978     1902.097    1.1610133    30.985945    30.985945    30.985945    29750.497 
 2789000    298.21124   -968.87051   -23149.111   -25022.047    1872.9356    1.1610133    30.985945    30.985945    30.985945    29750.497 
 2790000    295.45439   -1945.0058    -23123.03   -24978.651     1855.621    1.1610133    30.985945    30.985945    30.985945    29750.497 
 2791000    294.15094   -1628.3541   -23085.828   -24933.263    1847.4346    1.1610133    30.985945    30.985945    30.985945    29750.497 
 2792000     304.9765   -2442.4772   -22957.206   -24872.631    1915.4253    1.1610133    30.985945    30.985945    30.985945    29750.497 
 2793000    314.38445   -1248.9347   -22876.218   -24850.731    1974.5126    1.1610133    30.985945    30.985945    30.985945    29750.497 
 2794000    302.14007    -1517.979   -22980.662   -24878.273    1897.6109    1.1610133    30.985945    30.985945    30.985945    29750.497 
 2795000    300.85581   -1243.8463   -23012.961   -24902.506     1889.545    1.1610133    30.985945    30.985945    30.985945    29750.497 
 2796000    302.90089   -928.43401   -23003.213   -24905.602    1902.3893    1.1610133    30.985945    30.985945    30.985945    29750.497 
 2797000    290.55151   -1147.2536   -23039.827   -24864.655    1824.8282    1.1610133    30.985945    30.985945    30.985945    29750.497 
 2798000    293.95524   -1204.3304   -23001.464   -24847.669    1846.2055    1.1610133    30.985945    30.985945    30.985945    29750.497 
 2799000    300.07919   -1834.5445   -23040.926   -24925.594    1884.6674    1.1610133    30.985945    30.985945    30.985945    29750.497 
 2800000    301.74389   -1043.6107   -23013.971   -24909.093    1895.1227    1.1610133    30.985945    30.985945    30.985945    29750.497 
 2801000    307.98954    -768.5286   -23071.167   -25005.516    1934.3489    1.1610133    30.985945    30.985945    30.985945    29750.497 
 2802000    304.50683   -1181.8965   -23052.897   -24965.372    1912.4755    1.1610133    30.985945    30.985945    30.985945    29750.497 
 2803000      297.582   -2038.0483   -22964.435   -24833.419    1868.9836    1.1610133    30.985945    30.985945    30.985945    29750.497 
 2804000    301.39949   -1211.7425   -23063.167   -24956.127    1892.9596    1.1610133    30.985945    30.985945    30.985945    29750.497 
 2805000    299.38153   -1467.1061   -23048.196   -24928.482    1880.2857    1.1610133    30.985945    30.985945    30.985945    29750.497 
 2806000    302.30191   -2045.1924   -23036.893   -24935.521    1898.6273    1.1610133    30.985945    30.985945    30.985945    29750.497 
 2807000    300.09095   -2208.6768   -23038.569    -24923.31    1884.7413    1.1610133    30.985945    30.985945    30.985945    29750.497 
 2808000    308.96166   -1385.7915   -22981.701   -24922.155    1940.4543    1.1610133    30.985945    30.985945    30.985945    29750.497 
 2809000    299.41851   -2332.9222   -22966.294   -24846.812     1880.518    1.1610133    30.985945    30.985945    30.985945    29750.497 
 2810000    288.09207   -2235.7405    -23132.52   -24941.901    1809.3815    1.1610133    30.985945    30.985945    30.985945    29750.497 
 2811000    305.03363   -2858.9226   -23038.474   -24954.258    1915.7841    1.1610133    30.985945    30.985945    30.985945    29750.497 
 2812000    290.02182   -997.99219    -23142.84   -24964.342    1821.5014    1.1610133    30.985945    30.985945    30.985945    29750.497 
 2813000    292.75128   -1246.5678   -23045.485   -24884.129    1838.6439    1.1610133    30.985945    30.985945    30.985945    29750.497 
 2814000    296.94979   -1293.2204   -23094.848   -24959.861     1865.013    1.1610133    30.985945    30.985945    30.985945    29750.497 
 2815000    299.71821   -2230.8694   -23022.466   -24904.866    1882.4003    1.1610133    30.985945    30.985945    30.985945    29750.497 
 2816000    299.83309   -1776.0985    -23127.02   -25010.142    1883.1218    1.1610133    30.985945    30.985945    30.985945    29750.497 
 2817000    295.55474   -1998.3234   -23086.858    -24943.11    1856.2513    1.1610133    30.985945    30.985945    30.985945    29750.497 
 2818000    294.21011   -1501.4595   -22989.225   -24837.031    1847.8062    1.1610133    30.985945    30.985945    30.985945    29750.497 
 2819000      291.003   -900.87544   -23133.331   -24960.994    1827.6638    1.1610133    30.985945    30.985945    30.985945    29750.497 
 2820000    304.93514   -1727.2395   -23108.957   -25024.123    1915.1655    1.1610133    30.985945    30.985945    30.985945    29750.497 
 2821000    299.05783   -807.92506   -23126.947     -25005.2    1878.2527    1.1610133    30.985945    30.985945    30.985945    29750.497 
 2822000    297.85692   -1659.6363   -23101.566   -24972.276    1870.7102    1.1610133    30.985945    30.985945    30.985945    29750.497 
 2823000    297.32121    -1364.183   -23053.524   -24920.869    1867.3457    1.1610133    30.985945    30.985945    30.985945    29750.497 
 2824000    298.06619   -2301.9514   -23091.758   -24963.783    1872.0246    1.1610133    30.985945    30.985945    30.985945    29750.497 
 2825000    295.05557   -1963.1011   -23173.296   -25026.413    1853.1162    1.1610133    30.985945    30.985945    30.985945    29750.497 
 2826000    305.86622    -1823.128   -23045.456   -24966.469    1921.0132    1.1610133    30.985945    30.985945    30.985945    29750.497 
 2827000    290.48341   -1187.9507   -23052.488   -24876.888    1824.4005    1.1610133    30.985945    30.985945    30.985945    29750.497 
 2828000     303.8103   -1167.1075   -23050.058   -24958.159    1908.1009    1.1610133    30.985945    30.985945    30.985945    29750.497 
 2829000    308.18299   -1256.0796   -23072.694   -25008.258    1935.5639    1.1610133    30.985945    30.985945    30.985945    29750.497 
 2830000    295.23187   -2006.7364   -23071.634   -24925.857    1854.2235    1.1610133    30.985945    30.985945    30.985945    29750.497 
 2831000    295.92891   -1120.8882   -23138.167   -24996.769    1858.6013    1.1610133    30.985945    30.985945    30.985945    29750.497 
 2832000     304.8818   -525.59145   -22968.867   -24883.697    1914.8305    1.1610133    30.985945    30.985945    30.985945    29750.497 
 2833000    300.46671   -965.41662   -23042.894   -24929.995    1887.1013    1.1610133    30.985945    30.985945    30.985945    29750.497 
 2834000    299.61788   -2405.1491   -23162.036   -25043.806    1881.7701    1.1610133    30.985945    30.985945    30.985945    29750.497 
 2835000    292.96556   -2146.0161   -23025.082   -24865.072    1839.9898    1.1610133    30.985945    30.985945    30.985945    29750.497 
 2836000    296.26891   -912.44457   -23045.851   -24906.588    1860.7367    1.1610133    30.985945    30.985945    30.985945    29750.497 
 2837000    299.48118   -1041.8347   -23038.358    -24919.27    1880.9115    1.1610133    30.985945    30.985945    30.985945    29750.497 
 2838000     307.8198   -1503.9724   -23035.922   -24969.205    1933.2828    1.1610133    30.985945    30.985945    30.985945    29750.497 
 2839000    296.13672   -2271.9673   -23119.524    -24979.43    1859.9064    1.1610133    30.985945    30.985945    30.985945    29750.497 
 2840000    286.92287     -625.693   -23142.199   -24944.238    1802.0383    1.1610133    30.985945    30.985945    30.985945    29750.497 
 2841000    304.36546    -1193.664    -22971.25   -24882.838    1911.5876    1.1610133    30.985945    30.985945    30.985945    29750.497 
 2842000    296.19233   -2359.5146   -23032.655   -24892.911    1860.2557    1.1610133    30.985945    30.985945    30.985945    29750.497 
 2843000    298.54689   -1573.4022   -23047.329   -24922.373    1875.0437    1.1610133    30.985945    30.985945    30.985945    29750.497 
 2844000    290.34303   -1456.7044   -23114.928   -24938.447    1823.5188    1.1610133    30.985945    30.985945    30.985945    29750.497 
 2845000    295.21009   -1021.4017    -23115.76   -24969.847    1854.0867    1.1610133    30.985945    30.985945    30.985945    29750.497 
 2846000    297.66188   -1535.2058   -23049.738   -24919.223    1869.4853    1.1610133    30.985945    30.985945    30.985945    29750.497 
 2847000    291.63907   -1563.9706   -22984.074   -24815.733    1831.6587    1.1610133    30.985945    30.985945    30.985945    29750.497 
 2848000    301.40159    -1886.247    -23043.43   -24936.402    1892.9728    1.1610133    30.985945    30.985945    30.985945    29750.497 
 2849000    297.92876   -1644.9708   -23022.467   -24893.629    1871.1615    1.1610133    30.985945    30.985945    30.985945    29750.497 
 2850000    292.03768   -1133.9422   -23181.154   -25015.316    1834.1622    1.1610133    30.985945    30.985945    30.985945    29750.497 
 2851000    310.37324   -2368.3811   -23000.837   -24950.157    1949.3199    1.1610133    30.985945    30.985945    30.985945    29750.497 
 2852000    297.22216   -1463.0651   -23004.118   -24870.842    1866.7236    1.1610133    30.985945    30.985945    30.985945    29750.497 
 2853000    301.78364   -2340.1385   -22975.486   -24870.858    1895.3723    1.1610133    30.985945    30.985945    30.985945    29750.497 
 2854000    306.66026   -1854.6987   -23042.739   -24968.739    1926.0002    1.1610133    30.985945    30.985945    30.985945    29750.497 
 2855000     297.3637   -2031.8758   -23064.743   -24932.355    1867.6126    1.1610133    30.985945    30.985945    30.985945    29750.497 
 2856000     295.5908   -2233.4215   -23052.083    -24908.56    1856.4778    1.1610133    30.985945    30.985945    30.985945    29750.497 
 2857000    305.46222   -1912.3656   -23007.664    -24926.14    1918.4759    1.1610133    30.985945    30.985945    30.985945    29750.497 
 2858000    309.34472   -2138.8203   -22893.705   -24836.566    1942.8601    1.1610133    30.985945    30.985945    30.985945    29750.497 
 2859000    304.91309   -1434.5717   -22927.566   -24842.593     1915.027    1.1610133    30.985945    30.985945    30.985945    29750.497 
 2860000    290.97729   -951.26175   -23094.407    -24921.91    1827.5023    1.1610133    30.985945    30.985945    30.985945    29750.497 
 2861000    303.36203   -1657.6564    -22951.24   -24856.525    1905.2855    1.1610133    30.985945    30.985945    30.985945    29750.497 
 2862000    292.36318   -373.14643    -23079.11   -24915.316    1836.2065    1.1610133    30.985945    30.985945    30.985945    29750.497 
 2863000    304.43971   -1419.2447   -23039.775   -24951.829    1912.0539    1.1610133    30.985945    30.985945    30.985945    29750.497 
 2864000    297.81578   -811.51212   -23065.552   -24936.003    1870.4519    1.1610133    30.985945    30.985945    30.985945    29750.497 
 2865000    307.53363   -2400.4042   -22966.273   -24897.758    1931.4855    1.1610133    30.985945    30.985945    30.985945    29750.497 
 2866000    299.42875   -1459.9034   -22951.844   -24832.427    1880.5822    1.1610133    30.985945    30.985945    30.985945    29750.497 
 2867000    291.92122    -1881.646   -23013.586   -24847.017    1833.4307    1.1610133    30.985945    30.985945    30.985945    29750.497 
 2868000    299.93714   -1778.9871   -23023.116   -24906.891    1883.7753    1.1610133    30.985945    30.985945    30.985945    29750.497 
 2869000    290.79319   -1720.7527   -23097.789   -24924.135     1826.346    1.1610133    30.985945    30.985945    30.985945    29750.497 
 2870000    298.09529   -1044.6342   -23053.249   -24925.456    1872.2074    1.1610133    30.985945    30.985945    30.985945    29750.497 
 2871000    296.74338   -1332.8677   -23081.105   -24944.821    1863.7166    1.1610133    30.985945    30.985945    30.985945    29750.497 
 2872000     299.3925   -2791.4373   -23065.126    -24945.48    1880.3546    1.1610133    30.985945    30.985945    30.985945    29750.497 
 2873000    302.98706   -1977.4304   -23030.005   -24932.936    1902.9305    1.1610133    30.985945    30.985945    30.985945    29750.497 
 2874000    297.29265   -2609.6157   -23098.962   -24966.128    1867.1663    1.1610133    30.985945    30.985945    30.985945    29750.497 
 2875000    299.64872   -1393.2881   -23092.507   -24974.471    1881.9638    1.1610133    30.985945    30.985945    30.985945    29750.497 
 2876000    298.40932   -1881.2356   -23058.329   -24932.509    1874.1797    1.1610133    30.985945    30.985945    30.985945    29750.497 
 2877000    290.54791   -1448.5712   -23143.276   -24968.082    1824.8056    1.1610133    30.985945    30.985945    30.985945    29750.497 
 2878000    294.16075   -1115.1914   -23124.557   -24972.053    1847.4962    1.1610133    30.985945    30.985945    30.985945    29750.497 
 2879000    301.47211   -656.97667   -23014.732   -24908.148    1893.4157    1.1610133    30.985945    30.985945    30.985945    29750.497 
 2880000    298.00987   -1825.0327   -23086.042   -24957.713    1871.6709    1.1610133    30.985945    30.985945    30.985945    29750.497 
 2881000     288.5656   -1225.6222   -23106.993   -24919.349    1812.3555    1.1610133    30.985945    30.985945    30.985945    29750.497 
 2882000    308.54913   -1647.7907   -22993.365   -24931.228    1937.8634    1.1610133    30.985945    30.985945    30.985945    29750.497 
 2883000    296.73371   -1620.4217   -23149.243   -25012.899    1863.6559    1.1610133    30.985945    30.985945    30.985945    29750.497 
 2884000    293.50128     -1425.24   -23140.671   -24984.026    1843.3544    1.1610133    30.985945    30.985945    30.985945    29750.497 
 2885000    296.46343   -1077.5467   -23014.035   -24875.993    1861.9584    1.1610133    30.985945    30.985945    30.985945    29750.497 
 2886000    297.49185   -1609.9971   -23046.987   -24915.404    1868.4174    1.1610133    30.985945    30.985945    30.985945    29750.497 
 2887000    295.20956   -1734.0733   -23099.685   -24953.769    1854.0834    1.1610133    30.985945    30.985945    30.985945    29750.497 
 2888000    300.71112   -731.05985   -23092.167   -24980.803    1888.6363    1.1610133    30.985945    30.985945    30.985945    29750.497 
 2889000    301.63625   -1485.8748   -23084.866   -24979.313    1894.4466    1.1610133    30.985945    30.985945    30.985945    29750.497 
 2890000    303.82035   -1416.1482   -23068.027   -24976.191     1908.164    1.1610133    30.985945    30.985945    30.985945    29750.497 
 2891000    298.56355   -1969.2824   -23113.962   -24989.111    1875.1483    1.1610133    30.985945    30.985945    30.985945    29750.497 
 2892000    305.33429   -1525.7832   -23110.308    -25027.98    1917.6724    1.1610133    30.985945    30.985945    30.985945    29750.497 
 2893000    295.88656    -2538.142   -23124.147   -24982.482    1858.3353    1.1610133    30.985945    30.985945    30.985945    29750.497 
 2894000    296.00137   -1803.4192   -23153.373   -25012.429    1859.0564    1.1610133    30.985945    30.985945    30.985945    29750.497 
 2895000     308.4239   -705.37358   -23007.261   -24944.338    1937.0769    1.1610133    30.985945    30.985945    30.985945    29750.497 
 2896000    298.68781   -2056.4504   -23091.082    -24967.01    1875.9288    1.1610133    30.985945    30.985945    30.985945    29750.497 
 2897000    300.63447   -2638.0987   -22976.646   -24864.801    1888.1549    1.1610133    30.985945    30.985945    30.985945    29750.497 
 2898000    298.58442   -1253.6097   -22976.194   -24851.473    1875.2794    1.1610133    30.985945    30.985945    30.985945    29750.497 
 2899000    300.11222   -1534.9077   -23028.128   -24913.002    1884.8748    1.1610133    30.985945    30.985945    30.985945    29750.497 
 2900000    295.94911   -376.27749    -23098.12   -24956.848    1858.7281    1.1610133    30.985945    30.985945    30.985945    29750.497 
 2901000    291.12585   -990.02061   -23058.719   -24887.154    1828.4353    1.1610133    30.985945    30.985945    30.985945    29750.497 
 2902000    297.02518   -1034.6413   -23048.954    -24914.44    1865.4865    1.1610133    30.985945    30.985945    30.985945    29750.497 
 2903000    296.56676   -1951.4129   -23123.261   -24985.868    1862.6073    1.1610133    30.985945    30.985945    30.985945    29750.497 
 2904000    294.82023   -1976.6005   -23106.752    -24958.39    1851.6381    1.1610133    30.985945    30.985945    30.985945    29750.497 
 2905000    291.37221   -1316.1508   -23122.493   -24952.475    1829.9826    1.1610133    30.985945    30.985945    30.985945    29750.497 
 2906000    300.92136    -2258.176   -23059.215   -24949.172    1889.9567    1.1610133    30.985945    30.985945    30.985945    29750.497 
 2907000    296.65021   -1554.8149   -23092.861   -24955.993    1863.1314    1.1610133    30.985945    30.985945    30.985945    29750.497 
 2908000    291.90816   -1607.7272   -23200.544   -25033.892    1833.3487    1.1610133    30.985945    30.985945    30.985945    29750.497 
 2909000    297.79231   -1432.0361   -23179.284   -25049.588    1870.3045    1.1610133    30.985945    30.985945    30.985945    29750.497 
 2910000    288.68812   -2020.5457   -23155.022   -24968.147     1813.125    1.1610133    30.985945    30.985945    30.985945    29750.497 
 2911000    299.26619   -2128.2789   -23112.507   -24992.068    1879.5613    1.1610133    30.985945    30.985945    30.985945    29750.497 
 2912000    306.27291   -2080.5908   -23019.863   -24943.431    1923.5675    1.1610133    30.985945    30.985945    30.985945    29750.497 
 2913000    302.42424   -1459.9004   -23093.166   -24992.561    1899.3956    1.1610133    30.985945    30.985945    30.985945    29750.497 
 2914000     297.2424   -1196.9427    -23094.49   -24961.341    1866.8508    1.1610133    30.985945    30.985945    30.985945    29750.497 
 2915000    300.27623   -1892.4628   -23076.532   -24962.437    1885.9049    1.1610133    30.985945    30.985945    30.985945    29750.497 
 2916000    298.30303   -1518.8947   -23028.492   -24902.004    1873.5121    1.1610133    30.985945    30.985945    30.985945    29750.497 
 2917000    296.01386    -1484.461   -23095.778   -24954.913    1859.1348    1.1610133    30.985945    30.985945    30.985945    29750.497 
 2918000    307.80444   -1215.0395   -23080.291   -25013.477    1933.1864    1.1610133    30.985945    30.985945    30.985945    29750.497 
 2919000    291.79272   -1327.3127   -23109.798   -24942.421    1832.6237    1.1610133    30.985945    30.985945    30.985945    29750.497 
 2920000     298.7032   -1100.3531   -23041.121   -24917.146    1876.0254    1.1610133    30.985945    30.985945    30.985945    29750.497 
 2921000    296.66183   -1277.8401   -23129.085   -24992.289    1863.2044    1.1610133    30.985945    30.985945    30.985945    29750.497 
 2922000    298.23032   -436.54554   -23085.858   -24958.914    1873.0554    1.1610133    30.985945    30.985945    30.985945    29750.497 
 2923000    295.88437    -1184.346   -23103.668    -24961.99    1858.3215    1.1610133    30.985945    30.985945    30.985945    29750.497 
 2924000    291.66475   -1221.5713   -23113.498   -24945.318    1831.8199    1.1610133    30.985945    30.985945    30.985945    29750.497 
 2925000    294.76859   -1485.4665   -23133.535   -24984.848    1851.3138    1.1610133    30.985945    30.985945    30.985945    29750.497 
 2926000    308.05231   -1351.4716   -22966.566   -24901.309    1934.7431    1.1610133    30.985945    30.985945    30.985945    29750.497 
 2927000     291.9805   -2198.3128    -23142.35   -24976.153     1833.803    1.1610133    30.985945    30.985945    30.985945    29750.497 
 2928000    287.20141   -2105.8176       -23150   -24953.787    1803.7876    1.1610133    30.985945    30.985945    30.985945    29750.497 
 2929000    300.08572   -1230.9178   -23110.775   -24995.483    1884.7084    1.1610133    30.985945    30.985945    30.985945    29750.497 
 2930000    300.23253   -1517.0401   -23112.704   -24998.335    1885.6304    1.1610133    30.985945    30.985945    30.985945    29750.497 
 2931000    299.39439   -673.60848   -23063.935   -24944.301    1880.3665    1.1610133    30.985945    30.985945    30.985945    29750.497 
 2932000    301.43733   -1270.9118   -23063.753    -24956.95    1893.1973    1.1610133    30.985945    30.985945    30.985945    29750.497 
 2933000    302.41754   -1812.5056   -23076.174   -24975.528    1899.3536    1.1610133    30.985945    30.985945    30.985945    29750.497 
 2934000    296.10204   -1145.0764   -23062.364   -24922.053    1859.6886    1.1610133    30.985945    30.985945    30.985945    29750.497 
 2935000     292.6611   -576.61309   -23153.473    -24991.55    1838.0776    1.1610133    30.985945    30.985945    30.985945    29750.497 
 2936000    293.15091   -1843.2706   -23175.207   -25016.361    1841.1539    1.1610133    30.985945    30.985945    30.985945    29750.497 
 2937000    301.71995   -1763.1612   -23142.426   -25037.399    1894.9723    1.1610133    30.985945    30.985945    30.985945    29750.497 
 2938000    306.70084   -751.59865   -23010.916   -24937.171    1926.2551    1.1610133    30.985945    30.985945    30.985945    29750.497 
 2939000    307.61137   -2226.6882   -23013.206    -24945.18    1931.9737    1.1610133    30.985945    30.985945    30.985945    29750.497 
 2940000    298.30813   -1154.0154   -23130.504   -25004.048    1873.5441    1.1610133    30.985945    30.985945    30.985945    29750.497 
 2941000    299.59371   -1963.7242   -23076.859   -24958.477    1881.6183    1.1610133    30.985945    30.985945    30.985945    29750.497 
 2942000     301.4872   -2417.5282   -23025.528   -24919.039    1893.5105    1.1610133    30.985945    30.985945    30.985945    29750.497 
 2943000    300.68168   -1766.3065   -23135.418   -25023.869    1888.4514    1.1610133    30.985945    30.985945    30.985945    29750.497 
 2944000    296.57757   -1516.0877   -23104.409   -24967.084    1862.6752    1.1610133    30.985945    30.985945    30.985945    29750.497 
 2945000    298.23996   -1772.4013   -23091.106   -24964.222     1873.116    1.1610133    30.985945    30.985945    30.985945    29750.497 
 2946000    296.93686   -2331.4394   -23041.606   -24906.538    1864.9317    1.1610133    30.985945    30.985945    30.985945    29750.497 
 2947000    298.39875   -2447.2858   -23084.526   -24958.639    1874.1133    1.1610133    30.985945    30.985945    30.985945    29750.497 
 2948000     297.1387   -1613.6561   -23044.577   -24910.777    1866.1994    1.1610133    30.985945    30.985945    30.985945    29750.497 
 2949000    299.91536   -2424.9933   -23110.981    -24994.62    1883.6384    1.1610133    30.985945    30.985945    30.985945    29750.497 
 2950000    301.02527    -1456.533   -23127.091     -25017.7    1890.6093    1.1610133    30.985945    30.985945    30.985945    29750.497 
 2951000    299.37472   -1412.1767   -23146.037    -25026.28    1880.2429    1.1610133    30.985945    30.985945    30.985945    29750.497 
 2952000    298.09247   -2099.8775   -23064.218   -24936.408    1872.1897    1.1610133    30.985945    30.985945    30.985945    29750.497 
 2953000    308.59011   -1789.4395   -22984.209   -24922.329    1938.1208    1.1610133    30.985945    30.985945    30.985945    29750.497 
 2954000    299.21017   -1868.9073   -23119.663   -24998.873    1879.2095    1.1610133    30.985945    30.985945    30.985945    29750.497 
 2955000    301.13132   -2011.3082   -23071.603   -24962.878    1891.2754    1.1610133    30.985945    30.985945    30.985945    29750.497 
 2956000     308.7263     -2191.59   -23055.196   -24994.172    1938.9762    1.1610133    30.985945    30.985945    30.985945    29750.497 
 2957000    299.73456   -1390.3751   -23057.471   -24939.974    1882.5029    1.1610133    30.985945    30.985945    30.985945    29750.497 
 2958000    296.17417   -1955.5531   -23055.426   -24915.568    1860.1417    1.1610133    30.985945    30.985945    30.985945    29750.497 
 2959000     291.4975   -1158.8319   -23095.478   -24926.248    1830.7695    1.1610133    30.985945    30.985945    30.985945    29750.497 
 2960000    301.01369   -1860.8616   -23214.242   -25104.779    1890.5366    1.1610133    30.985945    30.985945    30.985945    29750.497 
 2961000     307.2441   -1504.2059   -23088.318   -25017.985    1929.6671    1.1610133    30.985945    30.985945    30.985945    29750.497 
 2962000    294.77788    -1994.392   -23117.962   -24969.334    1851.3722    1.1610133    30.985945    30.985945    30.985945    29750.497 
 2963000    307.69518   -1820.1014   -23104.311   -25036.811    1932.5001    1.1610133    30.985945    30.985945    30.985945    29750.497 
 2964000    306.68212   -1775.6634   -23017.958   -24944.096    1926.1375    1.1610133    30.985945    30.985945    30.985945    29750.497 
 2965000    301.22902    -1182.851   -23100.329   -24992.218     1891.889    1.1610133    30.985945    30.985945    30.985945    29750.497 
 2966000     298.8139   -1934.6721   -23026.256   -24902.977    1876.7206    1.1610133    30.985945    30.985945    30.985945    29750.497 
 2967000    299.74073    -1852.423   -23052.987   -24935.528    1882.5417    1.1610133    30.985945    30.985945    30.985945    29750.497 
 2968000    297.87231   -1758.5499   -23063.382   -24934.189     1870.807    1.1610133    30.985945    30.985945    30.985945    29750.497 
 2969000     292.1059   -480.18578   -23019.739    -24854.33    1834.5906    1.1610133    30.985945    30.985945    30.985945    29750.497 
 2970000    293.10941   -1701.9573   -23068.859   -24909.752    1840.8932    1.1610133    30.985945    30.985945    30.985945    29750.497 
 2971000    306.70916   -1239.7246   -22959.408   -24885.715    1926.3074    1.1610133    30.985945    30.985945    30.985945    29750.497 
 2972000    299.98816   -2534.5787   -22991.349   -24875.445    1884.0957    1.1610133    30.985945    30.985945    30.985945    29750.497 
 2973000    294.97944   -1713.5067   -23074.638   -24927.276     1852.638    1.1610133    30.985945    30.985945    30.985945    29750.497 
 2974000    298.99299   -1290.2057   -23117.496   -24995.341    1877.8454    1.1610133    30.985945    30.985945    30.985945    29750.497 
 2975000    300.68544    -1244.415   -22992.209   -24880.684     1888.475    1.1610133    30.985945    30.985945    30.985945    29750.497 
 2976000    295.39624   -2185.1921   -23094.832   -24950.088    1855.2558    1.1610133    30.985945    30.985945    30.985945    29750.497 
 2977000    295.27471   -948.35031   -23113.717    -24968.21    1854.4926    1.1610133    30.985945    30.985945    30.985945    29750.497 
 2978000    296.72354   -2013.6139   -23120.772   -24984.364     1863.592    1.1610133    30.985945    30.985945    30.985945    29750.497 
 2979000     297.5392   -960.71245   -23122.764   -24991.479    1868.7148    1.1610133    30.985945    30.985945    30.985945    29750.497 
 2980000    295.56519   -1011.0725    -23156.47   -25012.787    1856.3169    1.1610133    30.985945    30.985945    30.985945    29750.497 
 2981000    295.11421   -1722.3128    -23154.57   -25008.055    1853.4845    1.1610133    30.985945    30.985945    30.985945    29750.497 
 2982000    300.25655   -321.52974   -23144.474   -25030.255    1885.7813    1.1610133    30.985945    30.985945    30.985945    29750.497 
 2983000    287.19777   -688.17585   -23153.804   -24957.569    1803.7648    1.1610133    30.985945    30.985945    30.985945    29750.497 
 2984000    301.33777   -1099.4938   -23076.273   -24968.845     1892.572    1.1610133    30.985945    30.985945    30.985945    29750.497 
 2985000    294.94931   -766.12849    -23143.37   -24995.819    1852.4488    1.1610133    30.985945    30.985945    30.985945    29750.497 
 2986000    299.95834   -2312.9854   -23129.941   -25013.849    1883.9084    1.1610133    30.985945    30.985945    30.985945    29750.497 
 2987000    306.72273   -2502.4426    -23022.49   -24948.883    1926.3926    1.1610133    30.985945    30.985945    30.985945    29750.497 
 2988000    302.15611    -2238.802   -23045.449   -24943.161    1897.7116    1.1610133    30.985945    30.985945    30.985945    29750.497 
 2989000    304.39833   -915.91889   -22983.379   -24895.173    1911.7941    1.1610133    30.985945    30.985945    30.985945    29750.497 
 2990000    301.02178   -1253.0612   -23090.971   -24981.559    1890.5874    1.1610133    30.985945    30.985945    30.985945    29750.497 
 2991000    299.72447   -2132.0383    -22982.22    -24864.66    1882.4396    1.1610133    30.985945    30.985945    30.985945    29750.497 
 2992000    301.26645   -1957.7185   -22966.332   -24858.456    1892.1241    1.1610133    30.985945    30.985945    30.985945    29750.497 
 2993000    295.49468   -1772.3767   -23119.983   -24975.857    1855.8741    1.1610133    30.985945    30.985945    30.985945    29750.497 
 2994000    312.12389   -1611.9572   -22911.044   -24871.359     1960.315    1.1610133    30.985945    30.985945    30.985945    29750.497 
 2995000    298.71168   -1466.6096   -23059.437   -24935.516    1876.0786    1.1610133    30.985945    30.985945    30.985945    29750.497 
 2996000    296.64064   -1753.1993   -23051.213   -24914.284    1863.0713    1.1610133    30.985945    30.985945    30.985945    29750.497 
 2997000    302.78991    -1268.879   -22932.414   -24834.107    1901.6923    1.1610133    30.985945    30.985945    30.985945    29750.497 
 2998000    301.36834   -1174.0769   -22952.647   -24845.411     1892.764    1.1610133    30.985945    30.985945    30.985945    29750.497 
 2999000     299.5122   -1704.0129    -23025.55   -24906.656    1881.1064    1.1610133    30.985945    30.985945    30.985945    29750.497 
 3000000    297.66828    -2033.933   -23035.273   -24904.798    1869.5255    1.1610133    30.985945    30.985945    30.985945    29750.497 
 3001000    293.30929    -1051.585   -23144.086   -24986.235    1842.1486    1.1610133    30.985945    30.985945    30.985945    29750.497 
 3002000     292.4862   -991.34113    -23049.24   -24886.219    1836.9791    1.1610133    30.985945    30.985945    30.985945    29750.497 
 3003000     288.7642   -2271.6762   -23122.325   -24935.928    1813.6029    1.1610133    30.985945    30.985945    30.985945    29750.497 
 3004000    299.49204   -1146.6699   -23047.294   -24928.273    1880.9797    1.1610133    30.985945    30.985945    30.985945    29750.497 
 3005000    298.57982   -1467.3311   -23087.883   -24963.134    1875.2505    1.1610133    30.985945    30.985945    30.985945    29750.497 
 3006000    293.33355   -1786.6766   -23072.868   -24915.169     1842.301    1.1610133    30.985945    30.985945    30.985945    29750.497 
 3007000    296.01183   -740.28961   -22984.587   -24843.709     1859.122    1.1610133    30.985945    30.985945    30.985945    29750.497 
 3008000    304.22505   -758.70136   -22980.913   -24891.618    1910.7057    1.1610133    30.985945    30.985945    30.985945    29750.497 
 3009000     293.7145   -1153.8635   -23114.366    -24959.06    1844.6935    1.1610133    30.985945    30.985945    30.985945    29750.497 
 3010000    297.33245    -1662.012   -23058.153   -24925.569    1867.4163    1.1610133    30.985945    30.985945    30.985945    29750.497 
 3011000    301.18764   -1220.2025   -23066.392   -24958.021    1891.6291    1.1610133    30.985945    30.985945    30.985945    29750.497 
 3012000    294.22495   -1516.7889   -23054.834   -24902.733    1847.8994    1.1610133    30.985945    30.985945    30.985945    29750.497 
 3013000    293.32051   -2338.6507   -23084.297   -24926.516     1842.219    1.1610133    30.985945    30.985945    30.985945    29750.497 
 3014000    294.00509   -1650.6962   -23061.942    -24908.46    1846.5186    1.1610133    30.985945    30.985945    30.985945    29750.497 
 3015000    301.22201   -1249.8408   -23009.699   -24901.544    1891.8449    1.1610133    30.985945    30.985945    30.985945    29750.497 
 3016000     299.1977    -2273.875   -23018.886   -24898.017    1879.1312    1.1610133    30.985945    30.985945    30.985945    29750.497 
 3017000    303.07495   -5.7535826   -23078.012   -24981.495    1903.4824    1.1610133    30.985945    30.985945    30.985945    29750.497 
 3018000    298.56643   -1895.3262   -23127.227   -25002.393    1875.1664    1.1610133    30.985945    30.985945    30.985945    29750.497 
 3019000    306.94966    -1486.692    -23010.02   -24937.837    1927.8178    1.1610133    30.985945    30.985945    30.985945    29750.497 
 3020000      293.728   -1524.6633   -23113.979   -24958.758    1844.7783    1.1610133    30.985945    30.985945    30.985945    29750.497 
 3021000    300.49236   -2048.9143   -23094.409   -24981.672    1887.2624    1.1610133    30.985945    30.985945    30.985945    29750.497 
 3022000    298.17932    -1949.492   -23029.473   -24902.208    1872.7351    1.1610133    30.985945    30.985945    30.985945    29750.497 
 3023000    289.06091   -1800.6103   -23100.609   -24916.076    1815.4663    1.1610133    30.985945    30.985945    30.985945    29750.497 
 3024000    300.20543   -1021.5608   -23107.048   -24992.509    1885.4603    1.1610133    30.985945    30.985945    30.985945    29750.497 
 3025000    292.47301   -1906.7988   -23059.748   -24896.644    1836.8963    1.1610133    30.985945    30.985945    30.985945    29750.497 
 3026000    302.28088   -1980.9312   -23059.088   -24957.583    1898.4953    1.1610133    30.985945    30.985945    30.985945    29750.497 
 3027000     304.4955   -2724.4215   -23035.408   -24947.813    1912.4043    1.1610133    30.985945    30.985945    30.985945    29750.497 
 3028000    291.96871   -1768.0292   -23113.498   -24947.227     1833.729    1.1610133    30.985945    30.985945    30.985945    29750.497 
 3029000    303.23618   -570.10173   -23062.408   -24966.903    1904.4951    1.1610133    30.985945    30.985945    30.985945    29750.497 
 3030000     298.7547   -1736.1271   -23063.665   -24940.014    1876.3488    1.1610133    30.985945    30.985945    30.985945    29750.497 
 3031000    302.15728   -844.56382   -22976.913   -24874.632     1897.719    1.1610133    30.985945    30.985945    30.985945    29750.497 
 3032000    299.74248   -1549.9179   -23038.687    -24921.24    1882.5527    1.1610133    30.985945    30.985945    30.985945    29750.497 
 3033000    307.51668   -1813.5256    -23108.28   -25039.659    1931.3791    1.1610133    30.985945    30.985945    30.985945    29750.497 
 3034000    296.47969   -935.11186    -23032.02    -24894.08    1862.0605    1.1610133    30.985945    30.985945    30.985945    29750.497 
 3035000     293.4389   -1531.5705   -23144.524   -24987.487    1842.9626    1.1610133    30.985945    30.985945    30.985945    29750.497 
 3036000    296.81198   -845.29041   -23085.339   -24949.487    1864.1475    1.1610133    30.985945    30.985945    30.985945    29750.497 
 3037000    296.53207    -2490.447   -23067.534   -24929.924    1862.3895    1.1610133    30.985945    30.985945    30.985945    29750.497 
 3038000    294.42209   -1482.8166   -23086.192    -24935.33    1849.1376    1.1610133    30.985945    30.985945    30.985945    29750.497 
 3039000    311.02769   -1250.4742   -23002.428   -24955.858    1953.4302    1.1610133    30.985945    30.985945    30.985945    29750.497 
 3040000    297.50397   -2011.5849   -23040.791   -24909.285    1868.4936    1.1610133    30.985945    30.985945    30.985945    29750.497 
 3041000    304.76708   -1664.0341   -23027.075   -24941.185      1914.11    1.1610133    30.985945    30.985945    30.985945    29750.497 
 3042000    289.89646   -687.75261   -23097.021   -24917.735    1820.7141    1.1610133    30.985945    30.985945    30.985945    29750.497 
 3043000    299.76171   -2529.3087   -23085.075   -24967.749    1882.6734    1.1610133    30.985945    30.985945    30.985945    29750.497 
 3044000    299.95888     -1224.56   -23034.307   -24918.219    1883.9118    1.1610133    30.985945    30.985945    30.985945    29750.497 
 3045000    302.17161   -2140.1396   -23070.654   -24968.463     1897.809    1.1610133    30.985945    30.985945    30.985945    29750.497 
 3046000     292.8443    -1136.283   -23126.928   -24966.157    1839.2282    1.1610133    30.985945    30.985945    30.985945    29750.497 
 3047000     287.9093     -681.998    -23102.56   -24910.794    1808.2336    1.1610133    30.985945    30.985945    30.985945    29750.497 
 3048000    290.39922   -545.40524   -22993.412   -24817.284    1823.8717    1.1610133    30.985945    30.985945    30.985945    29750.497 
 3049000    301.57399    -628.7749   -23004.025    -24898.08    1894.0556    1.1610133    30.985945    30.985945    30.985945    29750.497 
 3050000    302.05857   -1444.8681   -22992.125   -24889.224     1897.099    1.1610133    30.985945    30.985945    30.985945    29750.497 
 3051000    299.66023    -946.2375   -23105.241   -24987.277    1882.0361    1.1610133    30.985945    30.985945    30.985945    29750.497 
 3052000     293.5386   -879.55077   -23159.391    -25002.98    1843.5888    1.1610133    30.985945    30.985945    30.985945    29750.497 
 3053000    305.58533   -1914.8924   -23008.328   -24927.577    1919.2491    1.1610133    30.985945    30.985945    30.985945    29750.497 
 3054000    287.47433   -1481.2403   -23042.311   -24847.813    1805.5017    1.1610133    30.985945    30.985945    30.985945    29750.497 
 3055000    303.38047   -1688.8034   -23069.566   -24974.967    1905.4013    1.1610133    30.985945    30.985945    30.985945    29750.497 
 3056000     293.0491   -1675.9748   -23055.818   -24896.332    1840.5144    1.1610133    30.985945    30.985945    30.985945    29750.497 
 3057000    298.04571   -620.24304   -23220.164    -25092.06     1871.896    1.1610133    30.985945    30.985945    30.985945    29750.497 
 3058000    304.72699   -424.20102   -23039.423   -24953.281    1913.8582    1.1610133    30.985945    30.985945    30.985945    29750.497 
 3059000    301.91063   -1429.8457   -23069.184   -24965.354    1896.1699    1.1610133    30.985945    30.985945    30.985945    29750.497 
 3060000    309.09763   -1435.2465   -22941.425   -24882.733    1941.3083    1.1610133    30.985945    30.985945    30.985945    29750.497 
 3061000    293.55897   -625.96843   -23117.922   -24961.638    1843.7167    1.1610133    30.985945    30.985945    30.985945    29750.497 
 3062000    296.97589   -1192.4118     -23150.8   -25015.977    1865.1769    1.1610133    30.985945    30.985945    30.985945    29750.497 
 3063000    295.87242   -1190.3517   -23164.328   -25022.574    1858.2465    1.1610133    30.985945    30.985945    30.985945    29750.497 
 3064000    305.29046   -1613.3025   -23070.217   -24987.614    1917.3971    1.1610133    30.985945    30.985945    30.985945    29750.497 
 3065000      298.587   -1619.8058   -23151.858   -25027.154    1875.2956    1.1610133    30.985945    30.985945    30.985945    29750.497 
 3066000    306.03158   -1108.8535   -23052.588    -24974.64    1922.0517    1.1610133    30.985945    30.985945    30.985945    29750.497 
 3067000     298.4359   -1023.1623   -23096.584   -24970.931    1874.3466    1.1610133    30.985945    30.985945    30.985945    29750.497 
 3068000    300.04116   -1682.3152   -23081.498   -24965.926    1884.4286    1.1610133    30.985945    30.985945    30.985945    29750.497 
 3069000    298.64982   -1138.1042   -23078.093   -24953.783    1875.6901    1.1610133    30.985945    30.985945    30.985945    29750.497 
 3070000    296.01179   -848.67698   -23074.586   -24933.708    1859.1218    1.1610133    30.985945    30.985945    30.985945    29750.497 
 3071000    299.10916   -1192.3747   -23013.421   -24891.996     1878.575    1.1610133    30.985945    30.985945    30.985945    29750.497 
 3072000    297.39439   -962.04936   -23051.369   -24919.175    1867.8053    1.1610133    30.985945    30.985945    30.985945    29750.497 
 3073000    297.80128    -1725.555   -23123.851   -24994.212    1870.3609    1.1610133    30.985945    30.985945    30.985945    29750.497 
 3074000    303.45886   -1384.7145   -23041.694   -24947.588    1905.8937    1.1610133    30.985945    30.985945    30.985945    29750.497 
 3075000    291.30119   -321.47382   -23085.301   -24914.838    1829.5366    1.1610133    30.985945    30.985945    30.985945    29750.497 
 3076000    301.82746   -797.24666   -23043.888   -24939.536    1895.6475    1.1610133    30.985945    30.985945    30.985945    29750.497 
 3077000    299.18112   -1097.3691   -23059.755   -24938.782     1879.027    1.1610133    30.985945    30.985945    30.985945    29750.497 
 3078000    293.33513   -605.68925   -23089.837   -24932.148    1842.3108    1.1610133    30.985945    30.985945    30.985945    29750.497 
 3079000    304.78712   -1506.5718   -23048.675   -24962.911    1914.2359    1.1610133    30.985945    30.985945    30.985945    29750.497 
 3080000    295.48742   -1026.5055    -22972.32   -24828.149    1855.8285    1.1610133    30.985945    30.985945    30.985945    29750.497 
 3081000     302.7367   -1272.3309   -23030.358   -24931.716    1901.3581    1.1610133    30.985945    30.985945    30.985945    29750.497 
 3082000    299.28662   -44.639867    -22957.01   -24836.699    1879.6896    1.1610133    30.985945    30.985945    30.985945    29750.497 
 3083000     297.1339   -1919.4065   -23075.041    -24941.21    1866.1693    1.1610133    30.985945    30.985945    30.985945    29750.497 
 3084000    308.68109   -1514.2338   -23046.081   -24984.773    1938.6922    1.1610133    30.985945    30.985945    30.985945    29750.497 
 3085000    295.07292   -2256.4136   -23177.669   -25030.895    1853.2252    1.1610133    30.985945    30.985945    30.985945    29750.497 
 3086000     307.0543   -2113.6987   -22960.838   -24889.313     1928.475    1.1610133    30.985945    30.985945    30.985945    29750.497 
 3087000    295.14045   -1448.3648   -23060.085   -24913.734    1853.6493    1.1610133    30.985945    30.985945    30.985945    29750.497 
 3088000    299.92734   -1087.7015   -23060.359   -24944.072    1883.7137    1.1610133    30.985945    30.985945    30.985945    29750.497 
 3089000    302.63876   -2221.3712     -23079.1   -24979.843    1900.7429    1.1610133    30.985945    30.985945    30.985945    29750.497 
 3090000    287.34014   -2503.0761   -23136.922   -24941.581    1804.6589    1.1610133    30.985945    30.985945    30.985945    29750.497 
 3091000    300.09236   -2279.3497   -23083.465   -24968.215    1884.7501    1.1610133    30.985945    30.985945    30.985945    29750.497 
 3092000    294.30439   -1369.6607   -23099.287   -24947.686    1848.3983    1.1610133    30.985945    30.985945    30.985945    29750.497 
 3093000     297.0722    -1540.691   -23060.269   -24926.051    1865.7818    1.1610133    30.985945    30.985945    30.985945    29750.497 
 3094000    297.25547    -1753.937   -23036.764   -24903.697    1866.9328    1.1610133    30.985945    30.985945    30.985945    29750.497 
 3095000    291.13355   -1910.7663   -23054.064   -24882.548    1828.4837    1.1610133    30.985945    30.985945    30.985945    29750.497 
 3096000    297.19042   -1553.3887   -23050.232   -24916.757    1866.5243    1.1610133    30.985945    30.985945    30.985945    29750.497 
 3097000    296.98158   -1325.6421     -23029.3   -24894.513    1865.2127    1.1610133    30.985945    30.985945    30.985945    29750.497 
 3098000     289.2931   -1227.0515   -23090.778   -24907.702    1816.9246    1.1610133    30.985945    30.985945    30.985945    29750.497 
 3099000     299.1257   -747.45122   -23122.354   -25001.033    1878.6789    1.1610133    30.985945    30.985945    30.985945    29750.497 
 3100000    300.10409   -1280.8782   -23123.977     -25008.8    1884.8238    1.1610133    30.985945    30.985945    30.985945    29750.497 
 3101000    303.18546   -2186.9802   -22945.365   -24849.541    1904.1766    1.1610133    30.985945    30.985945    30.985945    29750.497 
 3102000    306.65012   -846.13338   -22915.648   -24841.584    1925.9366    1.1610133    30.985945    30.985945    30.985945    29750.497 
 3103000    298.95541   -1587.5674   -23095.745   -24973.355    1877.6094    1.1610133    30.985945    30.985945    30.985945    29750.497 
 3104000    298.15176   -393.10197   -23086.978    -24959.54    1872.5621    1.1610133    30.985945    30.985945    30.985945    29750.497 
 3105000    296.88855   -1806.8187   -23124.113   -24988.742    1864.6283    1.1610133    30.985945    30.985945    30.985945    29750.497 
 3106000    307.82043   -1831.6529   -22950.688   -24883.975    1933.2868    1.1610133    30.985945    30.985945    30.985945    29750.497 
 3107000    309.28467   -2386.1846   -22963.565   -24906.048     1942.483    1.1610133    30.985945    30.985945    30.985945    29750.497 
 3108000    304.56062   -1862.3879   -23102.775   -25015.588    1912.8133    1.1610133    30.985945    30.985945    30.985945    29750.497 
 3109000    294.24197   -757.49317    -23099.26   -24947.267    1848.0063    1.1610133    30.985945    30.985945    30.985945    29750.497 
 3110000    297.91115   -2808.7442   -23091.361   -24962.412    1871.0509    1.1610133    30.985945    30.985945    30.985945    29750.497 
 3111000    305.72104   -2199.3353   -23006.753   -24926.855    1920.1014    1.1610133    30.985945    30.985945    30.985945    29750.497 
 3112000    300.20821   -1929.5396    -23035.88   -24921.358    1885.4777    1.1610133    30.985945    30.985945    30.985945    29750.497 
 3113000    301.59761   -1607.5893   -23017.668   -24911.872    1894.2039    1.1610133    30.985945    30.985945    30.985945    29750.497 
 3114000    298.02052   -1059.3604   -23084.239   -24955.977    1871.7378    1.1610133    30.985945    30.985945    30.985945    29750.497 
 3115000    303.80249    -919.4224   -23059.174   -24967.226    1908.0518    1.1610133    30.985945    30.985945    30.985945    29750.497 
 3116000    298.93186   -1454.9419   -23056.632   -24934.093    1877.4615    1.1610133    30.985945    30.985945    30.985945    29750.497 
 3117000    290.66233    -681.3248   -23015.525   -24841.049    1825.5242    1.1610133    30.985945    30.985945    30.985945    29750.497 
 3118000    300.01589   -424.21823   -23052.723   -24936.992    1884.2698    1.1610133    30.985945    30.985945    30.985945    29750.497 
 3119000    294.92186   -2624.8352   -22990.342   -24842.619    1852.2764    1.1610133    30.985945    30.985945    30.985945    29750.497 
 3120000    298.14059   -2002.7983   -23050.067   -24922.559    1872.4919    1.1610133    30.985945    30.985945    30.985945    29750.497 
 3121000    296.21354   -1352.5898   -22968.257   -24828.646    1860.3889    1.1610133    30.985945    30.985945    30.985945    29750.497 
 3122000    306.29839   -1248.6382   -22984.669   -24908.397    1923.7275    1.1610133    30.985945    30.985945    30.985945    29750.497 
 3123000    292.82199   -1004.7824   -23059.447   -24898.535    1839.0881    1.1610133    30.985945    30.985945    30.985945    29750.497 
 3124000    306.96274   -2022.8147    -23013.31    -24941.21       1927.9    1.1610133    30.985945    30.985945    30.985945    29750.497 
 3125000    298.75032   -2073.9967   -23090.761   -24967.082    1876.3213    1.1610133    30.985945    30.985945    30.985945    29750.497 
 3126000    302.13646   -2602.6822   -22961.545   -24859.133    1897.5882    1.1610133    30.985945    30.985945    30.985945    29750.497 
 3127000      297.225   -1681.1306   -23080.644   -24947.385    1866.7415    1.1610133    30.985945    30.985945    30.985945    29750.497 
 3128000    299.74062   -1446.6188   -23105.334   -24987.875     1882.541    1.1610133    30.985945    30.985945    30.985945    29750.497 
 3129000    296.65021   -1972.2817   -23086.849    -24949.98    1863.1314    1.1610133    30.985945    30.985945    30.985945    29750.497 
 3130000    292.99196   -1867.5191   -23148.737   -24988.892    1840.1556    1.1610133    30.985945    30.985945    30.985945    29750.497 
 3131000    293.36012   -1819.9701   -23077.732     -24920.2    1842.4678    1.1610133    30.985945    30.985945    30.985945    29750.497 
 3132000    298.21668   -2615.4071   -22949.881   -24822.851    1872.9698    1.1610133    30.985945    30.985945    30.985945    29750.497 
 3133000    304.10037   -1353.0608   -23087.366   -24997.288    1909.9227    1.1610133    30.985945    30.985945    30.985945    29750.497 
 3134000    292.48004   -1788.2435   -23083.958   -24920.899    1836.9404    1.1610133    30.985945    30.985945    30.985945    29750.497 
 3135000    303.63771    -1290.317    -23005.11   -24912.127    1907.0169    1.1610133    30.985945    30.985945    30.985945    29750.497 
 3136000    300.66997   -2229.1267   -23000.321   -24888.699    1888.3778    1.1610133    30.985945    30.985945    30.985945    29750.497 
 3137000    291.59137   -1179.7964   -23044.837   -24876.196     1831.359    1.1610133    30.985945    30.985945    30.985945    29750.497 
 3138000    297.13529     -1713.87   -23033.425   -24899.603     1866.178    1.1610133    30.985945    30.985945    30.985945    29750.497 
 3139000    299.22559   -1649.2219    -23071.09   -24950.396    1879.3063    1.1610133    30.985945    30.985945    30.985945    29750.497 
 3140000    298.59562   -2578.6347   -23051.857   -24927.207    1875.3497    1.1610133    30.985945    30.985945    30.985945    29750.497 
 3141000    299.19526   -1461.7008   -23014.981   -24894.097    1879.1158    1.1610133    30.985945    30.985945    30.985945    29750.497 
 3142000    304.50349   -1785.0037   -23033.643   -24946.098    1912.4545    1.1610133    30.985945    30.985945    30.985945    29750.497 
 3143000    302.29434     -1429.41   -23056.634   -24955.214    1898.5798    1.1610133    30.985945    30.985945    30.985945    29750.497 
 3144000    295.89761   -1791.7631   -23056.528   -24914.933    1858.4047    1.1610133    30.985945    30.985945    30.985945    29750.497 
 3145000    298.72403   -1935.6949   -22953.613   -24829.769    1876.1562    1.1610133    30.985945    30.985945    30.985945    29750.497 
 3146000    293.06438   -1462.8935   -23084.005   -24924.615    1840.6104    1.1610133    30.985945    30.985945    30.985945    29750.497 
 3147000    303.01777   -1753.0426   -23088.684   -24991.807    1903.1233    1.1610133    30.985945    30.985945    30.985945    29750.497 
 3148000    295.37669    -1061.652   -23004.292   -24859.425    1855.1331    1.1610133    30.985945    30.985945    30.985945    29750.497 
 3149000     297.0066   -1977.4927   -22956.492   -24821.862    1865.3698    1.1610133    30.985945    30.985945    30.985945    29750.497 
 3150000     299.3121   -1904.2326   -23077.526   -24957.375    1879.8496    1.1610133    30.985945    30.985945    30.985945    29750.497 
 3151000    303.51682   -1761.8179   -23028.563   -24934.821    1906.2576    1.1610133    30.985945    30.985945    30.985945    29750.497 
 3152000     303.4062   -1482.3315   -23071.132   -24976.694    1905.5629    1.1610133    30.985945    30.985945    30.985945    29750.497 
 3153000    293.50482   -1245.3874   -23116.677   -24960.053    1843.3766    1.1610133    30.985945    30.985945    30.985945    29750.497 
 3154000    301.66148   -1256.1541   -23032.336   -24926.941    1894.6051    1.1610133    30.985945    30.985945    30.985945    29750.497 
 3155000     292.5215   -1439.6401   -23018.233   -24855.434    1837.2008    1.1610133    30.985945    30.985945    30.985945    29750.497 
 3156000    295.96258   -1474.0974   -23098.825   -24957.638    1858.8127    1.1610133    30.985945    30.985945    30.985945    29750.497 
 3157000    289.90313   -1627.0471   -23154.954    -24975.71     1820.756    1.1610133    30.985945    30.985945    30.985945    29750.497 
 3158000    306.25505   -1133.1551   -22970.793   -24894.248    1923.4553    1.1610133    30.985945    30.985945    30.985945    29750.497 
 3159000    291.46301   -1838.8966   -23111.744   -24942.297    1830.5529    1.1610133    30.985945    30.985945    30.985945    29750.497 
 3160000    287.05664   -2144.9734   -23130.658   -24933.537    1802.8784    1.1610133    30.985945    30.985945    30.985945    29750.497 
 3161000    300.12448   -2428.2501   -23015.136   -24900.088    1884.9519    1.1610133    30.985945    30.985945    30.985945    29750.497 
 3162000    297.56131   -1638.8017   -23126.854   -24995.708    1868.8537    1.1610133    30.985945    30.985945    30.985945    29750.497 
 3163000    299.19154   -1254.7041    -23182.02   -25061.112    1879.0924    1.1610133    30.985945    30.985945    30.985945    29750.497 
 3164000    297.29455   -1196.2453   -23108.605   -24975.783    1867.1783    1.1610133    30.985945    30.985945    30.985945    29750.497 
 3165000    305.35287   -1426.2896   -22946.065   -24863.854    1917.7891    1.1610133    30.985945    30.985945    30.985945    29750.497 
 3166000      298.712   -1879.4603   -23116.877   -24992.958    1876.0807    1.1610133    30.985945    30.985945    30.985945    29750.497 
 3167000     289.7996    -1448.973   -23151.927   -24972.033    1820.1057    1.1610133    30.985945    30.985945    30.985945    29750.497 
 3168000    302.21252   -1026.8562   -23052.323   -24950.389    1898.0659    1.1610133    30.985945    30.985945    30.985945    29750.497 
 3169000    298.53157   -1056.3588    -23098.17   -24973.118    1874.9475    1.1610133    30.985945    30.985945    30.985945    29750.497 
 3170000    292.43168   -1034.3705   -23140.202   -24976.838    1836.6367    1.1610133    30.985945    30.985945    30.985945    29750.497 
 3171000    301.36245   -1466.9652   -23047.124    -24939.85     1892.727    1.1610133    30.985945    30.985945    30.985945    29750.497 
 3172000    298.88988   -2270.8285   -23064.133    -24941.33    1877.1979    1.1610133    30.985945    30.985945    30.985945    29750.497 
 3173000    299.03283   -1259.2709   -23047.188   -24925.284    1878.0956    1.1610133    30.985945    30.985945    30.985945    29750.497 
 3174000    296.80725   -607.31616   -23022.401   -24886.519    1864.1178    1.1610133    30.985945    30.985945    30.985945    29750.497 
 3175000    290.06611   -1581.3078   -23165.784   -24987.563    1821.7796    1.1610133    30.985945    30.985945    30.985945    29750.497 
 3176000    300.27118   -35.772293   -23068.856   -24954.729    1885.8732    1.1610133    30.985945    30.985945    30.985945    29750.497 
 3177000    292.34842   -1454.4038   -23014.966   -24851.079    1836.1137    1.1610133    30.985945    30.985945    30.985945    29750.497 
 3178000    303.78575   -1144.1333   -22946.496   -24854.442    1907.9467    1.1610133    30.985945    30.985945    30.985945    29750.497 
 3179000    309.90167    -889.5401   -23008.549   -24954.908    1946.3582    1.1610133    30.985945    30.985945    30.985945    29750.497 
 3180000    307.41555   -1370.5278   -22996.502   -24927.246    1930.7439    1.1610133    30.985945    30.985945    30.985945    29750.497 
 3181000    298.56782   -793.37849     -23086.7   -24961.876    1875.1752    1.1610133    30.985945    30.985945    30.985945    29750.497 
 3182000    301.14986   -1671.7795   -23096.601   -24987.993    1891.3918    1.1610133    30.985945    30.985945    30.985945    29750.497 
 3183000    299.13025   -144.32779   -23049.098   -24927.806    1878.7075    1.1610133    30.985945    30.985945    30.985945    29750.497 
 3184000    300.82733   -323.81295    -22991.69   -24881.056    1889.3661    1.1610133    30.985945    30.985945    30.985945    29750.497 
 3185000    296.47598   -1331.1109   -23098.233    -24960.27    1862.0372    1.1610133    30.985945    30.985945    30.985945    29750.497 
 3186000    294.21477   -1329.4991   -23105.942   -24953.778    1847.8355    1.1610133    30.985945    30.985945    30.985945    29750.497 
 3187000    309.16148   -1395.0227    -22977.19     -24918.9    1941.7093    1.1610133    30.985945    30.985945    30.985945    29750.497 
 3188000    294.12009   -1411.7172   -22992.315   -24839.556    1847.2409    1.1610133    30.985945    30.985945    30.985945    29750.497 
 3189000    298.81266   -1730.0028   -23022.422   -24899.135    1876.7129    1.1610133    30.985945    30.985945    30.985945    29750.497 
 3190000    296.30477   -1493.0892   -23014.019   -24874.981    1860.9619    1.1610133    30.985945    30.985945    30.985945    29750.497 
 3191000    307.21587   -1393.8863   -22997.369   -24926.859    1929.4898    1.1610133    30.985945    30.985945    30.985945    29750.497 
 3192000    305.67878   -1154.7099   -22907.287   -24827.123     1919.836    1.1610133    30.985945    30.985945    30.985945    29750.497 
 3193000    298.86437    -506.1017   -23043.216   -24920.253    1877.0376    1.1610133    30.985945    30.985945    30.985945    29750.497 
 3194000    297.61507   -1698.6107   -23052.462   -24921.653    1869.1913    1.1610133    30.985945    30.985945    30.985945    29750.497 
 3195000    295.70103   -1608.4586   -23094.646   -24951.816    1857.1701    1.1610133    30.985945    30.985945    30.985945    29750.497 
 3196000    292.17678   -2211.4492   -23123.138   -24958.174    1835.0358    1.1610133    30.985945    30.985945    30.985945    29750.497 
 3197000    295.70444   -1956.2211   -23135.518    -24992.71    1857.1915    1.1610133    30.985945    30.985945    30.985945    29750.497 
 3198000    298.60984   -1240.8127   -23011.946   -24887.385    1875.4391    1.1610133    30.985945    30.985945    30.985945    29750.497 
 3199000    300.75258   -1385.1416    -23017.32   -24906.217    1888.8967    1.1610133    30.985945    30.985945    30.985945    29750.497 
 3200000    305.27222   -736.15817   -22941.562   -24858.845    1917.2826    1.1610133    30.985945    30.985945    30.985945    29750.497 
 3201000    297.64615   -1695.3688   -23093.056   -24962.443    1869.3865    1.1610133    30.985945    30.985945    30.985945    29750.497 
 3202000     294.8601   -2089.3224   -23077.196   -24929.085    1851.8885    1.1610133    30.985945    30.985945    30.985945    29750.497 
 3203000    296.19152    -1196.629   -23040.073   -24900.324    1860.2506    1.1610133    30.985945    30.985945    30.985945    29750.497 
 3204000    298.89051   -1949.9503   -23085.846   -24963.048    1877.2018    1.1610133    30.985945    30.985945    30.985945    29750.497 
 3205000    294.15334   -1936.0779   -23117.364   -24964.814    1847.4497    1.1610133    30.985945    30.985945    30.985945    29750.497 
 3206000    291.58147   -2128.2586   -23135.116   -24966.413    1831.2969    1.1610133    30.985945    30.985945    30.985945    29750.497 
 3207000    293.38675   -2031.2761   -23157.688   -25000.323    1842.6351    1.1610133    30.985945    30.985945    30.985945    29750.497 
 3208000    293.42984   -1885.3438   -23170.198   -25013.103    1842.9057    1.1610133    30.985945    30.985945    30.985945    29750.497 
 3209000    296.69493   -2684.4519   -23058.875   -24922.287    1863.4123    1.1610133    30.985945    30.985945    30.985945    29750.497 
 3210000    303.72115   -1378.7541   -22976.107   -24883.648    1907.5409    1.1610133    30.985945    30.985945    30.985945    29750.497 
 3211000    294.32421   -2541.1634   -23145.377     -24993.9    1848.5229    1.1610133    30.985945    30.985945    30.985945    29750.497 
 3212000     295.7604   -1355.8111   -23096.598   -24954.141     1857.543    1.1610133    30.985945    30.985945    30.985945    29750.497 
 3213000     308.8065   -1135.9695   -22893.836   -24833.316    1939.4799    1.1610133    30.985945    30.985945    30.985945    29750.497 
 3214000      297.986   -1809.4757   -23069.277   -24940.798     1871.521    1.1610133    30.985945    30.985945    30.985945    29750.497 
 3215000    294.96884   -1617.3193     -23041.7   -24894.272    1852.5715    1.1610133    30.985945    30.985945    30.985945    29750.497 
 3216000    302.94451   -860.89283   -22997.583   -24900.247    1902.6632    1.1610133    30.985945    30.985945    30.985945    29750.497 
 3217000    298.97351   -1336.0484   -23084.123   -24961.846    1877.7231    1.1610133    30.985945    30.985945    30.985945    29750.497 
 3218000     310.0228   -1206.9952   -22932.616   -24879.735    1947.1189    1.1610133    30.985945    30.985945    30.985945    29750.497 
 3219000    296.57314   -990.63567   -22971.261   -24833.908    1862.6474    1.1610133    30.985945    30.985945    30.985945    29750.497 
 3220000    300.51649   -1596.3148   -23022.642   -24910.056    1887.4139    1.1610133    30.985945    30.985945    30.985945    29750.497 
 3221000    300.18473   -1515.3174   -23005.431   -24890.761    1885.3302    1.1610133    30.985945    30.985945    30.985945    29750.497 
 3222000    296.33206   -649.69699    -23026.45   -24887.584    1861.1333    1.1610133    30.985945    30.985945    30.985945    29750.497 
 3223000    290.95451   -2212.5177   -23168.788   -24996.148    1827.3593    1.1610133    30.985945    30.985945    30.985945    29750.497 
 3224000    295.40252   -2555.8429   -23089.893   -24945.188    1855.2952    1.1610133    30.985945    30.985945    30.985945    29750.497 
 3225000     291.2467   -2164.3456   -23150.589   -24979.784    1829.1943    1.1610133    30.985945    30.985945    30.985945    29750.497 
 3226000    298.34023   -1450.5476   -23104.845   -24978.591    1873.7458    1.1610133    30.985945    30.985945    30.985945    29750.497 
 3227000    293.91848   -1270.7695   -23125.585   -24971.559    1845.9747    1.1610133    30.985945    30.985945    30.985945    29750.497 
 3228000    294.88572   -2042.3311   -23127.759   -24979.808    1852.0495    1.1610133    30.985945    30.985945    30.985945    29750.497 
 3229000    294.07309   -2201.6408   -23114.639   -24961.585    1846.9457    1.1610133    30.985945    30.985945    30.985945    29750.497 
 3230000    296.11648   -1549.0352   -23070.015   -24929.794    1859.7793    1.1610133    30.985945    30.985945    30.985945    29750.497 
 3231000    302.95675   -1945.6659   -22993.024   -24895.764    1902.7401    1.1610133    30.985945    30.985945    30.985945    29750.497 
 3232000    299.85137   -2225.4329   -23041.938   -24925.174    1883.2366    1.1610133    30.985945    30.985945    30.985945    29750.497 
 3233000    294.28434     -1403.46   -22964.186   -24812.459    1848.2724    1.1610133    30.985945    30.985945    30.985945    29750.497 
 3234000     296.5533   -843.11386   -22948.714   -24811.236    1862.5228    1.1610133    30.985945    30.985945    30.985945    29750.497 
 3235000    298.46458   -712.31123   -23003.315   -24877.842    1874.5268    1.1610133    30.985945    30.985945    30.985945    29750.497 
 3236000    300.11198   -1052.7224   -23053.538   -24938.411    1884.8733    1.1610133    30.985945    30.985945    30.985945    29750.497 
 3237000    304.99469   -355.95213   -22950.856   -24866.395    1915.5395    1.1610133    30.985945    30.985945    30.985945    29750.497 
 3238000    299.20555   -1309.1948   -22862.508   -24741.689    1879.1805    1.1610133    30.985945    30.985945    30.985945    29750.497 
 3239000    305.89181   -1785.4596   -22920.222   -24841.396     1921.174    1.1610133    30.985945    30.985945    30.985945    29750.497 
 3240000    304.76363   -521.63615   -22988.902    -24902.99    1914.0883    1.1610133    30.985945    30.985945    30.985945    29750.497 
 3241000    300.63941   -1374.8274   -22999.918   -24888.103    1888.1859    1.1610133    30.985945    30.985945    30.985945    29750.497 
 3242000    290.91139   -2510.4052   -23029.353   -24856.442    1827.0884    1.1610133    30.985945    30.985945    30.985945    29750.497 
 3243000    296.09622   -1278.8599   -23019.185   -24878.837    1859.6521    1.1610133    30.985945    30.985945    30.985945    29750.497 
 3244000    297.53992   -1166.5216   -23033.671    -24902.39    1868.7193    1.1610133    30.985945    30.985945    30.985945    29750.497 
 3245000    302.33951    -1115.751    -23015.57   -24914.433    1898.8635    1.1610133    30.985945    30.985945    30.985945    29750.497 
 3246000    298.68896   -1658.1009   -23077.055   -24952.991     1875.936    1.1610133    30.985945    30.985945    30.985945    29750.497 
 3247000    300.45602   -774.03891   -23033.986    -24921.02    1887.0341    1.1610133    30.985945    30.985945    30.985945    29750.497 
 3248000    288.79097   -1078.0989   -23110.424   -24924.195     1813.771    1.1610133    30.985945    30.985945    30.985945    29750.497 
 3249000     300.6838   -1644.7882   -23048.124   -24936.589    1888.4647    1.1610133    30.985945    30.985945    30.985945    29750.497 
 3250000    297.52459   -1597.4422   -23023.318   -24891.941     1868.623    1.1610133    30.985945    30.985945    30.985945    29750.497 
 3251000     295.5548   -1653.5262   -23001.935   -24858.186    1856.2517    1.1610133    30.985945    30.985945    30.985945    29750.497 
 3252000    294.49172   -1159.0761   -23028.671   -24878.246    1849.5749    1.1610133    30.985945    30.985945    30.985945    29750.497 
 3253000    300.23191   -1112.1189   -23106.858   -24992.485    1885.6265    1.1610133    30.985945    30.985945    30.985945    29750.497 
 3254000    294.33198   -2097.7315    -23081.65   -24930.221    1848.5717    1.1610133    30.985945    30.985945    30.985945    29750.497 
 3255000    302.61244   -1883.0859   -23066.282   -24966.859    1900.5776    1.1610133    30.985945    30.985945    30.985945    29750.497 
 3256000    295.34697   -2009.1785   -23040.651   -24895.598    1854.9464    1.1610133    30.985945    30.985945    30.985945    29750.497 
 3257000     298.0808   -893.27222   -23102.086   -24974.203    1872.1163    1.1610133    30.985945    30.985945    30.985945    29750.497 
 3258000    309.73275   -1048.9904   -22897.694   -24842.991    1945.2972    1.1610133    30.985945    30.985945    30.985945    29750.497 
 3259000    296.85575   -1456.4985   -22975.642   -24840.065    1864.4223    1.1610133    30.985945    30.985945    30.985945    29750.497 
 3260000    299.26139   -2406.8769   -23055.937   -24935.468    1879.5312    1.1610133    30.985945    30.985945    30.985945    29750.497 
 3261000    303.32437    -873.7259   -23026.653   -24931.702     1905.049    1.1610133    30.985945    30.985945    30.985945    29750.497 
 3262000    287.39497   -1183.7217   -23130.154   -24935.157    1805.0033    1.1610133    30.985945    30.985945    30.985945    29750.497 
 3263000    300.49659   -989.32255   -22981.986   -24869.275    1887.2889    1.1610133    30.985945    30.985945    30.985945    29750.497 
 3264000    293.86889   -630.34659   -23030.473   -24876.136    1845.6632    1.1610133    30.985945    30.985945    30.985945    29750.497 
 3265000    287.17633   -1523.2048   -23072.005   -24875.635    1803.6301    1.1610133    30.985945    30.985945    30.985945    29750.497 
 3266000    299.66712   -1740.1687   -23025.337   -24907.416    1882.0794    1.1610133    30.985945    30.985945    30.985945    29750.497 
 3267000    294.44987   -1173.0105   -22994.058    -24843.37    1849.3121    1.1610133    30.985945    30.985945    30.985945    29750.497 
 3268000    307.70531   -1153.0785   -22985.879   -24918.443    1932.5637    1.1610133    30.985945    30.985945    30.985945    29750.497 
 3269000    289.92138    -2316.726   -23039.048   -24859.919    1820.8706    1.1610133    30.985945    30.985945    30.985945    29750.497 
 3270000    303.68694   -1421.0536   -23011.991   -24919.317    1907.3261    1.1610133    30.985945    30.985945    30.985945    29750.497 
 3271000    303.07897   -832.45974   -22990.738   -24894.245    1903.5077    1.1610133    30.985945    30.985945    30.985945    29750.497 
 3272000    297.10302   -630.20833   -23047.371   -24913.347    1865.9753    1.1610133    30.985945    30.985945    30.985945    29750.497 
 3273000    295.05814    -2211.805   -23055.792   -24908.924    1853.1324    1.1610133    30.985945    30.985945    30.985945    29750.497 
 3274000    300.49111   -1655.6108   -23114.032   -25001.287    1887.2545    1.1610133    30.985945    30.985945    30.985945    29750.497 
 3275000    294.85385   -535.97262   -23015.358   -24867.207    1851.8493    1.1610133    30.985945    30.985945    30.985945    29750.497 
 3276000    297.24737   -1174.7555    -23000.52   -24867.402     1866.882    1.1610133    30.985945    30.985945    30.985945    29750.497 
 3277000    295.34798   -2021.9471   -23063.346   -24918.299    1854.9527    1.1610133    30.985945    30.985945    30.985945    29750.497 
 3278000    299.05492    -675.9078   -23075.858   -24954.092    1878.2344    1.1610133    30.985945    30.985945    30.985945    29750.497 
 3279000    299.85989   -1896.3479   -23076.185   -24959.475    1883.2901    1.1610133    30.985945    30.985945    30.985945    29750.497 
 3280000    291.92237   -1862.2564   -23097.514   -24930.952    1833.4379    1.1610133    30.985945    30.985945    30.985945    29750.497 
 3281000    309.92613   -1473.5681   -22872.734   -24819.246    1946.5118    1.1610133    30.985945    30.985945    30.985945    29750.497 
 3282000    299.48291   -1665.5198    -23099.41   -24980.332    1880.9224    1.1610133    30.985945    30.985945    30.985945    29750.497 
 3283000    298.86177   -2187.3803   -23104.818   -24981.839    1877.0213    1.1610133    30.985945    30.985945    30.985945    29750.497 
 3284000    299.38972   -1858.4325   -22921.892   -24802.229    1880.3371    1.1610133    30.985945    30.985945    30.985945    29750.497 
 3285000    297.67177   -1672.2348   -23031.919   -24901.466    1869.5474    1.1610133    30.985945    30.985945    30.985945    29750.497 
 3286000    289.41447   -2723.2174    -23114.92   -24932.607    1817.6869    1.1610133    30.985945    30.985945    30.985945    29750.497 
 3287000    298.96262   -2287.8309   -23100.973   -24978.627    1877.6547    1.1610133    30.985945    30.985945    30.985945    29750.497 
 3288000    288.98119   -1293.8509   -23054.951   -24869.917    1814.9657    1.1610133    30.985945    30.985945    30.985945    29750.497 
 3289000    300.28929   -959.94883   -23091.258   -24977.245    1885.9869    1.1610133    30.985945    30.985945    30.985945    29750.497 
 3290000    296.49616   -1525.6898   -22959.499   -24821.662    1862.1639    1.1610133    30.985945    30.985945    30.985945    29750.497 
 3291000    304.21854   -1813.1747   -23077.938   -24988.602    1910.6648    1.1610133    30.985945    30.985945    30.985945    29750.497 
 3292000    298.55897   -1804.2037   -22991.805   -24866.924    1875.1196    1.1610133    30.985945    30.985945    30.985945    29750.497 
 3293000    305.92979   -1264.8302   -23103.359   -25024.771    1921.4125    1.1610133    30.985945    30.985945    30.985945    29750.497 
 3294000    302.43175     -1751.14   -23025.864   -24925.307    1899.4428    1.1610133    30.985945    30.985945    30.985945    29750.497 
 3295000    300.30324   -2245.1779   -23063.961   -24950.036    1886.0745    1.1610133    30.985945    30.985945    30.985945    29750.497 
 3296000    295.72228   -1968.6721   -23083.891   -24941.195    1857.3035    1.1610133    30.985945    30.985945    30.985945    29750.497 
 3297000     298.7788    -1959.233   -23114.381   -24990.881    1876.5002    1.1610133    30.985945    30.985945    30.985945    29750.497 
 3298000    306.70225   -888.62383   -23036.602   -24962.866     1926.264    1.1610133    30.985945    30.985945    30.985945    29750.497 
 3299000    304.61333   -1802.3638   -23011.144   -24924.289    1913.1444    1.1610133    30.985945    30.985945    30.985945    29750.497 
 3300000    292.41207   -1265.6052   -23094.593   -24931.107    1836.5135    1.1610133    30.985945    30.985945    30.985945    29750.497 
 3301000    293.88837    -1865.139   -23129.711   -24975.496    1845.7855    1.1610133    30.985945    30.985945    30.985945    29750.497 
 3302000     296.0865   -2876.9693   -23090.055   -24949.646     1859.591    1.1610133    30.985945    30.985945    30.985945    29750.497 
 3303000    297.96867   -1998.3822   -23018.693   -24890.105    1871.4121    1.1610133    30.985945    30.985945    30.985945    29750.497 
 3304000    297.26895    -2271.097   -23100.404   -24967.422    1867.0175    1.1610133    30.985945    30.985945    30.985945    29750.497 
 3305000    295.25895   -2015.0203   -23216.916   -25071.309    1854.3935    1.1610133    30.985945    30.985945    30.985945    29750.497 
 3306000    303.38456   -2389.4978   -23076.453   -24981.879     1905.427    1.1610133    30.985945    30.985945    30.985945    29750.497 
 3307000    304.34788   -1859.4983   -23003.529   -24915.006    1911.4772    1.1610133    30.985945    30.985945    30.985945    29750.497 
 3308000    299.90316   -1094.2439   -23106.619   -24990.181    1883.5618    1.1610133    30.985945    30.985945    30.985945    29750.497 
 3309000    305.18188   -1313.4794   -23057.974   -24974.689    1916.7152    1.1610133    30.985945    30.985945    30.985945    29750.497 
 3310000    303.70186    -1323.341   -23175.246   -25082.665    1907.4198    1.1610133    30.985945    30.985945    30.985945    29750.497 
 3311000    292.72706   -1123.9954   -23163.724   -25002.216    1838.4919    1.1610133    30.985945    30.985945    30.985945    29750.497 
 3312000     298.0422   -2131.5644   -23023.015   -24894.889     1871.874    1.1610133    30.985945    30.985945    30.985945    29750.497 
 3313000    298.44053   -1457.7632   -23052.827   -24927.203    1874.3757    1.1610133    30.985945    30.985945    30.985945    29750.497 
 3314000     308.9763   -1478.7245   -23050.698   -24991.244    1940.5463    1.1610133    30.985945    30.985945    30.985945    29750.497 
 3315000    301.63081   -1296.7207   -23066.739   -24961.151    1894.4124    1.1610133    30.985945    30.985945    30.985945    29750.497 
 3316000    296.66904   -1906.2692   -23162.945   -25026.195    1863.2497    1.1610133    30.985945    30.985945    30.985945    29750.497 
 3317000    287.08172   -1663.4887   -23229.807   -25032.842    1803.0359    1.1610133    30.985945    30.985945    30.985945    29750.497 
 3318000    297.60359   -1798.5955   -23070.971    -24940.09    1869.1193    1.1610133    30.985945    30.985945    30.985945    29750.497 
 3319000     304.1779   -1174.9194   -23060.271   -24970.681    1910.4096    1.1610133    30.985945    30.985945    30.985945    29750.497 
 3320000    298.77026   -2334.4728   -23115.598   -24992.045    1876.4465    1.1610133    30.985945    30.985945    30.985945    29750.497 
 3321000    292.04747   -1296.8783   -23186.408   -25020.632    1834.2236    1.1610133    30.985945    30.985945    30.985945    29750.497 
 3322000    295.03324   -1326.9871    -23143.68   -24996.656     1852.976    1.1610133    30.985945    30.985945    30.985945    29750.497 
 3323000    297.95246   -785.27485     -23011.4    -24882.71    1871.3103    1.1610133    30.985945    30.985945    30.985945    29750.497 
 3324000     304.8692   -1043.9512   -22985.929   -24900.681    1914.7514    1.1610133    30.985945    30.985945    30.985945    29750.497 
 3325000    294.81352   -2111.2204   -23083.808   -24935.404     1851.596    1.1610133    30.985945    30.985945    30.985945    29750.497 
 3326000    290.87531   -1547.9834   -22991.019   -24817.881    1826.8618    1.1610133    30.985945    30.985945    30.985945    29750.497 
 3327000    303.24093   -2039.6914   -23024.794   -24929.319    1904.5249    1.1610133    30.985945    30.985945    30.985945    29750.497 
 3328000    299.67138   -1512.9513   -23202.868   -25084.974    1882.1061    1.1610133    30.985945    30.985945    30.985945    29750.497 
 3329000    302.21279   -1841.6893   -23080.821   -24978.889    1898.0676    1.1610133    30.985945    30.985945    30.985945    29750.497 
 3330000    291.73004   -865.51811   -23177.047   -25009.277      1832.23    1.1610133    30.985945    30.985945    30.985945    29750.497 
 3331000    304.59497   -1965.9548   -23017.693   -24930.723    1913.0291    1.1610133    30.985945    30.985945    30.985945    29750.497 
 3332000    295.48461   -1285.6588     -23057.2   -24913.011    1855.8108    1.1610133    30.985945    30.985945    30.985945    29750.497 
 3333000    299.47875   -1571.3692    -23107.88   -24988.777    1880.8963    1.1610133    30.985945    30.985945    30.985945    29750.497 
 3334000    297.41818    -1197.625   -23098.625    -24966.58    1867.9547    1.1610133    30.985945    30.985945    30.985945    29750.497 
 3335000    297.24113    -1559.658   -23036.851   -24903.694    1866.8428    1.1610133    30.985945    30.985945    30.985945    29750.497 
 3336000    302.55714    -933.7422   -23082.173   -24982.404    1900.2303    1.1610133    30.985945    30.985945    30.985945    29750.497 
 3337000    312.72671   -807.91711   -23002.352   -24966.453     1964.101    1.1610133    30.985945    30.985945    30.985945    29750.497 
 3338000    297.89246   -2056.7618    -23052.53   -24923.464    1870.9335    1.1610133    30.985945    30.985945    30.985945    29750.497 
 3339000    295.33713   -2356.2631   -23112.705    -24967.59    1854.8846    1.1610133    30.985945    30.985945    30.985945    29750.497 
 3340000    295.76377    -1695.826   -23016.961   -24874.525    1857.5641    1.1610133    30.985945    30.985945    30.985945    29750.497 
 3341000    300.99516   -1134.9603   -23076.478   -24966.899    1890.4202    1.1610133    30.985945    30.985945    30.985945    29750.497 
 3342000    305.18975   -1293.3885   -22986.353   -24903.117    1916.7646    1.1610133    30.985945    30.985945    30.985945    29750.497 
 3343000    298.99373   -725.77397   -22986.254   -24864.105    1877.8501    1.1610133    30.985945    30.985945    30.985945    29750.497 
 3344000    302.58971   -1575.0745   -23031.095    -24931.53    1900.4349    1.1610133    30.985945    30.985945    30.985945    29750.497 
 3345000      297.982   -1168.9619   -23115.133   -24986.629    1871.4959    1.1610133    30.985945    30.985945    30.985945    29750.497 
 3346000    299.63251     -1929.01   -23154.092   -25035.954     1881.862    1.1610133    30.985945    30.985945    30.985945    29750.497 
 3347000    305.64615   -950.94406   -22924.355   -24843.986     1919.631    1.1610133    30.985945    30.985945    30.985945    29750.497 
 3348000    301.22864   -926.03402   -23050.334    -24942.22    1891.8866    1.1610133    30.985945    30.985945    30.985945    29750.497 
 3349000    301.58669   -1184.3384   -23134.522   -25028.657    1894.1353    1.1610133    30.985945    30.985945    30.985945    29750.497 
 3350000    298.73024    -1984.115   -23081.317   -24957.513    1876.1952    1.1610133    30.985945    30.985945    30.985945    29750.497 
 3351000    299.11858   -1296.0838   -23074.729   -24953.363    1878.6342    1.1610133    30.985945    30.985945    30.985945    29750.497 
 3352000    295.10921   -2231.3242   -23124.524   -24977.977    1853.4531    1.1610133    30.985945    30.985945    30.985945    29750.497 
 3353000    292.72191   -2071.7332   -23214.681   -25053.141    1838.4595    1.1610133    30.985945    30.985945    30.985945    29750.497 
 3354000    287.71819   -1727.2358   -23202.268   -25009.301    1807.0333    1.1610133    30.985945    30.985945    30.985945    29750.497 
 3355000    299.48207   -2781.8141   -23052.405   -24933.322    1880.9171    1.1610133    30.985945    30.985945    30.985945    29750.497 
 3356000    299.03688   -2269.7959   -23118.143   -24996.264    1878.1211    1.1610133    30.985945    30.985945    30.985945    29750.497 
 3357000    286.59784    -1905.321    -23084.55   -24884.547    1799.9969    1.1610133    30.985945    30.985945    30.985945    29750.497 
 3358000    298.52086   -1072.8488   -22996.831   -24871.711    1874.8802    1.1610133    30.985945    30.985945    30.985945    29750.497 
 3359000    303.93324   -1296.1694    -22925.17   -24834.043     1908.873    1.1610133    30.985945    30.985945    30.985945    29750.497 
 3360000    286.48453   -1812.8611   -23100.368   -24899.653    1799.2852    1.1610133    30.985945    30.985945    30.985945    29750.497 
 3361000     296.1489   -1562.3935   -23019.172   -24879.155     1859.983    1.1610133    30.985945    30.985945    30.985945    29750.497 
 3362000    289.85505   -899.90763   -23087.608   -24908.062     1820.454    1.1610133    30.985945    30.985945    30.985945    29750.497 
 3363000    292.79225   -1568.4613   -23143.708   -24982.609    1838.9013    1.1610133    30.985945    30.985945    30.985945    29750.497 
 3364000    306.37273   -1879.8071   -23088.004   -25012.198    1924.1944    1.1610133    30.985945    30.985945    30.985945    29750.497 
 3365000    292.14098   -894.88199   -23163.181   -24997.992    1834.8109    1.1610133    30.985945    30.985945    30.985945    29750.497 
 3366000    299.08139    -1341.125   -23069.615   -24948.016    1878.4006    1.1610133    30.985945    30.985945    30.985945    29750.497 
 3367000     289.5522   -1959.7737   -23145.237   -24963.789    1818.5519    1.1610133    30.985945    30.985945    30.985945    29750.497 
 3368000    294.94734    -1461.972   -23104.957   -24957.394    1852.4365    1.1610133    30.985945    30.985945    30.985945    29750.497 
 3369000    297.45608   -1931.2426   -23165.818   -25034.011    1868.1928    1.1610133    30.985945    30.985945    30.985945    29750.497 
 3370000    294.06265   -2150.4237   -23200.237   -25047.117    1846.8801    1.1610133    30.985945    30.985945    30.985945    29750.497 
 3371000    297.41761   -1885.6532   -23081.583   -24949.534    1867.9512    1.1610133    30.985945    30.985945    30.985945    29750.497 
 3372000    294.68039   -2322.2063   -23051.926   -24902.686    1850.7599    1.1610133    30.985945    30.985945    30.985945    29750.497 
 3373000    305.34144    -1481.139   -22979.021   -24896.738    1917.7173    1.1610133    30.985945    30.985945    30.985945    29750.497 
 3374000    293.46318   -905.70927    -22994.79   -24837.905    1843.1151    1.1610133    30.985945    30.985945    30.985945    29750.497 
 3375000     301.9289   -134.19449   -23041.899   -24938.183    1896.2846    1.1610133    30.985945    30.985945    30.985945    29750.497 
 3376000    300.54993   -1714.5769   -22993.795   -24881.419    1887.6239    1.1610133    30.985945    30.985945    30.985945    29750.497 
 3377000     296.6581   -1867.5238   -23103.502   -24966.683     1863.181    1.1610133    30.985945    30.985945    30.985945    29750.497 
 3378000    298.09605   -1635.6232   -23075.792   -24948.004    1872.2122    1.1610133    30.985945    30.985945    30.985945    29750.497 
 3379000    300.10395   -1405.6353   -23115.408   -25000.231    1884.8229    1.1610133    30.985945    30.985945    30.985945    29750.497 
 3380000    311.63342   -1266.6965   -22918.489   -24875.724    1957.2345    1.1610133    30.985945    30.985945    30.985945    29750.497 
 3381000    311.99817   -1811.6558   -22948.803   -24908.329    1959.5253    1.1610133    30.985945    30.985945    30.985945    29750.497 
 3382000    298.38435   -888.42159   -23038.047    -24912.07    1874.0228    1.1610133    30.985945    30.985945    30.985945    29750.497 
 3383000    293.66878   -1434.6133   -23081.998   -24926.404    1844.4064    1.1610133    30.985945    30.985945    30.985945    29750.497 
 3384000    299.73862   -1099.2481   -23055.038   -24937.567    1882.5284    1.1610133    30.985945    30.985945    30.985945    29750.497 
 3385000    284.23894   -1470.7381   -23134.623   -24919.805    1785.1817    1.1610133    30.985945    30.985945    30.985945    29750.497 
 3386000    294.74848   -935.48885   -23082.303   -24933.491    1851.1875    1.1610133    30.985945    30.985945    30.985945    29750.497 
 3387000    304.56217   -1174.8531   -22943.229   -24856.052     1912.823    1.1610133    30.985945    30.985945    30.985945    29750.497 
 3388000     301.5278   -969.65253   -23059.609   -24953.374    1893.7655    1.1610133    30.985945    30.985945    30.985945    29750.497 
 3389000    307.50775    -853.4145   -23018.097    -24949.42     1931.323    1.1610133    30.985945    30.985945    30.985945    29750.497 
 3390000     297.1674   -1753.4136   -23070.814   -24937.194    1866.3797    1.1610133    30.985945    30.985945    30.985945    29750.497 
 3391000    300.94716    -1296.678   -23109.647   -24999.766    1890.1187    1.1610133    30.985945    30.985945    30.985945    29750.497 
 3392000    296.11984   -2037.9408   -23078.923   -24938.724    1859.8004    1.1610133    30.985945    30.985945    30.985945    29750.497 
 3393000    297.89198   -740.11941       -23073    -24943.93    1870.9305    1.1610133    30.985945    30.985945    30.985945    29750.497 
 3394000    298.03026   -2080.4408   -23091.231    -24963.03     1871.799    1.1610133    30.985945    30.985945    30.985945    29750.497 
 3395000    299.96004   -1447.3143   -23092.167   -24976.086    1883.9191    1.1610133    30.985945    30.985945    30.985945    29750.497 
 3396000    307.02146      -971.28   -22961.846   -24890.115    1928.2688    1.1610133    30.985945    30.985945    30.985945    29750.497 
 3397000    300.80724   -1955.5931   -23160.173   -25049.413      1889.24    1.1610133    30.985945    30.985945    30.985945    29750.497 
 3398000     301.8731   -1492.0168    -23117.38   -25013.314    1895.9342    1.1610133    30.985945    30.985945    30.985945    29750.497 
 3399000    302.43826   -1427.0701   -22978.721   -24878.205    1899.4837    1.1610133    30.985945    30.985945    30.985945    29750.497 
 3400000    300.72483   -1277.8272   -23001.256   -24889.979    1888.7223    1.1610133    30.985945    30.985945    30.985945    29750.497 
 3401000    289.58044   -1817.8029   -23121.113   -24939.842    1818.7293    1.1610133    30.985945    30.985945    30.985945    29750.497 
 3402000    300.76164    -1678.738   -23081.468   -24970.421    1888.9536    1.1610133    30.985945    30.985945    30.985945    29750.497 
 3403000    303.20228    -1910.321    -23019.26   -24923.542    1904.2822    1.1610133    30.985945    30.985945    30.985945    29750.497 
 3404000    293.76976   -1340.0159   -22948.229   -24793.269    1845.0406    1.1610133    30.985945    30.985945    30.985945    29750.497 
 3405000    297.59658   -1548.6103   -23038.402   -24907.478    1869.0752    1.1610133    30.985945    30.985945    30.985945    29750.497 
 3406000    296.29989    -748.6334   -23056.756   -24917.687    1860.9312    1.1610133    30.985945    30.985945    30.985945    29750.497 
 3407000    294.47937   -1616.7813   -23070.928   -24920.425    1849.4973    1.1610133    30.985945    30.985945    30.985945    29750.497 
 3408000    306.10818   -2438.4441   -22990.052   -24912.585    1922.5328    1.1610133    30.985945    30.985945    30.985945    29750.497 
 3409000    304.31386   -2281.8614   -23021.612   -24932.875    1911.2635    1.1610133    30.985945    30.985945    30.985945    29750.497 
 3410000    295.65933   -2651.0286   -23140.964   -24997.873    1856.9082    1.1610133    30.985945    30.985945    30.985945    29750.497 
 3411000    296.23402   -2970.3102   -23125.142    -24985.66    1860.5175    1.1610133    30.985945    30.985945    30.985945    29750.497 
 3412000    299.44787   -1985.3896   -23110.762   -24991.464    1880.7024    1.1610133    30.985945    30.985945    30.985945    29750.497 
 3413000    295.71832   -2177.6762   -23164.151    -25021.43    1857.2787    1.1610133    30.985945    30.985945    30.985945    29750.497 
 3414000     290.9226    -2531.062   -23151.601    -24978.76    1827.1588    1.1610133    30.985945    30.985945    30.985945    29750.497 
 3415000    295.50701   -1877.1729    -23143.21   -24999.161    1855.9515    1.1610133    30.985945    30.985945    30.985945    29750.497 
 3416000    295.55085   -965.26604   -23145.665   -25001.891    1856.2269    1.1610133    30.985945    30.985945    30.985945    29750.497 
 3417000    294.16504   -1711.2435   -23175.765   -25023.289    1847.5232    1.1610133    30.985945    30.985945    30.985945    29750.497 
 3418000    300.01134   -1398.3303   -23128.183   -25012.424    1884.2413    1.1610133    30.985945    30.985945    30.985945    29750.497 
 3419000    289.37997   -1379.0948   -23155.046   -24972.516    1817.4702    1.1610133    30.985945    30.985945    30.985945    29750.497 
 3420000    300.18674   -1664.1281   -23042.611   -24927.954    1885.3428    1.1610133    30.985945    30.985945    30.985945    29750.497 
 3421000    294.07249   -1867.3473   -23126.964   -24973.906    1846.9419    1.1610133    30.985945    30.985945    30.985945    29750.497 
 3422000    297.16396   -1164.6006   -23119.253   -24985.611    1866.3581    1.1610133    30.985945    30.985945    30.985945    29750.497 
 3423000    301.68379   -1397.7432   -23025.027   -24919.772    1894.7452    1.1610133    30.985945    30.985945    30.985945    29750.497 
 3424000    299.38526   -2264.9801   -23144.292   -25024.601    1880.3091    1.1610133    30.985945    30.985945    30.985945    29750.497 
 3425000    296.63319   -2580.6756   -23158.148   -25021.172    1863.0245    1.1610133    30.985945    30.985945    30.985945    29750.497 
 3426000    298.80132   -1209.7998    -23040.92   -24917.561    1876.6416    1.1610133    30.985945    30.985945    30.985945    29750.497 
 3427000    302.98133   -750.27408   -23074.486    -24977.38    1902.8945    1.1610133    30.985945    30.985945    30.985945    29750.497 
 3428000    309.07617   -2181.7679   -22969.267   -24910.441    1941.1736    1.1610133    30.985945    30.985945    30.985945    29750.497 
 3429000    294.49548   -1428.1635   -23016.342    -24865.94    1849.5985    1.1610133    30.985945    30.985945    30.985945    29750.497 
 3430000    300.65802   -1553.2232   -23038.808   -24927.111    1888.3028    1.1610133    30.985945    30.985945    30.985945    29750.497 
 3431000    301.32409   -2644.0186   -23022.364    -24914.85    1892.4861    1.1610133    30.985945    30.985945    30.985945    29750.497 
 3432000      293.595   -1800.7231   -23133.667    -24977.61     1843.943    1.1610133    30.985945    30.985945    30.985945    29750.497 
 3433000    308.37325   -1848.8681   -23121.118   -25057.877    1936.7588    1.1610133    30.985945    30.985945    30.985945    29750.497 
 3434000    307.10639   -2015.0458   -23100.465   -25029.267    1928.8022    1.1610133    30.985945    30.985945    30.985945    29750.497 
 3435000     293.8518   -1051.2592   -23125.146   -24970.702    1845.5558    1.1610133    30.985945    30.985945    30.985945    29750.497 
 3436000    296.19463   -1872.8864   -23117.434   -24977.705    1860.2702    1.1610133    30.985945    30.985945    30.985945    29750.497 
 3437000    297.72904   -1788.0502   -23062.427   -24932.334    1869.9071    1.1610133    30.985945    30.985945    30.985945    29750.497 
 3438000    295.10228   -1865.8773   -23059.331   -24912.741    1853.4096    1.1610133    30.985945    30.985945    30.985945    29750.497 
 3439000    288.85883   -2202.1838   -23167.464   -24981.661    1814.1972    1.1610133    30.985945    30.985945    30.985945    29750.497 
 3440000    294.74572    -1881.054   -23093.437   -24944.608    1851.1702    1.1610133    30.985945    30.985945    30.985945    29750.497 
 3441000    293.32604   -1909.1948   -23105.959   -24948.213    1842.2538    1.1610133    30.985945    30.985945    30.985945    29750.497 
 3442000    297.17795   -1957.0664    -23088.62   -24955.066     1866.446    1.1610133    30.985945    30.985945    30.985945    29750.497 
 3443000    296.42374   -2242.1319   -23171.827   -25033.537    1861.7091    1.1610133    30.985945    30.985945    30.985945    29750.497 
 3444000    310.52791   -2487.5176   -23221.876   -25172.167    1950.2913    1.1610133    30.985945    30.985945    30.985945    29750.497 
 3445000    306.18205   -1118.1431   -23059.482   -24982.479    1922.9968    1.1610133    30.985945    30.985945    30.985945    29750.497 
 3446000    299.45799   -1247.0906   -23071.296   -24952.062    1880.7659    1.1610133    30.985945    30.985945    30.985945    29750.497 
 3447000    288.18057   -2372.4679   -23167.052   -24976.989    1809.9373    1.1610133    30.985945    30.985945    30.985945    29750.497 
 3448000     292.5903   -1642.6035   -23180.775   -25018.407    1837.6329    1.1610133    30.985945    30.985945    30.985945    29750.497 
 3449000    303.77996   -2061.3794   -23031.137   -24939.047    1907.9103    1.1610133    30.985945    30.985945    30.985945    29750.497 
 3450000    293.37021   -2327.2214   -23126.985   -24969.516    1842.5312    1.1610133    30.985945    30.985945    30.985945    29750.497 
 3451000    291.87866   -1496.5221   -23105.556    -24938.72    1833.1634    1.1610133    30.985945    30.985945    30.985945    29750.497 
 3452000    293.03294     -2619.56   -23095.576   -24935.989    1840.4129    1.1610133    30.985945    30.985945    30.985945    29750.497 
 3453000    301.89067   -1286.8501   -23123.644   -25019.688    1896.0445    1.1610133    30.985945    30.985945    30.985945    29750.497 
 3454000    302.67833   -589.95355    -23037.77   -24938.762    1900.9915    1.1610133    30.985945    30.985945    30.985945    29750.497 
 3455000      301.895   -2272.4863   -23019.386   -24915.458    1896.0717    1.1610133    30.985945    30.985945    30.985945    29750.497 
 3456000    294.00236   -2039.2671   -23139.739   -24986.241    1846.5015    1.1610133    30.985945    30.985945    30.985945    29750.497 
 3457000    294.89344   -1471.4649   -23116.791   -24968.889    1852.0979    1.1610133    30.985945    30.985945    30.985945    29750.497 
 3458000    291.56542   -2339.6483   -23051.205   -24882.401    1831.1961    1.1610133    30.985945    30.985945    30.985945    29750.497 
 3459000    296.80944    -2123.167   -23032.679   -24896.811    1864.1315    1.1610133    30.985945    30.985945    30.985945    29750.497 
 3460000    304.32001   -1438.3138   -23093.246   -25004.548    1911.3021    1.1610133    30.985945    30.985945    30.985945    29750.497 
 3461000    288.67355   -1620.4464   -23151.169   -24964.202    1813.0335    1.1610133    30.985945    30.985945    30.985945    29750.497 
 3462000    283.90881   -1976.7822   -23179.472    -24962.58    1783.1083    1.1610133    30.985945    30.985945    30.985945    29750.497 
 3463000    306.46808   -713.46239   -22957.063   -24881.856    1924.7933    1.1610133    30.985945    30.985945    30.985945    29750.497 
 3464000    295.95052   -1149.3544   -23061.894   -24920.631     1858.737    1.1610133    30.985945    30.985945    30.985945    29750.497 
 3465000    299.77927   -1857.7885   -23022.346    -24905.13    1882.7837    1.1610133    30.985945    30.985945    30.985945    29750.497 
 3466000    296.98457   -1532.3732   -23207.843   -25073.074    1865.2314    1.1610133    30.985945    30.985945    30.985945    29750.497 
 3467000    288.43267   -1390.1278   -23268.614   -25080.134    1811.5206    1.1610133    30.985945    30.985945    30.985945    29750.497 
 3468000    308.33878   -914.46313   -23091.714   -25028.256    1936.5423    1.1610133    30.985945    30.985945    30.985945    29750.497 
 3469000    297.78782   -1283.4294   -23114.806   -24985.082    1870.2763    1.1610133    30.985945    30.985945    30.985945    29750.497 
 3470000    290.37649   -1809.7945   -23113.096   -24936.825    1823.7289    1.1610133    30.985945    30.985945    30.985945    29750.497 
 3471000     292.1085    -1451.661   -23106.227   -24940.834    1834.6069    1.1610133    30.985945    30.985945    30.985945    29750.497 
 3472000    296.05029   -2256.0924   -23097.801   -24957.164    1859.3636    1.1610133    30.985945    30.985945    30.985945    29750.497 
 3473000    303.53867   -1233.6632   -23083.793   -24990.188    1906.3949    1.1610133    30.985945    30.985945    30.985945    29750.497 
 3474000    295.73258    -1967.785   -23160.785   -25018.153    1857.3682    1.1610133    30.985945    30.985945    30.985945    29750.497 
 3475000    303.12058   -1386.9553    -23047.19   -24950.959    1903.7691    1.1610133    30.985945    30.985945    30.985945    29750.497 
 3476000    306.16494    -1839.384   -23109.132   -25032.022    1922.8894    1.1610133    30.985945    30.985945    30.985945    29750.497 
 3477000    302.18587    -2334.939   -23057.396   -24955.295    1897.8986    1.1610133    30.985945    30.985945    30.985945    29750.497 
 3478000    292.25261   -2157.6513   -23156.553   -24992.065     1835.512    1.1610133    30.985945    30.985945    30.985945    29750.497 
 3479000     292.0314   -2082.4529   -23081.488    -24915.61    1834.1227    1.1610133    30.985945    30.985945    30.985945    29750.497 
 3480000    296.05692   -1202.4295    -23086.87   -24946.275    1859.4052    1.1610133    30.985945    30.985945    30.985945    29750.497 
 3481000    300.26312   -1836.5943     -23109.2   -24995.023    1885.8226    1.1610133    30.985945    30.985945    30.985945    29750.497 
 3482000     294.5761   -1995.4537   -23152.775    -25002.88    1850.1049    1.1610133    30.985945    30.985945    30.985945    29750.497 
 3483000    301.82408   -2120.3435    -23178.39   -25074.016    1895.6263    1.1610133    30.985945    30.985945    30.985945    29750.497 
 3484000    294.65904   -1984.6473   -23109.139   -24959.764    1850.6258    1.1610133    30.985945    30.985945    30.985945    29750.497 
 3485000    302.61396   -2142.0237   -23164.253    -25064.84    1900.5872    1.1610133    30.985945    30.985945    30.985945    29750.497 
 3486000    311.24645   -1021.7858     -22977.4   -24932.204    1954.8041    1.1610133    30.985945    30.985945    30.985945    29750.497 
 3487000    297.81764   -1403.6256   -23119.208   -24989.671    1870.4636    1.1610133    30.985945    30.985945    30.985945    29750.497 
 3488000     298.8421   -1719.5572   -23059.492    -24936.39    1876.8978    1.1610133    30.985945    30.985945    30.985945    29750.497 
 3489000    297.64107   -1044.4877   -23086.223   -24955.578    1869.3546    1.1610133    30.985945    30.985945    30.985945    29750.497 
 3490000    301.82881   -2212.7596   -23090.331   -24985.987     1895.656    1.1610133    30.985945    30.985945    30.985945    29750.497 
 3491000    300.26372    -404.5271   -23036.074     -24921.9    1885.8264    1.1610133    30.985945    30.985945    30.985945    29750.497 
 3492000    295.97059     -1875.72   -23111.125   -24969.988    1858.8631    1.1610133    30.985945    30.985945    30.985945    29750.497 
 3493000    307.20808   -2377.2957   -22981.127   -24910.568    1929.4409    1.1610133    30.985945    30.985945    30.985945    29750.497 
 3494000    297.49468   -864.92398   -23102.389   -24970.825    1868.4352    1.1610133    30.985945    30.985945    30.985945    29750.497 
 3495000    293.75638   -2621.7481   -23218.804   -25063.761    1844.9565    1.1610133    30.985945    30.985945    30.985945    29750.497 
 3496000    292.61959   -1728.5426   -23021.169   -24858.986    1837.8169    1.1610133    30.985945    30.985945    30.985945    29750.497 
 3497000    302.88894   -1318.3125   -23051.174   -24953.488    1902.3142    1.1610133    30.985945    30.985945    30.985945    29750.497 
 3498000    295.82824   -1878.6085   -23036.705   -24894.674     1857.969    1.1610133    30.985945    30.985945    30.985945    29750.497 
 3499000    292.56258   -2077.3479   -23104.033   -24941.492    1837.4588    1.1610133    30.985945    30.985945    30.985945    29750.497 
 3500000     291.8182   -1608.3047   -23119.828   -24952.611    1832.7837    1.1610133    30.985945    30.985945    30.985945    29750.497 
 3501000    291.06675   -1569.7642   -23091.585   -24919.649    1828.0642    1.1610133    30.985945    30.985945    30.985945    29750.497 
 3502000    310.04885   -1244.8035   -22969.132   -24916.415    1947.2825    1.1610133    30.985945    30.985945    30.985945    29750.497 
 3503000    296.25607   -1073.8111   -23134.242   -24994.898    1860.6561    1.1610133    30.985945    30.985945    30.985945    29750.497 
 3504000    302.11745   -1643.0083   -23036.425   -24933.894    1897.4688    1.1610133    30.985945    30.985945    30.985945    29750.497 
 3505000    291.36336   -2433.9576   -23119.418   -24949.345     1829.927    1.1610133    30.985945    30.985945    30.985945    29750.497 
 3506000    298.58145   -1975.5903   -23063.515   -24938.776    1875.2607    1.1610133    30.985945    30.985945    30.985945    29750.497 
 3507000    298.80491   -1525.4031   -23080.706    -24957.37    1876.6642    1.1610133    30.985945    30.985945    30.985945    29750.497 
 3508000    303.20082   -1090.2403   -22960.241   -24864.514     1904.273    1.1610133    30.985945    30.985945    30.985945    29750.497 
 3509000    305.75102   -1322.0398   -22966.714   -24887.004    1920.2897    1.1610133    30.985945    30.985945    30.985945    29750.497 
 3510000     304.5452   -1575.2333   -22986.456   -24899.172    1912.7164    1.1610133    30.985945    30.985945    30.985945    29750.497 
 3511000    296.73672   -2176.6621   -23054.088   -24917.763    1863.6748    1.1610133    30.985945    30.985945    30.985945    29750.497 
 3512000     298.9527   -1490.7891   -23030.719   -24908.311    1877.5924    1.1610133    30.985945    30.985945    30.985945    29750.497 
 3513000    316.53457   -1702.7411   -22889.322   -24877.338    1988.0165    1.1610133    30.985945    30.985945    30.985945    29750.497 
 3514000    298.02779   -1851.5576   -23117.908   -24989.692    1871.7835    1.1610133    30.985945    30.985945    30.985945    29750.497 
 3515000    299.28433    -1901.294   -23009.487   -24889.163    1879.6752    1.1610133    30.985945    30.985945    30.985945    29750.497 
 3516000    292.25746   -1436.4004   -23028.317   -24863.859    1835.5425    1.1610133    30.985945    30.985945    30.985945    29750.497 
 3517000    297.99817   -1374.3328   -22913.784   -24785.381    1871.5974    1.1610133    30.985945    30.985945    30.985945    29750.497 
 3518000    293.04722   -1725.1075   -23145.541   -24986.044    1840.5027    1.1610133    30.985945    30.985945    30.985945    29750.497 
 3519000     302.0592    -2221.732   -23044.999   -24942.102     1897.103    1.1610133    30.985945    30.985945    30.985945    29750.497 
 3520000    295.44865   -1554.5589   -22976.636   -24832.221     1855.585    1.1610133    30.985945    30.985945    30.985945    29750.497 
 3521000    306.28465   -1564.4788   -22955.169    -24878.81    1923.6412    1.1610133    30.985945    30.985945    30.985945    29750.497 
 3522000    302.38511   -2335.5726   -23065.351   -24964.501    1899.1499    1.1610133    30.985945    30.985945    30.985945    29750.497 
 3523000    292.73162   -1310.8921   -23103.324   -24941.845    1838.5205    1.1610133    30.985945    30.985945    30.985945    29750.497 
 3524000    293.17105   -1276.6869   -23066.053   -24907.333    1841.2804    1.1610133    30.985945    30.985945    30.985945    29750.497 
 3525000    300.08006   -1686.2004   -23063.444   -24948.117    1884.6728    1.1610133    30.985945    30.985945    30.985945    29750.497 
 3526000    304.44755   -1064.7405   -23109.786   -25021.889    1912.1032    1.1610133    30.985945    30.985945    30.985945    29750.497 
 3527000     296.2243    -2156.399   -23042.505   -24902.962    1860.4565    1.1610133    30.985945    30.985945    30.985945    29750.497 
 3528000    300.48465   -1545.7454   -23013.349   -24900.563    1887.2139    1.1610133    30.985945    30.985945    30.985945    29750.497 
 3529000    298.26408   -1022.1542   -22996.009   -24869.276    1873.2674    1.1610133    30.985945    30.985945    30.985945    29750.497 
 3530000    300.30939   -83.293544   -23031.435   -24917.549    1886.1132    1.1610133    30.985945    30.985945    30.985945    29750.497 
 3531000    303.88847   -911.38997   -23079.359   -24987.951    1908.5918    1.1610133    30.985945    30.985945    30.985945    29750.497 
 3532000    297.89985   -1530.3508   -23107.791   -24978.771    1870.9799    1.1610133    30.985945    30.985945    30.985945    29750.497 
 3533000    299.12342   -1639.6297   -22991.176   -24869.841    1878.6646    1.1610133    30.985945    30.985945    30.985945    29750.497 
 3534000    292.42119   -1135.0367   -22984.606   -24821.177    1836.5708    1.1610133    30.985945    30.985945    30.985945    29750.497 
 3535000    303.33176   -2152.9013   -22974.289   -24879.384    1905.0954    1.1610133    30.985945    30.985945    30.985945    29750.497 
 3536000    305.11319   -1523.2668    -22992.01   -24908.294    1916.2837    1.1610133    30.985945    30.985945    30.985945    29750.497 
 3537000    298.90972   -1660.2393   -23125.188    -25002.51    1877.3225    1.1610133    30.985945    30.985945    30.985945    29750.497 
 3538000    295.81891   -2631.0524   -23056.308   -24914.218    1857.9104    1.1610133    30.985945    30.985945    30.985945    29750.497 
 3539000    304.66775   -2299.4944   -23017.708   -24931.194    1913.4862    1.1610133    30.985945    30.985945    30.985945    29750.497 
 3540000    290.34797    -1354.627   -23072.436   -24895.986    1823.5498    1.1610133    30.985945    30.985945    30.985945    29750.497 
 3541000    291.07812   -2430.0694   -23070.807   -24898.942    1828.1356    1.1610133    30.985945    30.985945    30.985945    29750.497 
 3542000    293.24866   -1597.8524   -23038.684   -24880.452    1841.7678    1.1610133    30.985945    30.985945    30.985945    29750.497 
 3543000    306.73012   -1120.6841   -23059.314   -24985.753     1926.439    1.1610133    30.985945    30.985945    30.985945    29750.497 
 3544000    290.73423   -1486.6987   -23062.037   -24888.013    1825.9757    1.1610133    30.985945    30.985945    30.985945    29750.497 
 3545000    296.10501    -1687.804    -23092.35   -24952.058    1859.7073    1.1610133    30.985945    30.985945    30.985945    29750.497 
 3546000    304.49833   -1107.9355   -22974.977   -24887.399    1912.4221    1.1610133    30.985945    30.985945    30.985945    29750.497 
 3547000    298.14745    -1540.397   -23035.419   -24907.954     1872.535    1.1610133    30.985945    30.985945    30.985945    29750.497 
 3548000    298.18456   -2013.0865   -23088.443   -24961.211     1872.768    1.1610133    30.985945    30.985945    30.985945    29750.497 
 3549000    297.30088   -1518.0223   -23078.936   -24946.154     1867.218    1.1610133    30.985945    30.985945    30.985945    29750.497 
 3550000    288.90751   -567.81751   -23065.356   -24879.859    1814.5029    1.1610133    30.985945    30.985945    30.985945    29750.497 
 3551000    303.29268   -1472.1873   -22961.788   -24866.638      1904.85    1.1610133    30.985945    30.985945    30.985945    29750.497 
 3552000    295.94244   -1166.5839    -23051.55   -24910.236    1858.6862    1.1610133    30.985945    30.985945    30.985945    29750.497 
 3553000    303.11448   -1795.7656   -23047.599    -24951.33    1903.7307    1.1610133    30.985945    30.985945    30.985945    29750.497 
 3554000    303.36292   -1625.7058   -23055.181   -24960.472    1905.2911    1.1610133    30.985945    30.985945    30.985945    29750.497 
 3555000    297.20757   -1544.1749   -23061.737   -24928.369     1866.632    1.1610133    30.985945    30.985945    30.985945    29750.497 
 3556000    295.76636   -1814.1465   -23008.404   -24865.984    1857.5804    1.1610133    30.985945    30.985945    30.985945    29750.497 
 3557000    292.72479   -1284.6172   -23113.686   -24952.164    1838.4776    1.1610133    30.985945    30.985945    30.985945    29750.497 
 3558000    295.48385   -2095.0492   -23043.632   -24899.438     1855.806    1.1610133    30.985945    30.985945    30.985945    29750.497 
 3559000    295.64112   -1095.1489   -23106.852   -24963.646    1856.7938    1.1610133    30.985945    30.985945    30.985945    29750.497 
 3560000    296.38224   -1337.4635   -23137.836   -24999.284    1861.4485    1.1610133    30.985945    30.985945    30.985945    29750.497 
 3561000    299.58121   -1897.8821   -23124.706   -25006.246    1881.5398    1.1610133    30.985945    30.985945    30.985945    29750.497 
 3562000    308.93757   -562.52982   -23011.483   -24951.786     1940.303    1.1610133    30.985945    30.985945    30.985945    29750.497 
 3563000    296.45412   -1530.0316   -23060.814   -24922.713    1861.8999    1.1610133    30.985945    30.985945    30.985945    29750.497 
 3564000    300.81387   -1742.0999   -23076.878    -24966.16    1889.2816    1.1610133    30.985945    30.985945    30.985945    29750.497 
 3565000    287.73984   -1294.6683   -23110.329   -24917.498    1807.1693    1.1610133    30.985945    30.985945    30.985945    29750.497 
 3566000    297.35485   -1539.0729   -23050.404   -24917.961     1867.557    1.1610133    30.985945    30.985945    30.985945    29750.497 
 3567000     294.2045   -1658.5207   -23123.214   -24970.985     1847.771    1.1610133    30.985945    30.985945    30.985945    29750.497 
 3568000    299.80071   -2554.7848    -23033.27   -24916.189    1882.9184    1.1610133    30.985945    30.985945    30.985945    29750.497 
 3569000    299.11302   -1588.2374   -23083.652   -24962.251    1878.5993    1.1610133    30.985945    30.985945    30.985945    29750.497 
 3570000    302.40998   -1099.1401   -23001.371   -24900.677    1899.3061    1.1610133    30.985945    30.985945    30.985945    29750.497 
 3571000    301.76255   -320.65402   -22989.318   -24884.558    1895.2398    1.1610133    30.985945    30.985945    30.985945    29750.497 
 3572000    299.04138   -2329.0229   -22959.898   -24838.047    1878.1493    1.1610133    30.985945    30.985945    30.985945    29750.497 
 3573000    303.20596   -1983.0236   -23037.962   -24942.267    1904.3053    1.1610133    30.985945    30.985945    30.985945    29750.497 
 3574000    296.60479   -1196.8067   -23113.575   -24976.421    1862.8462    1.1610133    30.985945    30.985945    30.985945    29750.497 
 3575000    291.14895     -1261.59   -23184.562   -25013.143    1828.5804    1.1610133    30.985945    30.985945    30.985945    29750.497 
 3576000    298.56603   -691.57025   -23063.955   -24939.119    1875.1639    1.1610133    30.985945    30.985945    30.985945    29750.497 
 3577000     291.9736   -2188.7936    -23072.15    -24905.91    1833.7597    1.1610133    30.985945    30.985945    30.985945    29750.497 
 3578000    303.43686   -1938.2899   -23049.369   -24955.125    1905.7555    1.1610133    30.985945    30.985945    30.985945    29750.497 
 3579000    298.32162   -1758.5382   -23062.288   -24935.917    1873.6289    1.1610133    30.985945    30.985945    30.985945    29750.497 
 3580000    288.78517   -1589.0816   -23131.019   -24944.754    1813.7346    1.1610133    30.985945    30.985945    30.985945    29750.497 
 3581000    304.05145   -2139.8525   -23026.381   -24935.997    1909.6154    1.1610133    30.985945    30.985945    30.985945    29750.497 
 3582000    294.02461    -1479.887   -23060.317   -24906.959    1846.6412    1.1610133    30.985945    30.985945    30.985945    29750.497 
 3583000    293.99077   -1675.5887   -23095.475   -24941.904    1846.4287    1.1610133    30.985945    30.985945    30.985945    29750.497 
 3584000    308.55373   -1274.2157   -22903.363   -24841.255    1937.8923    1.1610133    30.985945    30.985945    30.985945    29750.497 
 3585000    286.06779   -2081.8197   -23151.754   -24948.422    1796.6678    1.1610133    30.985945    30.985945    30.985945    29750.497 
 3586000    298.48451    -1645.369   -23083.285   -24957.937    1874.6519    1.1610133    30.985945    30.985945    30.985945    29750.497 
 3587000    301.10583   -1300.7534    -23029.24   -24920.355    1891.1153    1.1610133    30.985945    30.985945    30.985945    29750.497 
 3588000     296.3764   -1375.4231   -23053.416   -24914.828    1861.4118    1.1610133    30.985945    30.985945    30.985945    29750.497 
 3589000    296.85578   -1928.9071   -23134.509   -24998.931    1864.4226    1.1610133    30.985945    30.985945    30.985945    29750.497 
 3590000    303.65051   -834.12344   -23044.061   -24951.158    1907.0973    1.1610133    30.985945    30.985945    30.985945    29750.497 
 3591000    301.50129   -1233.4927   -23070.165   -24963.764     1893.599    1.1610133    30.985945    30.985945    30.985945    29750.497 
 3592000    304.52592   -977.35584   -22945.899   -24858.494    1912.5954    1.1610133    30.985945    30.985945    30.985945    29750.497 
 3593000    300.11356   -1184.1479   -23069.129   -24954.013    1884.8832    1.1610133    30.985945    30.985945    30.985945    29750.497 
 3594000    295.36403   -1128.6944   -23006.712   -24861.766    1855.0535    1.1610133    30.985945    30.985945    30.985945    29750.497 
 3595000      293.585   -1629.0982    -23010.33    -24854.21    1843.8802    1.1610133    30.985945    30.985945    30.985945    29750.497 
 3596000    297.91971   -1745.8121   -23004.528   -24875.633    1871.1046    1.1610133    30.985945    30.985945    30.985945    29750.497 
 3597000    293.64349   -1871.0655   -23086.607   -24930.855    1844.2475    1.1610133    30.985945    30.985945    30.985945    29750.497 
 3598000    295.08641   -2325.1174   -23120.245   -24973.555    1853.3099    1.1610133    30.985945    30.985945    30.985945    29750.497 
 3599000    302.54547   -1810.2871   -22944.133    -24844.29     1900.157    1.1610133    30.985945    30.985945    30.985945    29750.497 
 3600000     300.6305   -1371.6669   -23052.204   -24940.334    1888.1299    1.1610133    30.985945    30.985945    30.985945    29750.497 
 3601000    306.10453   -1917.8868   -23050.074   -24972.584      1922.51    1.1610133    30.985945    30.985945    30.985945    29750.497 
 3602000    289.25225     -673.195   -23137.653   -24954.321     1816.668    1.1610133    30.985945    30.985945    30.985945    29750.497 
 3603000    304.90316    -1230.856   -23148.005    -25062.97    1914.9646    1.1610133    30.985945    30.985945    30.985945    29750.497 
 3604000    304.44064   -1935.6442   -23042.134   -24954.194    1912.0598    1.1610133    30.985945    30.985945    30.985945    29750.497 
 3605000    299.27017   -1355.1635   -23073.276   -24952.862    1879.5863    1.1610133    30.985945    30.985945    30.985945    29750.497 
 3606000    298.72668   -2317.8857   -23074.921   -24951.094    1876.1729    1.1610133    30.985945    30.985945    30.985945    29750.497 
 3607000    296.65112   -1971.3876   -23079.812   -24942.949    1863.1371    1.1610133    30.985945    30.985945    30.985945    29750.497 
 3608000    301.20911   -2047.9381     -23145.6   -25037.364    1891.7639    1.1610133    30.985945    30.985945    30.985945    29750.497 
 3609000    290.10903   -1007.9728    -23133.68   -24955.729    1822.0492    1.1610133    30.985945    30.985945    30.985945    29750.497 
 3610000    301.16289   -1731.4634   -23142.446    -25033.92    1891.4737    1.1610133    30.985945    30.985945    30.985945    29750.497 
 3611000    302.29336   -1195.7475   -23083.165   -24981.739    1898.5736    1.1610133    30.985945    30.985945    30.985945    29750.497 
 3612000    296.97742   -2197.2863   -23138.194   -25003.381    1865.1865    1.1610133    30.985945    30.985945    30.985945    29750.497 
 3613000    298.91795   -1940.7764    -23023.01   -24900.384    1877.3741    1.1610133    30.985945    30.985945    30.985945    29750.497 
 3614000    304.65686   -2289.3222   -22972.606   -24886.024    1913.4177    1.1610133    30.985945    30.985945    30.985945    29750.497 
 3615000    293.77677   -2246.4808   -23127.726    -24972.81    1845.0846    1.1610133    30.985945    30.985945    30.985945    29750.497 
 3616000    285.09356   -2207.9158   -23140.759   -24931.308    1790.5492    1.1610133    30.985945    30.985945    30.985945    29750.497 
 3617000    287.36952    -1165.556   -23136.271   -24941.114    1804.8434    1.1610133    30.985945    30.985945    30.985945    29750.497 
 3618000    298.28021   -1551.4247   -23105.789   -24979.158    1873.3688    1.1610133    30.985945    30.985945    30.985945    29750.497 
 3619000    303.72531   -1092.0511   -23019.928   -24927.496    1907.5671    1.1610133    30.985945    30.985945    30.985945    29750.497 
 3620000    299.04736   -212.37163   -23108.501   -24986.688    1878.1869    1.1610133    30.985945    30.985945    30.985945    29750.497 
 3621000    290.93219    -2161.799   -23129.494   -24956.713     1827.219    1.1610133    30.985945    30.985945    30.985945    29750.497 
 3622000    294.54086   -1077.7686   -23046.644   -24896.528    1849.8836    1.1610133    30.985945    30.985945    30.985945    29750.497 
 3623000    295.97964   -1858.4091   -23141.511   -25000.431    1858.9199    1.1610133    30.985945    30.985945    30.985945    29750.497 
 3624000    307.36508    -576.8723   -22930.198   -24860.625    1930.4269    1.1610133    30.985945    30.985945    30.985945    29750.497 
 3625000    297.32133   -2140.1189   -23102.857   -24970.204    1867.3464    1.1610133    30.985945    30.985945    30.985945    29750.497 
 3626000     304.0184   -1602.5858   -23031.005   -24940.413    1909.4079    1.1610133    30.985945    30.985945    30.985945    29750.497 
 3627000    298.62127   -1443.9555   -23011.449    -24886.96    1875.5109    1.1610133    30.985945    30.985945    30.985945    29750.497 
 3628000    295.63253   -1010.4311    -23020.77    -24877.51    1856.7398    1.1610133    30.985945    30.985945    30.985945    29750.497 
 3629000    301.62482      -1633.5    -23137.74   -25032.115    1894.3748    1.1610133    30.985945    30.985945    30.985945    29750.497 
 3630000    300.31091    -2025.749   -23053.428    -24939.55    1886.1227    1.1610133    30.985945    30.985945    30.985945    29750.497 
 3631000    305.53433   -1703.4321   -22980.276   -24899.205    1918.9288    1.1610133    30.985945    30.985945    30.985945    29750.497 
 3632000    306.39858   -2188.8969   -23039.738   -24964.095    1924.3567    1.1610133    30.985945    30.985945    30.985945    29750.497 
 3633000    304.33593   -946.01034   -23061.948    -24973.35    1911.4021    1.1610133    30.985945    30.985945    30.985945    29750.497 
 3634000    294.24576   -2288.8677   -23080.624   -24928.654    1848.0301    1.1610133    30.985945    30.985945    30.985945    29750.497 
 3635000    298.43382   -2120.7338   -23008.882   -24883.216    1874.3335    1.1610133    30.985945    30.985945    30.985945    29750.497 
 3636000    293.79701     -2048.51   -23044.859   -24890.071    1845.2118    1.1610133    30.985945    30.985945    30.985945    29750.497 
 3637000    298.61246   -1506.2642   -23059.076   -24934.532    1875.4555    1.1610133    30.985945    30.985945    30.985945    29750.497 
 3638000    299.11813   -1177.6488   -23087.229   -24965.861    1878.6314    1.1610133    30.985945    30.985945    30.985945    29750.497 
 3639000    297.90733   -1187.5521   -23150.333    -25021.36    1871.0269    1.1610133    30.985945    30.985945    30.985945    29750.497 
 3640000    299.35545   -1864.0069   -23031.401   -24911.523    1880.1219    1.1610133    30.985945    30.985945    30.985945    29750.497 
 3641000    299.95131   -1678.9653   -23085.296    -24969.16    1883.8642    1.1610133    30.985945    30.985945    30.985945    29750.497 
 3642000    300.82138   -1684.9955   -23093.054   -24982.383    1889.3288    1.1610133    30.985945    30.985945    30.985945    29750.497 
 3643000    295.01442   -1384.0097   -23108.072   -24960.929    1852.8577    1.1610133    30.985945    30.985945    30.985945    29750.497 
 3644000     299.7588   -1283.4655   -23078.861   -24961.516    1882.6551    1.1610133    30.985945    30.985945    30.985945    29750.497 
 3645000    291.91538   -1659.1525   -23156.083   -24989.477     1833.394    1.1610133    30.985945    30.985945    30.985945    29750.497 
 3646000    292.79826    -1526.962   -23185.098   -25024.037     1838.939    1.1610133    30.985945    30.985945    30.985945    29750.497 
 3647000    298.08736   -1472.2843   -23108.542   -24980.699    1872.1576    1.1610133    30.985945    30.985945    30.985945    29750.497 
 3648000    300.26128    -1850.197    -23040.37   -24926.181     1885.811    1.1610133    30.985945    30.985945    30.985945    29750.497 
 3649000    296.78107    -1601.937    -23064.45   -24928.403    1863.9534    1.1610133    30.985945    30.985945    30.985945    29750.497 
 3650000    292.61189    -1794.689   -23136.016   -24973.784    1837.7685    1.1610133    30.985945    30.985945    30.985945    29750.497 
 3651000    302.83081   -431.36646   -23030.005   -24931.955    1901.9491    1.1610133    30.985945    30.985945    30.985945    29750.497 
 3652000    287.16485    -1113.949   -23158.151   -24961.709     1803.558    1.1610133    30.985945    30.985945    30.985945    29750.497 
 3653000     305.4524   -1408.3244    -22945.32   -24863.734    1918.4142    1.1610133    30.985945    30.985945    30.985945    29750.497 
 3654000    298.12122   -1441.7477   -23045.333   -24917.704    1872.3703    1.1610133    30.985945    30.985945    30.985945    29750.497 
 3655000    299.06839   -1742.6993   -23033.191    -24911.51     1878.319    1.1610133    30.985945    30.985945    30.985945    29750.497 
 3656000    299.06238   -1337.6191   -23019.095   -24897.376    1878.2813    1.1610133    30.985945    30.985945    30.985945    29750.497 
 3657000    297.38364   -1543.3841   -23060.669   -24928.406    1867.7378    1.1610133    30.985945    30.985945    30.985945    29750.497 
 3658000    299.32767   -1760.5312    -23089.39   -24969.338    1879.9474    1.1610133    30.985945    30.985945    30.985945    29750.497 
 3659000    297.87935   -1393.9105   -22962.387   -24833.239    1870.8512    1.1610133    30.985945    30.985945    30.985945    29750.497 
 3660000    298.63292   -1395.5747   -23105.594   -24981.178     1875.584    1.1610133    30.985945    30.985945    30.985945    29750.497 
 3661000    300.90431   -2151.9504   -23027.616   -24917.465    1889.8496    1.1610133    30.985945    30.985945    30.985945    29750.497 
 3662000    292.09227   -1708.4123   -23095.818   -24930.323     1834.505    1.1610133    30.985945    30.985945    30.985945    29750.497 
 3663000    296.33426   -1563.3732   -23096.878   -24958.025    1861.1471    1.1610133    30.985945    30.985945    30.985945    29750.497 
 3664000    301.91226   -863.41602   -23098.867   -24995.047    1896.1801    1.1610133    30.985945    30.985945    30.985945    29750.497 
 3665000    299.11618   -1511.9111   -23074.392   -24953.011    1878.6192    1.1610133    30.985945    30.985945    30.985945    29750.497 
 3666000    294.80963   -1411.9872   -23061.687   -24913.258    1851.5716    1.1610133    30.985945    30.985945    30.985945    29750.497 
 3667000    299.63351   -2083.8359   -23008.564   -24890.432    1881.8683    1.1610133    30.985945    30.985945    30.985945    29750.497 
 3668000    309.02454   -1966.0869   -22940.235   -24881.084    1940.8493    1.1610133    30.985945    30.985945    30.985945    29750.497 
 3669000    300.38334   -1641.9554   -22887.838   -24774.416    1886.5776    1.1610133    30.985945    30.985945    30.985945    29750.497 
 3670000    298.33358   -1160.1472   -23116.109   -24989.813     1873.704    1.1610133    30.985945    30.985945    30.985945    29750.497 
 3671000    297.35012   -1304.3103   -23052.966   -24920.494    1867.5273    1.1610133    30.985945    30.985945    30.985945    29750.497 
 3672000    304.75871   -1545.3934   -23053.134   -24967.191    1914.0574    1.1610133    30.985945    30.985945    30.985945    29750.497 
 3673000    300.30547   -1445.2699   -23012.781    -24898.87    1886.0885    1.1610133    30.985945    30.985945    30.985945    29750.497 
 3674000    294.13383   -1916.0159   -23145.177   -24992.504    1847.3271    1.1610133    30.985945    30.985945    30.985945    29750.497 
 3675000    308.31025   -2136.5798   -23168.869   -25105.233    1936.3631    1.1610133    30.985945    30.985945    30.985945    29750.497 
 3676000    295.17565   -1225.8064   -23116.573   -24970.443    1853.8704    1.1610133    30.985945    30.985945    30.985945    29750.497 
 3677000    296.00222   -1901.7289   -23144.476   -25003.538    1859.0617    1.1610133    30.985945    30.985945    30.985945    29750.497 
 3678000    309.31282   -1947.7007   -23071.988   -25014.648    1942.6598    1.1610133    30.985945    30.985945    30.985945    29750.497 
 3679000    298.75596   -1511.3995   -23034.923    -24911.28    1876.3568    1.1610133    30.985945    30.985945    30.985945    29750.497 
 3680000    301.20509   -1644.6588   -23064.718   -24956.457    1891.7387    1.1610133    30.985945    30.985945    30.985945    29750.497 
 3681000    297.11835   -1713.1206   -23130.413   -24996.485    1866.0716    1.1610133    30.985945    30.985945    30.985945    29750.497 
 3682000    302.68884   -2140.1399   -23123.601   -25024.659    1901.0575    1.1610133    30.985945    30.985945    30.985945    29750.497 
 3683000    292.90366   -2706.1159   -23150.681   -24990.282     1839.601    1.1610133    30.985945    30.985945    30.985945    29750.497 
 3684000     290.1789   -1679.1862   -23144.178   -24966.665     1822.488    1.1610133    30.985945    30.985945    30.985945    29750.497 
 3685000    295.30438   -2157.3181   -23165.612   -25020.291    1854.6789    1.1610133    30.985945    30.985945    30.985945    29750.497 
 3686000    293.88576   -1973.6491   -23250.167   -25095.936    1845.7692    1.1610133    30.985945    30.985945    30.985945    29750.497 
 3687000    304.98169   -2196.5031   -23068.861   -24984.319    1915.4579    1.1610133    30.985945    30.985945    30.985945    29750.497 
 3688000    297.46037   -1565.9934   -23186.354   -25054.573    1868.2197    1.1610133    30.985945    30.985945    30.985945    29750.497 
 3689000    290.12304   -1510.1017   -23188.258   -25010.395    1822.1371    1.1610133    30.985945    30.985945    30.985945    29750.497 
 3690000    300.63393    -1239.347   -23099.648   -24987.799    1888.1515    1.1610133    30.985945    30.985945    30.985945    29750.497 
 3691000    307.93034   -1946.3699   -22993.653    -24927.63    1933.9771    1.1610133    30.985945    30.985945    30.985945    29750.497 
 3692000    305.89024   -1315.2505   -22973.184   -24894.348    1921.1641    1.1610133    30.985945    30.985945    30.985945    29750.497 
 3693000    304.52076   -1842.9007       -23103   -25015.563    1912.5629    1.1610133    30.985945    30.985945    30.985945    29750.497 
 3694000    299.52938   -1184.9972   -23066.231   -24947.446    1881.2143    1.1610133    30.985945    30.985945    30.985945    29750.497 
 3695000    300.07838   -1107.9308   -23120.999   -25005.661    1884.6623    1.1610133    30.985945    30.985945    30.985945    29750.497 
 3696000    296.76031   -2580.3778   -23153.694   -25017.517     1863.823    1.1610133    30.985945    30.985945    30.985945    29750.497 
 3697000    294.42548   -1752.7032   -23102.088   -24951.247    1849.1589    1.1610133    30.985945    30.985945    30.985945    29750.497 
 3698000    302.07019   -1039.6117   -23056.949   -24954.121     1897.172    1.1610133    30.985945    30.985945    30.985945    29750.497 
 3699000    304.05107   -2163.5389   -23120.141   -25029.754     1909.613    1.1610133    30.985945    30.985945    30.985945    29750.497 
 3700000    298.90689   -2214.3624   -23159.924   -25037.229    1877.3047    1.1610133    30.985945    30.985945    30.985945    29750.497 
 3701000     299.2171   -1309.5594   -23170.214   -25049.467     1879.253    1.1610133    30.985945    30.985945    30.985945    29750.497 
 3702000     301.5576   -2335.3859   -23170.101   -25064.054    1893.9526    1.1610133    30.985945    30.985945    30.985945    29750.497 
 3703000    299.80485   -1272.7964   -23081.887   -24964.832    1882.9444    1.1610133    30.985945    30.985945    30.985945    29750.497 
 3704000    297.79466   -1546.4862   -23133.373   -25003.692    1870.3193    1.1610133    30.985945    30.985945    30.985945    29750.497 
 3705000    302.12561   -1370.6174   -23102.858   -25000.379    1897.5201    1.1610133    30.985945    30.985945    30.985945    29750.497 
 3706000    301.00765   -1446.1385   -23150.125   -25040.624    1890.4987    1.1610133    30.985945    30.985945    30.985945    29750.497 
 3707000    287.50449    -1894.251   -23144.813   -24950.504    1805.6912    1.1610133    30.985945    30.985945    30.985945    29750.497 
 3708000    293.61685    -1221.629   -23142.407   -24986.487    1844.0802    1.1610133    30.985945    30.985945    30.985945    29750.497 
 3709000     297.4097   -598.65157   -23081.937   -24949.838    1867.9015    1.1610133    30.985945    30.985945    30.985945    29750.497 
 3710000    305.88978   -2371.3747   -23022.887   -24944.048    1921.1612    1.1610133    30.985945    30.985945    30.985945    29750.497 
 3711000     291.6059   -882.81835   -23226.666   -25058.116    1831.4503    1.1610133    30.985945    30.985945    30.985945    29750.497 
 3712000    297.08261   -1155.3037   -23125.882   -24991.729    1865.8471    1.1610133    30.985945    30.985945    30.985945    29750.497 
 3713000    288.61104   -2017.1131    -23154.15   -24966.791    1812.6409    1.1610133    30.985945    30.985945    30.985945    29750.497 
 3714000    297.57258   -1009.0086   -23024.314   -24893.238    1868.9244    1.1610133    30.985945    30.985945    30.985945    29750.497 
 3715000    297.96983    -1745.552   -23103.736   -24975.155    1871.4194    1.1610133    30.985945    30.985945    30.985945    29750.497 
 3716000    285.88127    -878.0326   -23173.369   -24968.865    1795.4964    1.1610133    30.985945    30.985945    30.985945    29750.497 
 3717000    314.65523   -1558.2867   -22950.455   -24926.668    1976.2132    1.1610133    30.985945    30.985945    30.985945    29750.497 
 3718000    298.18744   -1907.0604   -23087.804    -24960.59    1872.7861    1.1610133    30.985945    30.985945    30.985945    29750.497 
 3719000    301.44606    -2926.905   -23173.366   -25066.618    1893.2521    1.1610133    30.985945    30.985945    30.985945    29750.497 
 3720000    304.56198   -1820.0736   -23085.994   -24998.816    1912.8218    1.1610133    30.985945    30.985945    30.985945    29750.497 
 3721000     288.6428   -1941.2591   -23134.855   -24947.695    1812.8404    1.1610133    30.985945    30.985945    30.985945    29750.497 
 3722000     300.7076   -2093.6015     -23056.5   -24945.114    1888.6142    1.1610133    30.985945    30.985945    30.985945    29750.497 
 3723000    293.64906   -2709.2154   -23042.927   -24887.209    1844.2825    1.1610133    30.985945    30.985945    30.985945    29750.497 
 3724000    296.86019   -1785.6707   -23087.865   -24952.315    1864.4503    1.1610133    30.985945    30.985945    30.985945    29750.497 
 3725000    295.89154    -2254.869   -23107.108   -24965.475    1858.3666    1.1610133    30.985945    30.985945    30.985945    29750.497 
 3726000    301.37345   -1404.8367   -22998.046   -24890.842    1892.7961    1.1610133    30.985945    30.985945    30.985945    29750.497 
 3727000    297.47337    -950.5056   -23098.678    -24966.98    1868.3014    1.1610133    30.985945    30.985945    30.985945    29750.497 
 3728000    290.91771   -1153.3235   -23066.336   -24893.464    1827.1281    1.1610133    30.985945    30.985945    30.985945    29750.497 
 3729000    300.57519    156.60029   -23144.826   -25032.608    1887.7825    1.1610133    30.985945    30.985945    30.985945    29750.497 
 3730000    295.91721   -1568.4728    -23125.01   -24983.538    1858.5278    1.1610133    30.985945    30.985945    30.985945    29750.497 
 3731000    294.74486   -428.69487   -23128.134   -24979.299    1851.1648    1.1610133    30.985945    30.985945    30.985945    29750.497 
 3732000     298.5293    -929.1973   -23144.422   -25019.356    1874.9332    1.1610133    30.985945    30.985945    30.985945    29750.497 
 3733000    297.96332   -1401.0472   -23049.168   -24920.547    1871.3785    1.1610133    30.985945    30.985945    30.985945    29750.497 
 3734000    302.18408   -2924.8104   -23088.272   -24986.159    1897.8873    1.1610133    30.985945    30.985945    30.985945    29750.497 
 3735000    304.98127   -1103.5189   -23005.829   -24921.284    1915.4552    1.1610133    30.985945    30.985945    30.985945    29750.497 
 3736000    294.86161   -2313.6803   -23152.958   -25004.856     1851.898    1.1610133    30.985945    30.985945    30.985945    29750.497 
 3737000    291.06678   -614.16001   -23155.091   -24983.156    1828.0644    1.1610133    30.985945    30.985945    30.985945    29750.497 
 3738000     296.6208   -900.32956   -23130.048   -24992.995    1862.9467    1.1610133    30.985945    30.985945    30.985945    29750.497 
 3739000    297.93671   -1890.2269    -23132.42   -25003.631    1871.2114    1.1610133    30.985945    30.985945    30.985945    29750.497 
 3740000    308.40005   -2134.9132   -23091.008   -25027.935    1936.9271    1.1610133    30.985945    30.985945    30.985945    29750.497 
 3741000    303.96817   -1730.2476   -23052.152   -24961.244    1909.0924    1.1610133    30.985945    30.985945    30.985945    29750.497 
 3742000    300.83948    -1867.549   -23082.391   -24971.833    1889.4424    1.1610133    30.985945    30.985945    30.985945    29750.497 
 3743000    305.54093   -2344.0824   -23006.292   -24925.262    1918.9702    1.1610133    30.985945    30.985945    30.985945    29750.497 
 3744000     298.7024   -1699.4697   -23058.182   -24934.203    1876.0203    1.1610133    30.985945    30.985945    30.985945    29750.497 
 3745000    294.84352   -1709.1864   -23080.134   -24931.919    1851.7844    1.1610133    30.985945    30.985945    30.985945    29750.497 
 3746000    301.17908   -1706.0263   -23173.503   -25065.078    1891.5753    1.1610133    30.985945    30.985945    30.985945    29750.497 
 3747000    300.23781   -2268.3052    -23036.42   -24922.084    1885.6636    1.1610133    30.985945    30.985945    30.985945    29750.497 
 3748000    297.47885   -643.15498   -23170.637   -25038.973    1868.3358    1.1610133    30.985945    30.985945    30.985945    29750.497 
 3749000    302.64439   -2328.6487   -23065.339   -24966.118    1900.7783    1.1610133    30.985945    30.985945    30.985945    29750.497 
 3750000    293.00162   -1122.3336   -23186.296   -25026.512    1840.2162    1.1610133    30.985945    30.985945    30.985945    29750.497 
 3751000    301.64342   -987.38266   -23129.204   -25023.695    1894.4916    1.1610133    30.985945    30.985945    30.985945    29750.497 
 3752000    306.25315   -1580.2962   -22937.104   -24860.548    1923.4434    1.1610133    30.985945    30.985945    30.985945    29750.497 
 3753000    292.15177   -1866.7281   -23112.785   -24947.664    1834.8787    1.1610133    30.985945    30.985945    30.985945    29750.497 
 3754000    296.33282   -2074.0144   -23194.316   -25055.454     1861.138    1.1610133    30.985945    30.985945    30.985945    29750.497 
 3755000    304.58541   -1935.9503   -23151.121    -25064.09     1912.969    1.1610133    30.985945    30.985945    30.985945    29750.497 
 3756000    298.94143   -2345.2198   -23029.343   -24906.865    1877.5216    1.1610133    30.985945    30.985945    30.985945    29750.497 
 3757000    298.80154   -2311.4626   -23048.961   -24925.604     1876.643    1.1610133    30.985945    30.985945    30.985945    29750.497 
 3758000    292.14612    -1438.974   -23039.287   -24874.131    1834.8432    1.1610133    30.985945    30.985945    30.985945    29750.497 
 3759000    299.41263    -1421.504   -23086.411   -24966.892     1880.481    1.1610133    30.985945    30.985945    30.985945    29750.497 
 3760000    302.31231   -1674.6852   -22960.348   -24859.041    1898.6926    1.1610133    30.985945    30.985945    30.985945    29750.497 
 3761000     299.5508   -1235.5321   -23077.566   -24958.915    1881.3488    1.1610133    30.985945    30.985945    30.985945    29750.497 
 3762000    302.12985    -1108.724   -23078.133    -24975.68    1897.5467    1.1610133    30.985945    30.985945    30.985945    29750.497 
 3763000    297.06244    -1972.818   -23087.245   -24952.966    1865.7205    1.1610133    30.985945    30.985945    30.985945    29750.497 
 3764000     297.5022   -791.89594   -23056.672   -24925.154    1868.4824    1.1610133    30.985945    30.985945    30.985945    29750.497 
 3765000    302.82998   -2327.7026   -23012.899   -24914.843    1901.9439    1.1610133    30.985945    30.985945    30.985945    29750.497 
 3766000     299.1416   -1327.7681   -23002.914   -24881.693    1878.7788    1.1610133    30.985945    30.985945    30.985945    29750.497 
 3767000    298.78827   -1784.3856   -23036.335   -24912.895    1876.5597    1.1610133    30.985945    30.985945    30.985945    29750.497 
 3768000    301.26944   -943.45028   -23043.757     -24935.9    1892.1429    1.1610133    30.985945    30.985945    30.985945    29750.497 
 3769000     299.1207   -1518.9444   -23078.627   -24957.274    1878.6476    1.1610133    30.985945    30.985945    30.985945    29750.497 
 3770000    307.22576    -1927.931   -22990.518    -24920.07    1929.5519    1.1610133    30.985945    30.985945    30.985945    29750.497 
 3771000    296.73906   -854.38874   -23106.982   -24970.671    1863.6895    1.1610133    30.985945    30.985945    30.985945    29750.497 
 3772000    302.50332   -1729.1636   -23141.114   -25041.006    1899.8923    1.1610133    30.985945    30.985945    30.985945    29750.497 
 3773000    292.97107   -1844.5349   -23091.568   -24931.593    1840.0244    1.1610133    30.985945    30.985945    30.985945    29750.497 
 3774000    305.80785   -1873.7014   -23100.464    -25021.11    1920.6466    1.1610133    30.985945    30.985945    30.985945    29750.497 
 3775000    300.73653   -1236.0352   -23180.633   -25069.429    1888.7958    1.1610133    30.985945    30.985945    30.985945    29750.497 
 3776000    293.92315   -1424.9957   -22999.606   -24845.609     1846.004    1.1610133    30.985945    30.985945    30.985945    29750.497 
 3777000    291.27796     -2272.28   -23083.153   -24912.544    1829.3907    1.1610133    30.985945    30.985945    30.985945    29750.497 
 3778000    289.83654   -2060.5108   -23174.004   -24994.341    1820.3378    1.1610133    30.985945    30.985945    30.985945    29750.497 
 3779000    305.56746   -1166.6124   -23001.044   -24920.181    1919.1368    1.1610133    30.985945    30.985945    30.985945    29750.497 
 3780000    299.66522   -1181.8259    -22939.48   -24821.547    1882.0674    1.1610133    30.985945    30.985945    30.985945    29750.497 
 3781000    305.09532   -1667.2686   -22992.701   -24908.872    1916.1715    1.1610133    30.985945    30.985945    30.985945    29750.497 
 3782000     296.3309   -1457.4072   -23091.707   -24952.833     1861.126    1.1610133    30.985945    30.985945    30.985945    29750.497 
 3783000    290.74323   -530.81269   -23124.418    -24950.45    1826.0323    1.1610133    30.985945    30.985945    30.985945    29750.497 
 3784000    299.87305   -1905.3884   -23038.725   -24922.098    1883.3727    1.1610133    30.985945    30.985945    30.985945    29750.497 
 3785000    299.44234   -1864.2197   -23044.609   -24925.277    1880.6676    1.1610133    30.985945    30.985945    30.985945    29750.497 
 3786000    297.12294   -1345.8505   -23068.907   -24935.008    1866.1005    1.1610133    30.985945    30.985945    30.985945    29750.497 
 3787000     293.8864   -1232.8914   -23148.201   -24993.974    1845.7732    1.1610133    30.985945    30.985945    30.985945    29750.497 
 3788000      303.683   -1297.3793   -23111.744   -25019.045    1907.3014    1.1610133    30.985945    30.985945    30.985945    29750.497 
 3789000    303.50808   -1657.8779   -23041.122   -24947.325    1906.2028    1.1610133    30.985945    30.985945    30.985945    29750.497 
 3790000    298.12601   -2013.0884   -23053.113   -24925.513    1872.4003    1.1610133    30.985945    30.985945    30.985945    29750.497 
 3791000    308.95405   -1154.1286   -22993.743    -24934.15    1940.4065    1.1610133    30.985945    30.985945    30.985945    29750.497 
 3792000    295.08002   -1481.8705   -23012.571   -24865.841    1853.2698    1.1610133    30.985945    30.985945    30.985945    29750.497 
 3793000    300.88096   -1936.6432   -23036.862   -24926.565     1889.703    1.1610133    30.985945    30.985945    30.985945    29750.497 
 3794000    299.14979   -1111.7786   -23095.553   -24974.383    1878.8303    1.1610133    30.985945    30.985945    30.985945    29750.497 
 3795000    304.17904   -1539.4045   -23058.911   -24969.327    1910.4168    1.1610133    30.985945    30.985945    30.985945    29750.497 
 3796000    297.13778   -1966.4645    -23100.72   -24966.913    1866.1937    1.1610133    30.985945    30.985945    30.985945    29750.497 
 3797000    299.02703   -1622.5377   -23066.204   -24944.263    1878.0592    1.1610133    30.985945    30.985945    30.985945    29750.497 
 3798000    301.09436   -1427.2295   -22992.833   -24883.876    1891.0432    1.1610133    30.985945    30.985945    30.985945    29750.497 
 3799000    293.23668   -1875.3395   -23107.528   -24949.221    1841.6926    1.1610133    30.985945    30.985945    30.985945    29750.497 
 3800000    304.57315    -1310.976    -23029.29   -24942.182     1912.892    1.1610133    30.985945    30.985945    30.985945    29750.497 
 3801000    287.25064   -693.30437   -23160.679   -24964.775    1804.0968    1.1610133    30.985945    30.985945    30.985945    29750.497 
 3802000    296.65314   -1239.0613   -22967.958   -24831.108    1863.1498    1.1610133    30.985945    30.985945    30.985945    29750.497 
 3803000    293.43724   -1442.1355   -23136.022   -24978.974    1842.9522    1.1610133    30.985945    30.985945    30.985945    29750.497 
 3804000     284.9739   -2273.9036   -23192.834   -24982.632    1789.7976    1.1610133    30.985945    30.985945    30.985945    29750.497 
 3805000    294.47472   -2158.1742   -23059.722    -24909.19    1849.4681    1.1610133    30.985945    30.985945    30.985945    29750.497 
 3806000    292.48368    -1254.523   -23094.241   -24931.205    1836.9633    1.1610133    30.985945    30.985945    30.985945    29750.497 
 3807000    303.08963   -1617.2257   -23109.906   -25013.481    1903.5747    1.1610133    30.985945    30.985945    30.985945    29750.497 
 3808000    310.30589   -1645.8042   -23046.763    -24995.66    1948.8969    1.1610133    30.985945    30.985945    30.985945    29750.497 
 3809000    296.04325   -1396.5693   -23068.017   -24927.336    1859.3194    1.1610133    30.985945    30.985945    30.985945    29750.497 
 3810000    296.05942   -2279.4636   -23104.227   -24963.648     1859.421    1.1610133    30.985945    30.985945    30.985945    29750.497 
 3811000    290.02579   -2198.3663   -23217.012   -25038.538    1821.5263    1.1610133    30.985945    30.985945    30.985945    29750.497 
 3812000    297.19529   -1649.2722   -23100.802   -24967.357    1866.5548    1.1610133    30.985945    30.985945    30.985945    29750.497 
 3813000    298.85198    -1774.777   -23116.909   -24993.869    1876.9598    1.1610133    30.985945    30.985945    30.985945    29750.497 
 3814000    294.14379   -1936.7362   -23044.783   -24892.173    1847.3897    1.1610133    30.985945    30.985945    30.985945    29750.497 
 3815000    304.40842   -1748.7111   -23017.158   -24929.016    1911.8574    1.1610133    30.985945    30.985945    30.985945    29750.497 
 3816000    308.15151   -2435.2727   -23014.984    -24950.35    1935.3661    1.1610133    30.985945    30.985945    30.985945    29750.497 
 3817000    290.55919   -2108.8625   -23171.048   -24995.925    1824.8764    1.1610133    30.985945    30.985945    30.985945    29750.497 
 3818000    305.51137   -1494.2504   -23071.656   -24990.441    1918.7846    1.1610133    30.985945    30.985945    30.985945    29750.497 
 3819000    298.25315   -1279.1521   -23090.832   -24964.031    1873.1989    1.1610133    30.985945    30.985945    30.985945    29750.497 
 3820000    299.11368   -1534.6432   -23074.735   -24953.339    1878.6034    1.1610133    30.985945    30.985945    30.985945    29750.497 
 3821000    302.10961   -1692.7324   -23011.744   -24909.164    1897.4196    1.1610133    30.985945    30.985945    30.985945    29750.497 
 3822000     292.3613     -2429.62   -23060.311   -24896.505    1836.1947    1.1610133    30.985945    30.985945    30.985945    29750.497 
 3823000    297.28618    -884.9636   -23035.215    -24902.34    1867.1257    1.1610133    30.985945    30.985945    30.985945    29750.497 
 3824000    302.92044   -1024.1123   -23076.725   -24979.237     1902.512    1.1610133    30.985945    30.985945    30.985945    29750.497 
 3825000    300.16093   -780.29161    -23033.76   -24918.941    1885.1808    1.1610133    30.985945    30.985945    30.985945    29750.497 
 3826000    298.26353   -1076.9657   -23094.213   -24967.477     1873.264    1.1610133    30.985945    30.985945    30.985945    29750.497 
 3827000    308.40961    -1657.416     -23037.7   -24974.687    1936.9872    1.1610133    30.985945    30.985945    30.985945    29750.497 
 3828000    303.18701   -1448.5126    -22983.86   -24888.046    1904.1863    1.1610133    30.985945    30.985945    30.985945    29750.497 
 3829000     303.0963   -1593.4541   -23040.175   -24943.792    1903.6166    1.1610133    30.985945    30.985945    30.985945    29750.497 
 3830000    300.98343   -343.70293   -23080.527   -24970.873    1890.3465    1.1610133    30.985945    30.985945    30.985945    29750.497 
 3831000    298.82104   -798.96364    -22999.97   -24876.736    1876.7655    1.1610133    30.985945    30.985945    30.985945    29750.497 
 3832000     303.4861    -939.6486   -22949.276    -24855.34    1906.0647    1.1610133    30.985945    30.985945    30.985945    29750.497 
 3833000    299.33438   -1695.4559   -22953.287   -24833.276    1879.9896    1.1610133    30.985945    30.985945    30.985945    29750.497 
 3834000     297.9894   -1722.5514   -23032.334   -24903.877    1871.5423    1.1610133    30.985945    30.985945    30.985945    29750.497 
 3835000    297.79238   -1349.9582   -23074.857   -24945.162    1870.3049    1.1610133    30.985945    30.985945    30.985945    29750.497 
 3836000    300.20435   -1219.5669   -23006.926   -24892.379    1885.4535    1.1610133    30.985945    30.985945    30.985945    29750.497 
 3837000    296.31407   -2658.0425   -23089.584   -24950.605    1861.0203    1.1610133    30.985945    30.985945    30.985945    29750.497 
 3838000    295.12692   -910.61727   -23140.597   -24994.161    1853.5643    1.1610133    30.985945    30.985945    30.985945    29750.497 
 3839000    301.61557   -1352.4695   -23039.755   -24934.071    1894.3168    1.1610133    30.985945    30.985945    30.985945    29750.497 
 3840000    304.53658   -1261.2542    -23066.05   -24978.712    1912.6623    1.1610133    30.985945    30.985945    30.985945    29750.497 
 3841000    300.15941   -758.42985   -23046.207   -24931.379    1885.1712    1.1610133    30.985945    30.985945    30.985945    29750.497 
 3842000     292.3293   -1720.4494   -23039.689   -24875.682    1835.9937    1.1610133    30.985945    30.985945    30.985945    29750.497 
 3843000    304.63503   -2043.6609   -23020.864   -24934.145    1913.2807    1.1610133    30.985945    30.985945    30.985945    29750.497 
 3844000    299.92535   -1014.0514   -23074.294   -24957.995    1883.7012    1.1610133    30.985945    30.985945    30.985945    29750.497 
 3845000    299.26508   -2260.3208   -23160.025   -25039.579    1879.5543    1.1610133    30.985945    30.985945    30.985945    29750.497 
 3846000    294.07962    -1757.904   -23119.924   -24966.911    1846.9867    1.1610133    30.985945    30.985945    30.985945    29750.497 
 3847000    293.80861   -1895.2228   -23122.209   -24967.493    1845.2846    1.1610133    30.985945    30.985945    30.985945    29750.497 
 3848000    294.21109   -193.03794   -23076.323   -24924.135    1847.8124    1.1610133    30.985945    30.985945    30.985945    29750.497 
 3849000    302.63379   -653.34909   -23010.525   -24911.237    1900.7117    1.1610133    30.985945    30.985945    30.985945    29750.497 
 3850000    298.89866   -1535.6139   -23019.482   -24896.735     1877.253    1.1610133    30.985945    30.985945    30.985945    29750.497 
 3851000    302.30052   -1128.4629   -23053.889   -24952.507    1898.6186    1.1610133    30.985945    30.985945    30.985945    29750.497 
 3852000    293.45866   -543.81654   -23105.273   -24948.359    1843.0867    1.1610133    30.985945    30.985945    30.985945    29750.497 
 3853000    292.65543    -540.2367   -23062.165   -24900.207     1838.042    1.1610133    30.985945    30.985945    30.985945    29750.497 
 3854000    290.33176   -946.46072   -23050.823   -24874.271     1823.448    1.1610133    30.985945    30.985945    30.985945    29750.497 
 3855000    286.61264   -1215.1256   -23088.952   -24889.042    1800.0898    1.1610133    30.985945    30.985945    30.985945    29750.497 
 3856000    294.49531   -2491.4056   -23092.141   -24941.738    1849.5975    1.1610133    30.985945    30.985945    30.985945    29750.497 
 3857000    301.48285   -1355.8906   -22956.337    -24849.82    1893.4832    1.1610133    30.985945    30.985945    30.985945    29750.497 
 3858000    296.12373   -597.44277   -23033.371   -24893.195    1859.8249    1.1610133    30.985945    30.985945    30.985945    29750.497 
 3859000    299.91831   -1250.7204   -23058.365   -24942.022     1883.657    1.1610133    30.985945    30.985945    30.985945    29750.497 
 3860000     291.9349   -1723.8652   -23152.673   -24986.189    1833.5166    1.1610133    30.985945    30.985945    30.985945    29750.497 
 3861000    299.38571   -2191.8844   -23163.521   -25043.833    1880.3119    1.1610133    30.985945    30.985945    30.985945    29750.497 
 3862000    300.26801   -1139.5793   -23002.911   -24888.765    1885.8533    1.1610133    30.985945    30.985945    30.985945    29750.497 
 3863000    296.06639   -2348.4028   -23014.436   -24873.901    1859.4647    1.1610133    30.985945    30.985945    30.985945    29750.497 
 3864000    300.64511   -2009.0273   -23064.962   -24953.183    1888.2217    1.1610133    30.985945    30.985945    30.985945    29750.497 
 3865000    301.89783   -1517.4954   -23079.723   -24975.813    1896.0895    1.1610133    30.985945    30.985945    30.985945    29750.497 
 3866000    296.51507   -2241.0823   -23094.178   -24956.461    1862.2827    1.1610133    30.985945    30.985945    30.985945    29750.497 
 3867000    302.16103   -2529.7571   -22980.672   -24878.414    1897.7425    1.1610133    30.985945    30.985945    30.985945    29750.497 
 3868000    294.47032   -1706.8953   -23021.124   -24870.564    1849.4405    1.1610133    30.985945    30.985945    30.985945    29750.497 
 3869000    303.77333   -1618.5062    -23002.29   -24910.159    1907.8687    1.1610133    30.985945    30.985945    30.985945    29750.497 
 3870000    299.65397   -1205.2909    -23059.15   -24941.147    1881.9968    1.1610133    30.985945    30.985945    30.985945    29750.497 
 3871000    293.66641   -1036.6994   -23028.798    -24873.19    1844.3915    1.1610133    30.985945    30.985945    30.985945    29750.497 
 3872000    294.34979    -848.4812   -23095.474   -24944.157    1848.6835    1.1610133    30.985945    30.985945    30.985945    29750.497 
 3873000    295.33129   -1888.9125    -23045.89   -24900.738    1854.8479    1.1610133    30.985945    30.985945    30.985945    29750.497 
 3874000    306.94639   -1864.8797   -23019.922   -24947.719    1927.7973    1.1610133    30.985945    30.985945    30.985945    29750.497 
 3875000    297.21957   -1303.6956   -23110.416   -24977.123    1866.7074    1.1610133    30.985945    30.985945    30.985945    29750.497 
 3876000    296.60544   -1718.5156   -23056.758   -24919.608    1862.8503    1.1610133    30.985945    30.985945    30.985945    29750.497 
 3877000    295.70882   -976.34824   -23056.303   -24913.522     1857.219    1.1610133    30.985945    30.985945    30.985945    29750.497 
 3878000    294.62636   -1646.9506   -23058.923   -24909.343    1850.4205    1.1610133    30.985945    30.985945    30.985945    29750.497 
 3879000    296.18143   -2410.7217   -23040.941   -24901.128    1860.1872    1.1610133    30.985945    30.985945    30.985945    29750.497 
 3880000    293.44088    -2331.179   -23040.896   -24883.871    1842.9751    1.1610133    30.985945    30.985945    30.985945    29750.497 
 3881000    297.58876   -1710.9334   -23000.351   -24869.377    1869.0261    1.1610133    30.985945    30.985945    30.985945    29750.497 
 3882000    288.61688   -1513.1183   -23038.676   -24851.354    1812.6776    1.1610133    30.985945    30.985945    30.985945    29750.497 
 3883000    292.65968    -964.2737     -23021.3   -24859.368    1838.0686    1.1610133    30.985945    30.985945    30.985945    29750.497 
 3884000    299.84687   -435.86999   -23028.165   -24911.373    1883.2083    1.1610133    30.985945    30.985945    30.985945    29750.497 
 3885000    303.74588   -1545.6846   -22945.136   -24852.832    1907.6963    1.1610133    30.985945    30.985945    30.985945    29750.497 
 3886000    297.83185   -1087.7616   -23110.584   -24981.137    1870.5528    1.1610133    30.985945    30.985945    30.985945    29750.497 
 3887000    294.28799   -1658.3404   -23092.341   -24940.637    1848.2954    1.1610133    30.985945    30.985945    30.985945    29750.497 
 3888000    305.17938   -1724.9046    -22939.08    -24855.78    1916.6995    1.1610133    30.985945    30.985945    30.985945    29750.497 
 3889000    300.02668   -1021.8848    -23110.17   -24994.508    1884.3376    1.1610133    30.985945    30.985945    30.985945    29750.497 
 3890000    303.23624   -1209.4206   -23018.595    -24923.09    1904.4955    1.1610133    30.985945    30.985945    30.985945    29750.497 
 3891000     297.5016   -1546.0481   -23110.499   -24978.978    1868.4787    1.1610133    30.985945    30.985945    30.985945    29750.497 
 3892000    297.05936   -1055.3636   -23011.988   -24877.689    1865.7012    1.1610133    30.985945    30.985945    30.985945    29750.497 
 3893000    296.66967   -858.65136   -23007.703   -24870.957    1863.2537    1.1610133    30.985945    30.985945    30.985945    29750.497 
 3894000    293.64928   -1664.1686   -23014.809   -24859.093    1844.2839    1.1610133    30.985945    30.985945    30.985945    29750.497 
 3895000    300.28376   -2073.4944   -23043.113   -24929.065    1885.9522    1.1610133    30.985945    30.985945    30.985945    29750.497 
 3896000    295.91527   -2659.5446   -23130.308   -24988.823    1858.5156    1.1610133    30.985945    30.985945    30.985945    29750.497 
 3897000    303.15067   -1029.5824    -23078.21   -24982.168     1903.958    1.1610133    30.985945    30.985945    30.985945    29750.497 
 3898000    295.93278   -1568.1163   -23083.817   -24942.442    1858.6256    1.1610133    30.985945    30.985945    30.985945    29750.497 
 3899000     293.1717   -1508.9297   -23109.371   -24950.655    1841.2844    1.1610133    30.985945    30.985945    30.985945    29750.497 
 3900000      301.007   -2005.4889   -23094.802   -24985.296    1890.4946    1.1610133    30.985945    30.985945    30.985945    29750.497 
 3901000    298.16157   -1776.7725    -23018.13   -24890.754    1872.6237    1.1610133    30.985945    30.985945    30.985945    29750.497 
 3902000    293.45117   -683.20578   -23087.288   -24930.328    1843.0397    1.1610133    30.985945    30.985945    30.985945    29750.497 
 3903000    293.08971   -1047.8295   -23103.252   -24944.021    1840.7695    1.1610133    30.985945    30.985945    30.985945    29750.497 
 3904000    299.79313    -1883.754   -23026.958   -24909.829    1882.8708    1.1610133    30.985945    30.985945    30.985945    29750.497 
 3905000    300.55216   -2332.0104   -23004.176   -24891.814    1887.6379    1.1610133    30.985945    30.985945    30.985945    29750.497 
 3906000    293.46386   -1510.6914   -23137.018   -24980.137    1843.1194    1.1610133    30.985945    30.985945    30.985945    29750.497 
 3907000    298.77266   -509.95326   -23074.852   -24951.313    1876.4617    1.1610133    30.985945    30.985945    30.985945    29750.497 
 3908000    305.18703   -1779.5646   -23082.961   -24999.709    1916.7475    1.1610133    30.985945    30.985945    30.985945    29750.497 
 3909000    304.05226   -1880.4659   -23074.412   -24984.033    1909.6205    1.1610133    30.985945    30.985945    30.985945    29750.497 
 3910000    292.63745   -2001.0585   -23080.923   -24918.852     1837.929    1.1610133    30.985945    30.985945    30.985945    29750.497 
 3911000    294.55719   -1810.8915   -23038.663   -24888.649    1849.9861    1.1610133    30.985945    30.985945    30.985945    29750.497 
 3912000    300.59092   -1659.0466   -22969.195   -24857.076    1887.8813    1.1610133    30.985945    30.985945    30.985945    29750.497 
 3913000    303.72616   -1287.9722   -23073.349   -24980.922    1907.5724    1.1610133    30.985945    30.985945    30.985945    29750.497 
 3914000    300.52064   -1703.0101   -23062.375   -24949.815      1887.44    1.1610133    30.985945    30.985945    30.985945    29750.497 
 3915000    293.58296   -924.14818   -23056.174   -24900.041    1843.8674    1.1610133    30.985945    30.985945    30.985945    29750.497 
 3916000    298.94449   -1041.4003   -23053.971   -24931.512    1877.5408    1.1610133    30.985945    30.985945    30.985945    29750.497 
 3917000     291.2803   -845.91839   -23114.816   -24944.222    1829.4053    1.1610133    30.985945    30.985945    30.985945    29750.497 
 3918000    299.60172   -2042.9772   -23036.543   -24918.212    1881.6686    1.1610133    30.985945    30.985945    30.985945    29750.497 
 3919000    301.38727   -1647.2693   -23030.831   -24923.714    1892.8828    1.1610133    30.985945    30.985945    30.985945    29750.497 
 3920000    296.09959   -691.87769   -23027.507    -24887.18    1859.6733    1.1610133    30.985945    30.985945    30.985945    29750.497 
 3921000    300.34444   -428.18678   -23066.848   -24953.181    1886.3333    1.1610133    30.985945    30.985945    30.985945    29750.497 
 3922000    294.26963   -1184.4076   -23154.344   -25002.524    1848.1801    1.1610133    30.985945    30.985945    30.985945    29750.497 
 3923000      294.865   -1558.4539    -23212.18     -25064.1    1851.9193    1.1610133    30.985945    30.985945    30.985945    29750.497 
 3924000    303.21036   -1990.2517    -23129.32   -25033.653    1904.3329    1.1610133    30.985945    30.985945    30.985945    29750.497 
 3925000    298.45374   -2206.3583   -23104.759   -24979.217    1874.4587    1.1610133    30.985945    30.985945    30.985945    29750.497 
 3926000      295.767   -2322.7929   -23053.603   -24911.187    1857.5844    1.1610133    30.985945    30.985945    30.985945    29750.497 
 3927000    303.42959   -1689.6754   -23119.973   -25025.682    1905.7098    1.1610133    30.985945    30.985945    30.985945    29750.497 
 3928000    300.40656   -1911.9377   -23130.395   -25017.118    1886.7235    1.1610133    30.985945    30.985945    30.985945    29750.497 
 3929000    288.37045   -2090.2818   -23131.548   -24942.678    1811.1299    1.1610133    30.985945    30.985945    30.985945    29750.497 
 3930000    301.63012   -1228.4568   -23027.851   -24922.259    1894.4081    1.1610133    30.985945    30.985945    30.985945    29750.497 
 3931000    299.19075   -1718.7876   -23160.307   -25039.395    1879.0875    1.1610133    30.985945    30.985945    30.985945    29750.497 
 3932000    298.83232   -2135.5712   -23128.294   -25005.131    1876.8364    1.1610133    30.985945    30.985945    30.985945    29750.497 
 3933000    287.05412   -1448.5692   -23136.939   -24939.802    1802.8626    1.1610133    30.985945    30.985945    30.985945    29750.497 
 3934000    296.58597    -1675.797   -23119.808   -24982.536     1862.728    1.1610133    30.985945    30.985945    30.985945    29750.497 
 3935000    295.29543   -1643.3284    -23132.12   -24986.743    1854.6227    1.1610133    30.985945    30.985945    30.985945    29750.497 
 3936000    302.14524   -1397.0007   -23061.462   -24959.105    1897.6433    1.1610133    30.985945    30.985945    30.985945    29750.497 
 3937000    295.13131    -960.8772   -23185.456   -25039.047    1853.5919    1.1610133    30.985945    30.985945    30.985945    29750.497 
 3938000    304.76712   -306.83384   -23022.035   -24936.145    1914.1103    1.1610133    30.985945    30.985945    30.985945    29750.497 
 3939000    295.30888   -1530.4991    -23049.12   -24903.827    1854.7071    1.1610133    30.985945    30.985945    30.985945    29750.497 
 3940000    295.43649   -1311.5843   -23085.947   -24941.456    1855.5086    1.1610133    30.985945    30.985945    30.985945    29750.497 
 3941000    306.59773   -2026.9504    -23019.33   -24944.938    1925.6075    1.1610133    30.985945    30.985945    30.985945    29750.497 
 3942000    305.14787    66.207813   -23041.794   -24958.296    1916.5016    1.1610133    30.985945    30.985945    30.985945    29750.497 
 3943000    300.84775   -949.31813   -23061.128   -24950.622    1889.4944    1.1610133    30.985945    30.985945    30.985945    29750.497 
 3944000    297.38927   -1126.4492   -23106.808   -24974.582    1867.7732    1.1610133    30.985945    30.985945    30.985945    29750.497 
 3945000     293.7277   -2000.6556   -23054.135   -24898.911    1844.7765    1.1610133    30.985945    30.985945    30.985945    29750.497 
 3946000    301.76793   -2091.8981   -23100.303   -24995.576    1895.2736    1.1610133    30.985945    30.985945    30.985945    29750.497 
 3947000    292.54648   -2567.1578   -23075.893   -24913.251    1837.3577    1.1610133    30.985945    30.985945    30.985945    29750.497 
 3948000    295.69189   -1799.7134   -23085.565   -24942.678    1857.1126    1.1610133    30.985945    30.985945    30.985945    29750.497 
 3949000    300.71957   -2072.0499   -23033.019   -24921.709    1888.6893    1.1610133    30.985945    30.985945    30.985945    29750.497 
 3950000    298.41238   -992.70487   -23107.068   -24981.266    1874.1989    1.1610133    30.985945    30.985945    30.985945    29750.497 
 3951000    294.55871   -820.99071   -23126.186   -24976.182    1849.9957    1.1610133    30.985945    30.985945    30.985945    29750.497 
 3952000    300.84085   -288.73321   -23087.382   -24976.833    1889.4511    1.1610133    30.985945    30.985945    30.985945    29750.497 
 3953000    297.70847   -1808.0838   -23077.768   -24947.546    1869.7779    1.1610133    30.985945    30.985945    30.985945    29750.497 
 3954000    298.40754   -1842.3978   -23112.254   -24986.423    1874.1685    1.1610133    30.985945    30.985945    30.985945    29750.497 
 3955000    307.12329   -1134.1327   -23053.302   -24982.211    1928.9084    1.1610133    30.985945    30.985945    30.985945    29750.497 
 3956000    296.74403    -638.6591   -23130.487   -24994.208    1863.7207    1.1610133    30.985945    30.985945    30.985945    29750.497 
 3957000     292.7576   -1771.8177   -23175.529   -25014.212    1838.6836    1.1610133    30.985945    30.985945    30.985945    29750.497 
 3958000    297.98888   -1332.8151   -23126.728   -24998.267    1871.5391    1.1610133    30.985945    30.985945    30.985945    29750.497 
 3959000    297.88195   -1325.0576   -23061.884   -24932.751    1870.8675    1.1610133    30.985945    30.985945    30.985945    29750.497 
 3960000    303.72462   -1163.6264   -22969.793   -24877.356    1907.5628    1.1610133    30.985945    30.985945    30.985945    29750.497 
 3961000    304.72909   -2097.1933   -22983.425   -24897.297    1913.8714    1.1610133    30.985945    30.985945    30.985945    29750.497 
 3962000    303.94088   -1054.0518   -22889.054   -24797.975     1908.921    1.1610133    30.985945    30.985945    30.985945    29750.497 
 3963000    298.44857    -694.5266   -23095.749   -24970.175    1874.4261    1.1610133    30.985945    30.985945    30.985945    29750.497 
 3964000    303.86975   -1390.1815   -22994.329   -24902.803    1908.4743    1.1610133    30.985945    30.985945    30.985945    29750.497 
 3965000    294.42113   -924.90814   -23139.402   -24988.534    1849.1315    1.1610133    30.985945    30.985945    30.985945    29750.497 
 3966000    299.96187   -1077.1086   -22924.272   -24808.202    1883.9305    1.1610133    30.985945    30.985945    30.985945    29750.497 
 3967000    300.25406    -1243.755   -22983.221   -24868.987    1885.7657    1.1610133    30.985945    30.985945    30.985945    29750.497 
 3968000    290.01357   -2738.2908   -23164.947   -24986.397    1821.4496    1.1610133    30.985945    30.985945    30.985945    29750.497 
 3969000    298.90495   -1941.2033    -23167.96   -25045.253    1877.2925    1.1610133    30.985945    30.985945    30.985945    29750.497 
 3970000     292.9193    -1441.831   -23191.832   -25031.532    1839.6992    1.1610133    30.985945    30.985945    30.985945    29750.497 
 3971000    300.93025   -1626.5951   -23158.483   -25048.496    1890.0125    1.1610133    30.985945    30.985945    30.985945    29750.497 
 3972000    296.02314    -1700.065   -23175.835   -25035.028    1859.1931    1.1610133    30.985945    30.985945    30.985945    29750.497 
 3973000    291.54892   -1719.0639   -23103.608     -24934.7    1831.0925    1.1610133    30.985945    30.985945    30.985945    29750.497 
 3974000    295.77697   -1832.9921   -23109.305   -24966.952     1857.647    1.1610133    30.985945    30.985945    30.985945    29750.497 
 3975000    292.51486   -1443.7253   -23181.956   -25019.116    1837.1591    1.1610133    30.985945    30.985945    30.985945    29750.497 
 3976000    299.87081    -1668.411   -23052.582   -24935.941    1883.3587    1.1610133    30.985945    30.985945    30.985945    29750.497 
 3977000    295.88325   -1776.1881   -23160.105    -25018.42    1858.3145    1.1610133    30.985945    30.985945    30.985945    29750.497 
 3978000    302.53614    -1010.536   -23059.304   -24959.402    1900.0984    1.1610133    30.985945    30.985945    30.985945    29750.497 
 3979000    305.54049   -2006.7362   -23082.692    -25001.66    1918.9675    1.1610133    30.985945    30.985945    30.985945    29750.497 
 3980000    309.85902   -1470.7013   -23110.219   -25056.309    1946.0903    1.1610133    30.985945    30.985945    30.985945    29750.497 
 3981000      307.666   -1591.5783   -23211.412   -25143.729    1932.3169    1.1610133    30.985945    30.985945    30.985945    29750.497 
 3982000     299.2465   -2322.0009   -23187.203   -25066.641    1879.4376    1.1610133    30.985945    30.985945    30.985945    29750.497 
 3983000    290.50065   -601.82896   -23146.069   -24970.578    1824.5087    1.1610133    30.985945    30.985945    30.985945    29750.497 
 3984000    295.04248   -1723.1084   -23118.983   -24972.017     1853.034    1.1610133    30.985945    30.985945    30.985945    29750.497 
 3985000    301.38226   -926.62969   -23083.104   -24975.956    1892.8514    1.1610133    30.985945    30.985945    30.985945    29750.497 
 3986000    311.26003   -1579.4911   -23034.546   -24989.435    1954.8894    1.1610133    30.985945    30.985945    30.985945    29750.497 
 3987000    299.86246   -2357.5481   -23118.977   -25002.283    1883.3062    1.1610133    30.985945    30.985945    30.985945    29750.497 
 3988000     294.3656   -1486.6095   -23156.851   -25005.633    1848.7828    1.1610133    30.985945    30.985945    30.985945    29750.497 
 3989000    289.91871    -1634.858   -23100.166    -24921.02    1820.8538    1.1610133    30.985945    30.985945    30.985945    29750.497 
 3990000    303.17732   -1585.9143   -22960.705   -24864.831    1904.1254    1.1610133    30.985945    30.985945    30.985945    29750.497 
 3991000    299.46678   -2456.5335   -23068.402   -24949.223    1880.8211    1.1610133    30.985945    30.985945    30.985945    29750.497 
 3992000    293.60886   -1432.0081   -23143.148   -24987.178      1844.03    1.1610133    30.985945    30.985945    30.985945    29750.497 
 3993000    294.56903   -1413.8465    -23182.43   -25032.491    1850.0605    1.1610133    30.985945    30.985945    30.985945    29750.497 
 3994000    291.79023   -1090.6178   -23063.586   -24896.194     1832.608    1.1610133    30.985945    30.985945    30.985945    29750.497 
 3995000    297.51422   -1452.9856   -23032.545   -24901.103    1868.5579    1.1610133    30.985945    30.985945    30.985945    29750.497 
 3996000    290.87762   -2844.3654   -23148.214    -24975.09    1826.8763    1.1610133    30.985945    30.985945    30.985945    29750.497 
 3997000    295.64526   -1343.2527    -23104.52   -24961.339    1856.8198    1.1610133    30.985945    30.985945    30.985945    29750.497 
 3998000    300.54945   -976.41533   -23096.381   -24984.002    1887.6209    1.1610133    30.985945    30.985945    30.985945    29750.497 
 3999000    309.96643   -883.91291   -22965.644   -24912.409    1946.7649    1.1610133    30.985945    30.985945    30.985945    29750.497 
 4000000    297.22917   -1765.1751   -23051.443   -24918.211    1866.7676    1.1610133    30.985945    30.985945    30.985945    29750.497 
 4001000    308.95548   -851.86986    -23027.87   -24968.285    1940.4155    1.1610133    30.985945    30.985945    30.985945    29750.497 
 4002000    300.06562   -1544.4137   -23050.917     -24935.5    1884.5822    1.1610133    30.985945    30.985945    30.985945    29750.497 
 4003000    299.75371   -2447.8492     -23054.7   -24937.324    1882.6232    1.1610133    30.985945    30.985945    30.985945    29750.497 
 4004000    300.09811   -1246.0286   -22901.422   -24786.208    1884.7862    1.1610133    30.985945    30.985945    30.985945    29750.497 
 4005000     299.5274   -2146.4006   -23067.159   -24948.361    1881.2018    1.1610133    30.985945    30.985945    30.985945    29750.497 
 4006000    290.89999   -1350.7694   -23093.376   -24920.393    1827.0168    1.1610133    30.985945    30.985945    30.985945    29750.497 
 4007000    294.41594   -1609.7509   -23065.362   -24914.461    1849.0989    1.1610133    30.985945    30.985945    30.985945    29750.497 
 4008000    288.60932   -1268.9433   -23110.083   -24922.713    1812.6301    1.1610133    30.985945    30.985945    30.985945    29750.497 
 4009000    298.99219   -1437.1824   -23048.613   -24926.453    1877.8404    1.1610133    30.985945    30.985945    30.985945    29750.497 
 4010000    298.32908   -1666.7622   -23128.171   -25001.847    1873.6757    1.1610133    30.985945    30.985945    30.985945    29750.497 
 4011000    307.20737   -545.50039   -23047.619   -24977.055    1929.4364    1.1610133    30.985945    30.985945    30.985945    29750.497 
 4012000    296.81569   -1307.8702   -23058.103   -24922.274    1864.1707    1.1610133    30.985945    30.985945    30.985945    29750.497 
 4013000    291.30118   -1103.6436   -23183.521   -25013.058    1829.5365    1.1610133    30.985945    30.985945    30.985945    29750.497 
 4014000    300.45474   -2100.1838   -23116.739   -25003.765    1887.0261    1.1610133    30.985945    30.985945    30.985945    29750.497 
 4015000    301.67836   -1990.3167   -23101.689     -24996.4    1894.7111    1.1610133    30.985945    30.985945    30.985945    29750.497 
 4016000    287.72261   -1895.3155   -23262.053   -25069.114    1807.0611    1.1610133    30.985945    30.985945    30.985945    29750.497 
 4017000    308.94101   -2286.8237   -23027.678   -24968.002    1940.3246    1.1610133    30.985945    30.985945    30.985945    29750.497 
 4018000    297.70882   -1869.9586   -22975.466   -24845.246    1869.7802    1.1610133    30.985945    30.985945    30.985945    29750.497 
 4019000    307.26921   -947.23728   -23077.027   -25006.852    1929.8248    1.1610133    30.985945    30.985945    30.985945    29750.497 
 4020000    299.73123   -871.36282   -23055.854   -24938.336     1882.482    1.1610133    30.985945    30.985945    30.985945    29750.497 
 4021000    296.16723   -1485.2116   -23129.111   -24989.209    1860.0981    1.1610133    30.985945    30.985945    30.985945    29750.497 
 4022000     294.5007   -1657.8772   -23145.498   -24995.129    1849.6313    1.1610133    30.985945    30.985945    30.985945    29750.497 
 4023000    300.80149   -831.39683   -23026.418   -24915.622    1889.2038    1.1610133    30.985945    30.985945    30.985945    29750.497 
 4024000    297.29473   -1983.9281   -23120.082   -24987.261    1867.1794    1.1610133    30.985945    30.985945    30.985945    29750.497 
 4025000    290.54698   -2668.2527   -23184.025   -25008.825    1824.7997    1.1610133    30.985945    30.985945    30.985945    29750.497 
 4026000     298.4694   -912.55511   -23099.327   -24973.884     1874.557    1.1610133    30.985945    30.985945    30.985945    29750.497 
 4027000    304.21534   -1085.3829   -23071.902   -24982.547    1910.6448    1.1610133    30.985945    30.985945    30.985945    29750.497 
 4028000    292.26295   -2039.4465   -23145.136   -24980.713     1835.577    1.1610133    30.985945    30.985945    30.985945    29750.497 
 4029000    295.67833   -665.69408   -23143.913   -25000.941    1857.0275    1.1610133    30.985945    30.985945    30.985945    29750.497 
 4030000    297.13128   -1945.6031   -23147.698   -25013.851    1866.1529    1.1610133    30.985945    30.985945    30.985945    29750.497 
 4031000    308.32234   -2212.7016   -23014.997   -24951.436     1936.439    1.1610133    30.985945    30.985945    30.985945    29750.497 
 4032000    299.52143   -2294.4683   -23142.004   -25023.168    1881.1644    1.1610133    30.985945    30.985945    30.985945    29750.497 
 4033000    299.71172   -2246.5129   -23110.412   -24992.771    1882.3595    1.1610133    30.985945    30.985945    30.985945    29750.497 
 4034000    296.92118   -2613.8312   -23126.156   -24990.989    1864.8333    1.1610133    30.985945    30.985945    30.985945    29750.497 
 4035000    303.07737   -1190.0374   -22989.927   -24893.425    1903.4977    1.1610133    30.985945    30.985945    30.985945    29750.497 
 4036000    288.98003   -800.99187   -23095.867   -24910.826    1814.9584    1.1610133    30.985945    30.985945    30.985945    29750.497 
 4037000    299.40375   -667.42492   -23065.825    -24946.25    1880.4252    1.1610133    30.985945    30.985945    30.985945    29750.497 
 4038000    292.61352    -781.9926    -23125.79   -24963.569    1837.7787    1.1610133    30.985945    30.985945    30.985945    29750.497 
 4039000    301.40955   -2132.4693   -23132.356   -25025.379    1893.0228    1.1610133    30.985945    30.985945    30.985945    29750.497 
 4040000    297.83625   -1519.0331   -23139.855   -25010.435    1870.5804    1.1610133    30.985945    30.985945    30.985945    29750.497 
 4041000    297.54025   -1551.0691    -23131.02   -24999.741    1868.7214    1.1610133    30.985945    30.985945    30.985945    29750.497 
 4042000    294.56938   -2292.7411   -23121.226   -24971.289    1850.0627    1.1610133    30.985945    30.985945    30.985945    29750.497 
 4043000    289.49327     -1683.94   -23148.926   -24967.107    1818.1818    1.1610133    30.985945    30.985945    30.985945    29750.497 
 4044000    304.17545   -946.87557   -23084.167   -24994.561    1910.3943    1.1610133    30.985945    30.985945    30.985945    29750.497 
 4045000    298.22017   -2353.6143   -23114.949   -24987.941    1872.9917    1.1610133    30.985945    30.985945    30.985945    29750.497 
 4046000     300.6355   -1389.3631   -23101.606   -24989.767    1888.1613    1.1610133    30.985945    30.985945    30.985945    29750.497 
 4047000     303.3379   -2581.4053   -23002.301   -24907.435     1905.134    1.1610133    30.985945    30.985945    30.985945    29750.497 
 4048000    300.30799   -2128.3494   -23067.578   -24953.682    1886.1044    1.1610133    30.985945    30.985945    30.985945    29750.497 
 4049000    305.07021   -1442.8933   -23005.126    -24921.14    1916.0138    1.1610133    30.985945    30.985945    30.985945    29750.497 
 4050000    307.60219   -1810.7105   -23002.633   -24934.549    1931.9161    1.1610133    30.985945    30.985945    30.985945    29750.497 
 4051000    296.58202   -848.76741   -23030.554   -24893.257    1862.7032    1.1610133    30.985945    30.985945    30.985945    29750.497 
 4052000    299.16089   -1897.2341   -23141.215   -25020.115       1878.9    1.1610133    30.985945    30.985945    30.985945    29750.497 
 4053000    306.23348   -1213.0444   -23124.315   -25047.634    1923.3198    1.1610133    30.985945    30.985945    30.985945    29750.497 
 4054000    298.56246   -1363.2022   -23089.863   -24965.005    1875.1415    1.1610133    30.985945    30.985945    30.985945    29750.497 
 4055000    294.80121   -2144.4361    -23092.62   -24944.139    1851.5187    1.1610133    30.985945    30.985945    30.985945    29750.497 
 4056000    296.53008   -1922.7987   -22991.066   -24853.443     1862.377    1.1610133    30.985945    30.985945    30.985945    29750.497 
 4057000    292.53892   -1220.9785   -23068.966   -24906.276    1837.3102    1.1610133    30.985945    30.985945    30.985945    29750.497 
 4058000    286.40106   -1086.8718   -23144.727   -24943.488     1798.761    1.1610133    30.985945    30.985945    30.985945    29750.497 
 4059000    304.90379   -2074.1882   -22969.001   -24883.969    1914.9686    1.1610133    30.985945    30.985945    30.985945    29750.497 
 4060000    301.65934   -686.83577   -22974.778   -24869.369    1894.5917    1.1610133    30.985945    30.985945    30.985945    29750.497 
 4061000    297.35139   -1971.1565   -23073.857   -24941.392    1867.5352    1.1610133    30.985945    30.985945    30.985945    29750.497 
 4062000    297.11488   -1425.2298   -23056.377   -24922.427    1866.0499    1.1610133    30.985945    30.985945    30.985945    29750.497 
 4063000    300.27258    -1393.026   -23080.519   -24966.401     1885.882    1.1610133    30.985945    30.985945    30.985945    29750.497 
 4064000     300.6282   -1032.7757   -23130.503   -25018.618    1888.1155    1.1610133    30.985945    30.985945    30.985945    29750.497 
 4065000    289.08465   -1481.7942   -23120.068   -24935.683    1815.6154    1.1610133    30.985945    30.985945    30.985945    29750.497 
 4066000    288.67405   -1252.5308   -23094.662   -24907.698    1813.0366    1.1610133    30.985945    30.985945    30.985945    29750.497 
 4067000    293.96951   -2013.8536    -23196.26   -25042.555    1846.2951    1.1610133    30.985945    30.985945    30.985945    29750.497 
 4068000    300.08738   -1989.8021   -23188.848   -25073.566    1884.7188    1.1610133    30.985945    30.985945    30.985945    29750.497 
 4069000    296.53711    -2019.297   -23060.212   -24922.633    1862.4211    1.1610133    30.985945    30.985945    30.985945    29750.497 
 4070000    302.95719   -2024.8972   -23037.927    -24940.67    1902.7429    1.1610133    30.985945    30.985945    30.985945    29750.497 
 4071000    298.37838   -1943.8754   -23048.538   -24922.523    1873.9853    1.1610133    30.985945    30.985945    30.985945    29750.497 
 4072000    305.17872   -1445.0853    -23102.52   -25019.216    1916.6953    1.1610133    30.985945    30.985945    30.985945    29750.497 
 4073000    289.04533   -1704.5492   -23157.865   -24973.233    1815.3685    1.1610133    30.985945    30.985945    30.985945    29750.497 
 4074000    290.18597   -886.66943   -23213.901   -25036.433    1822.5324    1.1610133    30.985945    30.985945    30.985945    29750.497 
 4075000    309.51805   -1886.0091   -23038.245   -24982.194    1943.9488    1.1610133    30.985945    30.985945    30.985945    29750.497 
 4076000      302.301   -1466.9283   -23077.589   -24976.211    1898.6216    1.1610133    30.985945    30.985945    30.985945    29750.497 
 4077000    295.55597   -1017.5922   -23142.956   -24999.215     1856.259    1.1610133    30.985945    30.985945    30.985945    29750.497 
 4078000    298.76939   -1751.3235   -23165.862   -25042.303    1876.4411    1.1610133    30.985945    30.985945    30.985945    29750.497 
 4079000    291.47473   -1777.4526   -23108.683   -24939.309    1830.6265    1.1610133    30.985945    30.985945    30.985945    29750.497 
 4080000    297.42328   -1794.0985   -23126.311   -24994.297    1867.9868    1.1610133    30.985945    30.985945    30.985945    29750.497 
 4081000    301.95305   -975.75755   -23096.517   -24992.953    1896.4363    1.1610133    30.985945    30.985945    30.985945    29750.497 
 4082000    298.93107   -1201.2753   -23081.671   -24959.128    1877.4565    1.1610133    30.985945    30.985945    30.985945    29750.497 
 4083000    304.80183   -726.21122   -23089.914   -25004.242    1914.3282    1.1610133    30.985945    30.985945    30.985945    29750.497 
 4084000     288.0683   -2776.4829   -23219.613   -25028.845    1809.2322    1.1610133    30.985945    30.985945    30.985945    29750.497 
 4085000     301.3381   -475.43474   -23143.321   -25035.895    1892.5741    1.1610133    30.985945    30.985945    30.985945    29750.497 
 4086000    303.85111   -2649.6151   -23020.023    -24928.38    1908.3572    1.1610133    30.985945    30.985945    30.985945    29750.497 
 4087000     292.9998   -2165.5574   -23096.585    -24936.79    1840.2048    1.1610133    30.985945    30.985945    30.985945    29750.497 
 4088000    298.87109     -2136.98   -23057.793   -24934.873    1877.0799    1.1610133    30.985945    30.985945    30.985945    29750.497 
 4089000     301.1212   -1670.3163   -23093.802   -24985.014    1891.2118    1.1610133    30.985945    30.985945    30.985945    29750.497 
 4090000    295.41818    -1974.909   -23186.818   -25042.212    1855.3936    1.1610133    30.985945    30.985945    30.985945    29750.497 
 4091000    292.17049   -2408.8855   -23166.984   -25001.981    1834.9963    1.1610133    30.985945    30.985945    30.985945    29750.497 
 4092000     294.2191   -1915.6889   -23200.631   -25048.494    1847.8627    1.1610133    30.985945    30.985945    30.985945    29750.497 
 4093000    300.87662   -2074.9438   -23032.427   -24922.102    1889.6757    1.1610133    30.985945    30.985945    30.985945    29750.497 
 4094000    301.34319   -2357.8476   -23153.368   -25045.974     1892.606    1.1610133    30.985945    30.985945    30.985945    29750.497 
 4095000    301.89114   -188.36903   -22986.186   -24882.234    1896.0475    1.1610133    30.985945    30.985945    30.985945    29750.497 
 4096000     303.9512   -2404.8468   -23093.134    -25002.12    1908.9858    1.1610133    30.985945    30.985945    30.985945    29750.497 
 4097000      288.645   -1092.9279    -23239.44   -25052.295    1812.8542    1.1610133    30.985945    30.985945    30.985945    29750.497 
 4098000    297.21832   -1167.3566   -23102.745   -24969.445    1866.6995    1.1610133    30.985945    30.985945    30.985945    29750.497 
 4099000    302.35943   -718.51623   -23082.546   -24981.534    1898.9886    1.1610133    30.985945    30.985945    30.985945    29750.497 
 4100000    297.72453   -1761.1983   -23153.073   -25022.951    1869.8788    1.1610133    30.985945    30.985945    30.985945    29750.497 
 4101000    297.30026   -2179.7825   -23095.411   -24962.625    1867.2141    1.1610133    30.985945    30.985945    30.985945    29750.497 
 4102000    296.98856    -1120.678   -23129.989   -24995.245    1865.2565    1.1610133    30.985945    30.985945    30.985945    29750.497 
 4103000    298.14874   -2047.7595   -23144.963   -25017.506    1872.5431    1.1610133    30.985945    30.985945    30.985945    29750.497 
 4104000    308.58846   -2266.9293    -23017.51    -24955.62    1938.1104    1.1610133    30.985945    30.985945    30.985945    29750.497 
 4105000    302.36643   -2248.1657   -23073.403   -24972.436    1899.0325    1.1610133    30.985945    30.985945    30.985945    29750.497 
 4106000    296.84058   -344.58089   -23097.532   -24961.859    1864.3271    1.1610133    30.985945    30.985945    30.985945    29750.497 
 4107000    291.66028   -1962.4214    -23045.33   -24877.122    1831.7919    1.1610133    30.985945    30.985945    30.985945    29750.497 
 4108000    307.52326   -1231.7872   -23015.287   -24946.707    1931.4204    1.1610133    30.985945    30.985945    30.985945    29750.497 
 4109000    290.71064   -509.40225   -23020.274   -24846.102    1825.8276    1.1610133    30.985945    30.985945    30.985945    29750.497 
 4110000    308.75038    -2155.539   -23062.007   -25001.134    1939.1274    1.1610133    30.985945    30.985945    30.985945    29750.497 
 4111000    291.01559   -1353.8756    -23115.59   -24943.333    1827.7428    1.1610133    30.985945    30.985945    30.985945    29750.497 
 4112000    291.83372   -2595.7818   -23092.764   -24925.645    1832.8812    1.1610133    30.985945    30.985945    30.985945    29750.497 
 4113000    312.08747   -1007.6386    -22912.75   -24872.836    1960.0862    1.1610133    30.985945    30.985945    30.985945    29750.497 
 4114000      302.475   -1689.5239   -22990.824   -24890.539    1899.7144    1.1610133    30.985945    30.985945    30.985945    29750.497 
 4115000    295.97493   -1625.1771   -23089.471   -24948.361    1858.8903    1.1610133    30.985945    30.985945    30.985945    29750.497 
 4116000    291.21832   -2111.3077   -23100.533   -24929.549    1829.0161    1.1610133    30.985945    30.985945    30.985945    29750.497 
 4117000    301.17844   -1187.5296   -23067.871   -24959.442    1891.5713    1.1610133    30.985945    30.985945    30.985945    29750.497 
 4118000    296.83484   -1157.6748   -23060.388   -24924.679    1864.2911    1.1610133    30.985945    30.985945    30.985945    29750.497 
 4119000    301.80399   -1227.4668   -22984.147   -24879.647    1895.5001    1.1610133    30.985945    30.985945    30.985945    29750.497 
 4120000     300.3377    -617.4507    -23071.38   -24957.671    1886.2909    1.1610133    30.985945    30.985945    30.985945    29750.497 
 4121000    289.67949   -1859.0744   -23060.744   -24880.095    1819.3514    1.1610133    30.985945    30.985945    30.985945    29750.497 
 4122000     285.4448   -1413.5668   -23036.377   -24829.133    1792.7552    1.1610133    30.985945    30.985945    30.985945    29750.497 
 4123000     292.0742   -1135.6977   -23007.476   -24841.867    1834.3915    1.1610133    30.985945    30.985945    30.985945    29750.497 
 4124000    297.42603   -1135.6124     -23058.8   -24926.804     1868.004    1.1610133    30.985945    30.985945    30.985945    29750.497 
 4125000    289.68229   -1074.6512   -23141.016   -24960.385    1819.3689    1.1610133    30.985945    30.985945    30.985945    29750.497 
 4126000    299.06071   -1294.0551   -23068.204   -24946.475    1878.2708    1.1610133    30.985945    30.985945    30.985945    29750.497 
 4127000    303.09843   -2011.6009    -23055.82    -24959.45    1903.6299    1.1610133    30.985945    30.985945    30.985945    29750.497 
 4128000     301.4158   -1591.1717   -23036.913   -24929.975    1893.0621    1.1610133    30.985945    30.985945    30.985945    29750.497 
 4129000    295.74316   -1537.5747   -23085.981   -24943.416    1857.4347    1.1610133    30.985945    30.985945    30.985945    29750.497 
 4130000    301.29288   -860.89051   -23117.554   -25009.844    1892.2901    1.1610133    30.985945    30.985945    30.985945    29750.497 
 4131000    296.23656   -1226.1454   -23160.513   -25021.047    1860.5335    1.1610133    30.985945    30.985945    30.985945    29750.497 
 4132000    304.81647   -1740.9443   -23009.423   -24923.843    1914.4202    1.1610133    30.985945    30.985945    30.985945    29750.497 
 4133000    300.72406   -1890.8583   -23036.744   -24925.461    1888.7175    1.1610133    30.985945    30.985945    30.985945    29750.497 
 4134000    295.56426   -2342.0019   -23027.883   -24884.194    1856.3111    1.1610133    30.985945    30.985945    30.985945    29750.497 
 4135000     297.2743   -1138.8609   -23070.311   -24937.362    1867.0511    1.1610133    30.985945    30.985945    30.985945    29750.497 
 4136000    293.87033   -2188.0622    -23052.32   -24897.993    1845.6722    1.1610133    30.985945    30.985945    30.985945    29750.497 
 4137000    300.08848   -2033.7357   -23070.316   -24955.042    1884.7257    1.1610133    30.985945    30.985945    30.985945    29750.497 
 4138000    297.59323   -1602.5069   -23092.046     -24961.1    1869.0542    1.1610133    30.985945    30.985945    30.985945    29750.497 
 4139000    304.94184   -2299.3932   -23029.381   -24944.589    1915.2076    1.1610133    30.985945    30.985945    30.985945    29750.497 
 4140000     296.8869   -1360.7793   -23085.409   -24950.027     1864.618    1.1610133    30.985945    30.985945    30.985945    29750.497 
 4141000    295.90577   -2247.3157   -23194.486   -25052.942    1858.4559    1.1610133    30.985945    30.985945    30.985945    29750.497 
 4142000    308.16407   -2208.4487   -23143.429   -25078.874     1935.445    1.1610133    30.985945    30.985945    30.985945    29750.497 
 4143000    295.16911   -1250.4738    -23117.96   -24971.789    1853.8293    1.1610133    30.985945    30.985945    30.985945    29750.497 
 4144000    298.53168   -1918.4346   -23120.069   -24995.017    1874.9481    1.1610133    30.985945    30.985945    30.985945    29750.497 
 4145000    300.36425   -1284.1569   -23124.012    -25010.47    1886.4577    1.1610133    30.985945    30.985945    30.985945    29750.497 
 4146000    296.20941   -1193.0411   -23075.078    -24935.44     1860.363    1.1610133    30.985945    30.985945    30.985945    29750.497 
 4147000    297.22533   -1826.6775   -23084.876   -24951.619    1866.7435    1.1610133    30.985945    30.985945    30.985945    29750.497 
 4148000    296.62943   -848.19444   -23118.472   -24981.473    1863.0009    1.1610133    30.985945    30.985945    30.985945    29750.497 
 4149000    289.01562    -1493.372   -23166.989   -24982.171    1815.1819    1.1610133    30.985945    30.985945    30.985945    29750.497 
 4150000    300.64058   -1637.0611   -23070.287   -24958.481    1888.1932    1.1610133    30.985945    30.985945    30.985945    29750.497 
 4151000     303.9638   -1301.7591   -22979.919   -24888.984     1909.065    1.1610133    30.985945    30.985945    30.985945    29750.497 
 4152000    304.62302   -454.34078   -23165.644   -25078.849    1913.2052    1.1610133    30.985945    30.985945    30.985945    29750.497 
 4153000    299.99486   -480.92866   -23057.369   -24941.507    1884.1378    1.1610133    30.985945    30.985945    30.985945    29750.497 
 4154000    298.81694   -1865.4082   -23120.709   -24997.449    1876.7397    1.1610133    30.985945    30.985945    30.985945    29750.497 
 4155000    303.46234   -1185.0264   -22982.015   -24887.931    1905.9155    1.1610133    30.985945    30.985945    30.985945    29750.497 
 4156000    297.49648   -1229.0496   -22997.529   -24865.976    1868.4465    1.1610133    30.985945    30.985945    30.985945    29750.497 
 4157000    300.39343   -2169.5453   -23104.266   -24990.907     1886.641    1.1610133    30.985945    30.985945    30.985945    29750.497 
 4158000    297.47892   -693.73007   -23042.696   -24911.032    1868.3362    1.1610133    30.985945    30.985945    30.985945    29750.497 
 4159000    303.81827   -1056.8942   -23025.115   -24933.266     1908.151    1.1610133    30.985945    30.985945    30.985945    29750.497 
 4160000    311.32771   -1552.0531   -23030.016   -24985.331    1955.3145    1.1610133    30.985945    30.985945    30.985945    29750.497 
 4161000    300.41081   -892.63414   -23024.816   -24911.567    1886.7501    1.1610133    30.985945    30.985945    30.985945    29750.497 
 4162000    299.16517   -1726.0003   -23203.892   -25082.819    1878.9268    1.1610133    30.985945    30.985945    30.985945    29750.497 
 4163000     304.6096   -1164.6092   -22960.273   -24873.394    1913.1209    1.1610133    30.985945    30.985945    30.985945    29750.497 
 4164000    310.13613   -1961.0991   -22928.878   -24876.709    1947.8307    1.1610133    30.985945    30.985945    30.985945    29750.497 
 4165000    300.25086   -2540.5802   -23030.698   -24916.444    1885.7456    1.1610133    30.985945    30.985945    30.985945    29750.497 
 4166000    294.66304   -1774.3063   -23094.012   -24944.663    1850.6509    1.1610133    30.985945    30.985945    30.985945    29750.497 
 4167000    304.16322   -1715.5493   -22947.453   -24857.771    1910.3174    1.1610133    30.985945    30.985945    30.985945    29750.497 
 4168000    300.60333   -591.78757   -23016.735   -24904.694    1887.9593    1.1610133    30.985945    30.985945    30.985945    29750.497 
 4169000     301.3034   -2467.1103   -22990.385   -24882.741    1892.3561    1.1610133    30.985945    30.985945    30.985945    29750.497 
 4170000    303.65348    -1240.659   -22966.152   -24873.268     1907.116    1.1610133    30.985945    30.985945    30.985945    29750.497 
 4171000    288.31065   -1839.0909   -23152.962   -24963.716    1810.7543    1.1610133    30.985945    30.985945    30.985945    29750.497 
 4172000    306.16925   -2012.9138   -22925.973   -24848.889    1922.9164    1.1610133    30.985945    30.985945    30.985945    29750.497 
 4173000    298.14637   -2371.2404   -23043.836   -24916.365    1872.5282    1.1610133    30.985945    30.985945    30.985945    29750.497 
 4174000    304.92533    -804.1206   -23049.695   -24964.799    1915.1039    1.1610133    30.985945    30.985945    30.985945    29750.497 
 4175000    290.05572   -1472.2613   -23103.521   -24925.235    1821.7143    1.1610133    30.985945    30.985945    30.985945    29750.497 
 4176000    296.79168   -1901.8377   -23055.897   -24919.917      1864.02    1.1610133    30.985945    30.985945    30.985945    29750.497 
 4177000    306.20468    -2331.084   -23039.645   -24962.784    1923.1389    1.1610133    30.985945    30.985945    30.985945    29750.497 
 4178000    295.60016    -1131.997   -23104.258   -24960.795    1856.5366    1.1610133    30.985945    30.985945    30.985945    29750.497 
 4179000    297.29092   -844.92984   -23122.231   -24989.387    1867.1555    1.1610133    30.985945    30.985945    30.985945    29750.497 
 4180000    301.78652   -694.72629   -23041.774   -24937.164    1895.3904    1.1610133    30.985945    30.985945    30.985945    29750.497 
 4181000    309.29835   -663.01846   -22970.538   -24913.107    1942.5689    1.1610133    30.985945    30.985945    30.985945    29750.497 
 4182000    304.20754   -2202.9736    -23077.11   -24987.706    1910.5958    1.1610133    30.985945    30.985945    30.985945    29750.497 
 4183000     290.2201   -2465.7334   -23029.402   -24852.149    1822.7467    1.1610133    30.985945    30.985945    30.985945    29750.497 
 4184000    303.61409   -2132.8765    -23030.53   -24937.399    1906.8686    1.1610133    30.985945    30.985945    30.985945    29750.497 
 4185000    296.63201   -2317.7681   -23122.459   -24985.476    1863.0171    1.1610133    30.985945    30.985945    30.985945    29750.497 
 4186000    295.88217   -876.67903   -23082.178   -24940.486    1858.3077    1.1610133    30.985945    30.985945    30.985945    29750.497 
 4187000    302.55259   -1717.4333   -22970.296   -24870.497    1900.2018    1.1610133    30.985945    30.985945    30.985945    29750.497 
 4188000    300.02337   -2696.9928   -23033.026   -24917.343    1884.3168    1.1610133    30.985945    30.985945    30.985945    29750.497 
 4189000    305.75598    -2480.156   -23011.223   -24931.544    1920.3209    1.1610133    30.985945    30.985945    30.985945    29750.497 
 4190000     297.4613   -2586.1235   -23120.832   -24989.058    1868.2255    1.1610133    30.985945    30.985945    30.985945    29750.497 
 4191000    306.80999   -1661.2882   -22906.426   -24833.367    1926.9406    1.1610133    30.985945    30.985945    30.985945    29750.497 
 4192000    297.75893   -2509.2472    -23065.49   -24935.584    1870.0949    1.1610133    30.985945    30.985945    30.985945    29750.497 
 4193000    291.55823   -1889.7332   -23109.218   -24940.369    1831.1509    1.1610133    30.985945    30.985945    30.985945    29750.497 
 4194000    290.44682   -2018.8891   -23114.159   -24938.329    1824.1707    1.1610133    30.985945    30.985945    30.985945    29750.497 
 4195000    299.67017   -1052.6266   -23059.273   -24941.372    1882.0985    1.1610133    30.985945    30.985945    30.985945    29750.497 
 4196000    295.24394   -1488.8798   -23025.165   -24879.464    1854.2993    1.1610133    30.985945    30.985945    30.985945    29750.497 
 4197000     303.8434   -1117.3374   -23010.709   -24919.017    1908.3088    1.1610133    30.985945    30.985945    30.985945    29750.497 
 4198000    292.14489   -591.57732   -23096.205    -24931.04    1834.8355    1.1610133    30.985945    30.985945    30.985945    29750.497 
 4199000    296.72312    -935.5396   -23057.448   -24921.038    1863.5893    1.1610133    30.985945    30.985945    30.985945    29750.497 
 4200000    290.64941   -1704.7462   -23102.815   -24928.259     1825.443    1.1610133    30.985945    30.985945    30.985945    29750.497 
 4201000    282.94944   -1532.3272   -23232.612   -25009.695    1777.0828    1.1610133    30.985945    30.985945    30.985945    29750.497 
 4202000    292.47436   -1040.7031   -23079.282   -24916.187    1836.9047    1.1610133    30.985945    30.985945    30.985945    29750.497 
 4203000    299.76619   -1134.6241   -23109.843   -24992.545    1882.7016    1.1610133    30.985945    30.985945    30.985945    29750.497 
 4204000    299.42597   -484.58248   -23079.505    -24960.07    1880.5648    1.1610133    30.985945    30.985945    30.985945    29750.497 
 4205000    302.48021   -1547.7802   -23024.857   -24924.604    1899.7471    1.1610133    30.985945    30.985945    30.985945    29750.497 
 4206000    314.35228   -1584.2514   -23013.358   -24987.668    1974.3105    1.1610133    30.985945    30.985945    30.985945    29750.497 
 4207000    295.98921   -1541.9577   -23115.896   -24974.876      1858.98    1.1610133    30.985945    30.985945    30.985945    29750.497 
 4208000    296.25829    -1306.721   -23130.427   -24991.097      1860.67    1.1610133    30.985945    30.985945    30.985945    29750.497 
 4209000    292.92873   -1059.9836   -23152.406   -24992.164    1839.7585    1.1610133    30.985945    30.985945    30.985945    29750.497 
 4210000    306.28254   -1467.9768   -22990.312    -24913.94    1923.6279    1.1610133    30.985945    30.985945    30.985945    29750.497 
 4211000    295.65022   -2059.2376   -22989.244   -24846.095    1856.8509    1.1610133    30.985945    30.985945    30.985945    29750.497 
 4212000    307.90409   -852.24864   -23001.562   -24935.374    1933.8122    1.1610133    30.985945    30.985945    30.985945    29750.497 
 4213000    299.86707   -844.13949   -23073.318   -24956.653    1883.3352    1.1610133    30.985945    30.985945    30.985945    29750.497 
 4214000     289.9877   -1234.6643   -23150.761   -24972.048    1821.2871    1.1610133    30.985945    30.985945    30.985945    29750.497 
 4215000    293.67557   -890.41972   -23131.428   -24975.877     1844.449    1.1610133    30.985945    30.985945    30.985945    29750.497 
 4216000    303.79313   -1737.5517   -23072.988   -24980.981     1907.993    1.1610133    30.985945    30.985945    30.985945    29750.497 
 4217000    294.21051   -1927.4859   -23179.565   -25027.374    1847.8088    1.1610133    30.985945    30.985945    30.985945    29750.497 
 4218000    305.96209    -1016.944   -22989.726   -24911.342    1921.6153    1.1610133    30.985945    30.985945    30.985945    29750.497 
 4219000    292.46691   -1573.7551   -23087.068   -24923.926     1836.858    1.1610133    30.985945    30.985945    30.985945    29750.497 
 4220000    293.42014   -1290.9935   -23039.595    -24882.44    1842.8448    1.1610133    30.985945    30.985945    30.985945    29750.497 
 4221000    298.82778   -1851.4208   -23103.979   -24980.786    1876.8078    1.1610133    30.985945    30.985945    30.985945    29750.497 
 4222000    301.89602   -2118.7971   -23017.942    -24914.02    1896.0781    1.1610133    30.985945    30.985945    30.985945    29750.497 
 4223000    293.66812   -2479.9013    -23092.32   -24936.722    1844.4022    1.1610133    30.985945    30.985945    30.985945    29750.497 
 4224000    304.80142   -1457.1809   -23035.453   -24949.778    1914.3256    1.1610133    30.985945    30.985945    30.985945    29750.497 
 4225000    298.59781   -1331.7345   -23076.039   -24951.403    1875.3635    1.1610133    30.985945    30.985945    30.985945    29750.497 
 4226000    296.93406   -1544.8774     -23092.9   -24957.815    1864.9142    1.1610133    30.985945    30.985945    30.985945    29750.497 
 4227000    307.41624   -1252.1964   -23038.981   -24969.729    1930.7482    1.1610133    30.985945    30.985945    30.985945    29750.497 
 4228000    301.69904   -1889.3028   -23048.149    -24942.99    1894.8409    1.1610133    30.985945    30.985945    30.985945    29750.497 
 4229000    308.13417   -1242.4644   -23111.883    -25047.14    1935.2572    1.1610133    30.985945    30.985945    30.985945    29750.497 
 4230000    307.48719   -1453.8025   -23043.484   -24974.678    1931.1938    1.1610133    30.985945    30.985945    30.985945    29750.497 
 4231000    294.94545   -1602.4918   -23176.367   -25028.791    1852.4246    1.1610133    30.985945    30.985945    30.985945    29750.497 
 4232000    304.62213   -829.97282   -23130.711    -25043.91    1913.1997    1.1610133    30.985945    30.985945    30.985945    29750.497 
 4233000     292.9619   -1415.1417   -23176.979   -25016.945    1839.9668    1.1610133    30.985945    30.985945    30.985945    29750.497 
 4234000    296.94913   -1700.4206   -23067.085   -24932.093    1865.0088    1.1610133    30.985945    30.985945    30.985945    29750.497 
 4235000     291.6077   -990.36766   -23142.986   -24974.447    1831.4616    1.1610133    30.985945    30.985945    30.985945    29750.497 
 4236000    302.48546   -1358.4494   -23007.279   -24907.059    1899.7801    1.1610133    30.985945    30.985945    30.985945    29750.497 
 4237000    301.75433   -1640.8787   -23099.381   -24994.569    1895.1882    1.1610133    30.985945    30.985945    30.985945    29750.497 
 4238000     306.4237   -2079.7011   -23012.273   -24936.788    1924.5145    1.1610133    30.985945    30.985945    30.985945    29750.497 
 4239000    305.63058    -2064.735   -23099.232   -25018.765    1919.5333    1.1610133    30.985945    30.985945    30.985945    29750.497 
 4240000    299.51974   -1761.7878   -23170.406   -25051.559    1881.1537    1.1610133    30.985945    30.985945    30.985945    29750.497 
 4241000     306.8713   -1783.1532   -23112.936   -25040.262    1927.3257    1.1610133    30.985945    30.985945    30.985945    29750.497 
 4242000    300.51553     -1995.29   -23085.466   -24972.874    1887.4079    1.1610133    30.985945    30.985945    30.985945    29750.497 
 4243000    301.65012    -2429.696   -23048.543   -24943.076    1894.5337    1.1610133    30.985945    30.985945    30.985945    29750.497 
 4244000    305.83035   -2011.3383    -23051.62   -24972.408    1920.7879    1.1610133    30.985945    30.985945    30.985945    29750.497 
 4245000    296.46636   -1505.4926   -23167.233    -25029.21    1861.9768    1.1610133    30.985945    30.985945    30.985945    29750.497 
 4246000    301.85663   -2294.6422   -23175.788   -25071.618    1895.8307    1.1610133    30.985945    30.985945    30.985945    29750.497 
 4247000    295.44844    -1299.155   -23182.295   -25037.879    1855.5837    1.1610133    30.985945    30.985945    30.985945    29750.497 
 4248000    302.25058   -1880.6216   -23033.796   -24932.101     1898.305    1.1610133    30.985945    30.985945    30.985945    29750.497 
 4249000    297.18359   -2255.2818    -23129.61   -24996.092    1866.4814    1.1610133    30.985945    30.985945    30.985945    29750.497 
 4250000    306.07533   -2364.1204    -23064.87   -24987.196    1922.3266    1.1610133    30.985945    30.985945    30.985945    29750.497 
 4251000    307.05638   -1543.7177   -23016.203   -24944.691    1928.4881    1.1610133    30.985945    30.985945    30.985945    29750.497 
 4252000     304.2744   -1520.9099   -23111.366   -25022.382    1911.0157    1.1610133    30.985945    30.985945    30.985945    29750.497 
 4253000    295.35856   -1387.1435   -23073.049   -24928.068    1855.0191    1.1610133    30.985945    30.985945    30.985945    29750.497 
 4254000    300.85931    -1678.001   -23031.226   -24920.793     1889.567    1.1610133    30.985945    30.985945    30.985945    29750.497 
 4255000    288.53823    -1592.393    -23099.87   -24912.054    1812.1836    1.1610133    30.985945    30.985945    30.985945    29750.497 
 4256000    301.08941   -1894.7798   -23057.702   -24948.714    1891.0121    1.1610133    30.985945    30.985945    30.985945    29750.497 
 4257000     304.1476   -2167.2243   -22925.653   -24835.873    1910.2193    1.1610133    30.985945    30.985945    30.985945    29750.497 
 4258000    308.00867   -2051.2083   -23074.083   -25008.553     1934.469    1.1610133    30.985945    30.985945    30.985945    29750.497 
 4259000    294.02239   -2206.1019   -23108.696   -24955.323    1846.6272    1.1610133    30.985945    30.985945    30.985945    29750.497 
 4260000     296.5103   -1090.1086   -23133.005   -24995.257    1862.2527    1.1610133    30.985945    30.985945    30.985945    29750.497 
 4261000    295.97739   -1830.4206   -23168.097   -25027.003    1858.9058    1.1610133    30.985945    30.985945    30.985945    29750.497 
 4262000    299.84675   -2058.3241   -23078.894   -24962.101    1883.2075    1.1610133    30.985945    30.985945    30.985945    29750.497 
 4263000    295.99681   -2050.8874   -23052.832    -24911.86    1859.0277    1.1610133    30.985945    30.985945    30.985945    29750.497 
 4264000    299.61507   -1892.9638   -23064.839   -24946.591    1881.7524    1.1610133    30.985945    30.985945    30.985945    29750.497 
 4265000    297.17641    -2299.016   -23077.691   -24944.128    1866.4363    1.1610133    30.985945    30.985945    30.985945    29750.497 
 4266000    299.79026   -939.66408   -22946.897   -24829.749    1882.8528    1.1610133    30.985945    30.985945    30.985945    29750.497 
 4267000    300.67055   -2368.5376   -23050.298   -24938.679    1888.3815    1.1610133    30.985945    30.985945    30.985945    29750.497 
 4268000    294.30565   -1375.4949   -23161.005   -25009.411    1848.4063    1.1610133    30.985945    30.985945    30.985945    29750.497 
 4269000    291.75753   -1811.6225   -23171.031   -25003.434    1832.4026    1.1610133    30.985945    30.985945    30.985945    29750.497 
 4270000    298.07262   -2279.2749   -23196.342   -25068.406     1872.065    1.1610133    30.985945    30.985945    30.985945    29750.497 
 4271000    307.97762   -2392.6461    -23159.97   -25094.244     1934.274    1.1610133    30.985945    30.985945    30.985945    29750.497 
 4272000    304.88474   -1606.3225   -23022.886   -24937.735     1914.849    1.1610133    30.985945    30.985945    30.985945    29750.497 
 4273000    297.78399   -2122.5968   -23085.292   -24955.544    1870.2522    1.1610133    30.985945    30.985945    30.985945    29750.497 
 4274000    298.34945    -1032.554   -23075.312   -24949.116    1873.8036    1.1610133    30.985945    30.985945    30.985945    29750.497 
 4275000    293.07359     -2228.57   -23201.224   -25041.892    1840.6683    1.1610133    30.985945    30.985945    30.985945    29750.497 
 4276000    292.87066     -1631.86   -23140.161   -24979.555    1839.3937    1.1610133    30.985945    30.985945    30.985945    29750.497 
 4277000    305.69549   -1585.3135   -23015.908   -24935.849    1919.9409    1.1610133    30.985945    30.985945    30.985945    29750.497 
 4278000    293.60921   -2138.0904   -23051.519   -24895.551    1844.0322    1.1610133    30.985945    30.985945    30.985945    29750.497 
 4279000    293.91093   -1284.9852   -23162.408   -25008.335    1845.9272    1.1610133    30.985945    30.985945    30.985945    29750.497 
 4280000    297.17437   -1667.3123   -23050.914   -24917.338    1866.4235    1.1610133    30.985945    30.985945    30.985945    29750.497 
 4281000    297.32934   -915.17162   -23061.245   -24928.642    1867.3968    1.1610133    30.985945    30.985945    30.985945    29750.497 
 4282000    297.28403    -1201.487   -23077.159   -24944.271    1867.1122    1.1610133    30.985945    30.985945    30.985945    29750.497 
 4283000    292.15263   -1402.4598   -23110.787   -24945.672    1834.8841    1.1610133    30.985945    30.985945    30.985945    29750.497 
 4284000    293.72519   -1326.5925   -23101.604   -24946.364    1844.7607    1.1610133    30.985945    30.985945    30.985945    29750.497 
 4285000    293.67461   -932.23247   -23114.143   -24958.586     1844.443    1.1610133    30.985945    30.985945    30.985945    29750.497 
 4286000    300.09963   -1521.2135   -23061.243   -24946.038    1884.7958    1.1610133    30.985945    30.985945    30.985945    29750.497 
 4287000    300.42598   -1277.3885   -23054.785   -24941.631    1886.8454    1.1610133    30.985945    30.985945    30.985945    29750.497 
 4288000    301.66668   -1492.4305   -23051.208   -24945.846    1894.6377    1.1610133    30.985945    30.985945    30.985945    29750.497 
 4289000    309.24499   -2005.8628   -22980.125   -24922.359    1942.2338    1.1610133    30.985945    30.985945    30.985945    29750.497 
 4290000    301.81305   -1769.7282   -23020.012   -24915.569     1895.557    1.1610133    30.985945    30.985945    30.985945    29750.497 
 4291000    297.99272   -1705.3706   -23119.711   -24991.274    1871.5632    1.1610133    30.985945    30.985945    30.985945    29750.497 
 4292000    301.43546   -1285.5363   -23047.217   -24940.403    1893.1856    1.1610133    30.985945    30.985945    30.985945    29750.497 
 4293000     299.1431   -1548.6348   -23033.465   -24912.253    1878.7882    1.1610133    30.985945    30.985945    30.985945    29750.497 
 4294000    306.57156   -2170.7307   -23098.446   -25023.889    1925.4431    1.1610133    30.985945    30.985945    30.985945    29750.497 
 4295000    302.21306   -2225.0368   -23086.926   -24984.995    1898.0693    1.1610133    30.985945    30.985945    30.985945    29750.497 
 4296000    299.52853   -1369.4443   -23063.473   -24944.682    1881.2089    1.1610133    30.985945    30.985945    30.985945    29750.497 
 4297000    297.03327   -2024.5179   -23146.138   -25011.676    1865.5373    1.1610133    30.985945    30.985945    30.985945    29750.497 
 4298000    293.35708   -1435.1686   -23100.223   -24942.672    1842.4487    1.1610133    30.985945    30.985945    30.985945    29750.497 
 4299000    308.53852   -1941.5347   -23025.988   -24963.785    1937.7968    1.1610133    30.985945    30.985945    30.985945    29750.497 
 4300000    294.32286   -1487.8595   -23114.142   -24962.657    1848.5144    1.1610133    30.985945    30.985945    30.985945    29750.497 
 4301000    295.68457   -1208.3973   -23067.013    -24924.08    1857.0667    1.1610133    30.985945    30.985945    30.985945    29750.497 
 4302000    305.62736   -1241.3366   -23025.721   -24945.234    1919.5131    1.1610133    30.985945    30.985945    30.985945    29750.497 
 4303000    304.60274   -2225.6467   -22969.776   -24882.854    1913.0779    1.1610133    30.985945    30.985945    30.985945    29750.497 
 4304000    300.91807   -1324.1869   -23093.669   -24983.605     1889.936    1.1610133    30.985945    30.985945    30.985945    29750.497 
 4305000     310.3721   -1743.1418   -22983.769   -24933.082    1949.3127    1.1610133    30.985945    30.985945    30.985945    29750.497 
 4306000    299.45315   -2118.7237   -23106.122   -24986.857    1880.7355    1.1610133    30.985945    30.985945    30.985945    29750.497 
 4307000    303.15458   -2186.5916   -23167.861   -25071.844    1903.9826    1.1610133    30.985945    30.985945    30.985945    29750.497 
 4308000     292.3344   -1885.5253   -23136.728   -24972.754    1836.0258    1.1610133    30.985945    30.985945    30.985945    29750.497 
 4309000    298.41342   -1365.4391   -23074.991   -24949.196    1874.2054    1.1610133    30.985945    30.985945    30.985945    29750.497 
 4310000    290.16387   -2134.4645   -23101.575   -24923.969    1822.3936    1.1610133    30.985945    30.985945    30.985945    29750.497 
 4311000     298.6003   -2368.0671   -23124.332   -24999.711    1875.3791    1.1610133    30.985945    30.985945    30.985945    29750.497 
 4312000    298.46123   -1661.5665   -23111.739   -24986.245    1874.5057    1.1610133    30.985945    30.985945    30.985945    29750.497 
 4313000    297.67993   -1979.4028   -23073.449   -24943.048    1869.5987    1.1610133    30.985945    30.985945    30.985945    29750.497 
 4314000     296.0328    -1119.262   -23057.839   -24917.093    1859.2538    1.1610133    30.985945    30.985945    30.985945    29750.497 
 4315000    297.14009   -988.96467   -23060.837   -24927.045    1866.2082    1.1610133    30.985945    30.985945    30.985945    29750.497 
 4316000    300.29757   -2532.4538   -23075.042   -24961.081     1886.039    1.1610133    30.985945    30.985945    30.985945    29750.497 
 4317000    306.45649   -1089.3429    -22932.87   -24857.591    1924.7204    1.1610133    30.985945    30.985945    30.985945    29750.497 
 4318000    292.78013   -1265.0017   -23078.256   -24917.081    1838.8251    1.1610133    30.985945    30.985945    30.985945    29750.497 
 4319000    301.73603   -1785.6177   -23019.394   -24914.468    1895.0733    1.1610133    30.985945    30.985945    30.985945    29750.497 
 4320000    295.85875    -1193.576   -23084.978   -24943.139    1858.1607    1.1610133    30.985945    30.985945    30.985945    29750.497 
 4321000    300.55201   -1529.8543   -23077.998   -24965.635     1887.637    1.1610133    30.985945    30.985945    30.985945    29750.497 
 4322000    292.80399   -760.24295   -23145.648   -24984.623     1838.975    1.1610133    30.985945    30.985945    30.985945    29750.497 
 4323000     301.9585   -711.38025   -23050.847   -24947.317    1896.4705    1.1610133    30.985945    30.985945    30.985945    29750.497 
 4324000     298.9115   -1686.6009   -23103.219   -24980.553    1877.3336    1.1610133    30.985945    30.985945    30.985945    29750.497 
 4325000    298.17826   -1209.0328   -23089.047   -24961.775    1872.7285    1.1610133    30.985945    30.985945    30.985945    29750.497 
 4326000    301.61872   -1803.5135   -23157.754    -25052.09    1894.3365    1.1610133    30.985945    30.985945    30.985945    29750.497 
 4327000    300.84723    -1932.952    -23036.31   -24925.801    1889.4911    1.1610133    30.985945    30.985945    30.985945    29750.497 
 4328000     292.2605   -928.15969   -23001.357   -24836.918    1835.5616    1.1610133    30.985945    30.985945    30.985945    29750.497 
 4329000    296.46941   -1312.2103   -22940.669   -24802.665     1861.996    1.1610133    30.985945    30.985945    30.985945    29750.497 
 4330000    298.80233   -1504.9162   -23020.275   -24896.923     1876.648    1.1610133    30.985945    30.985945    30.985945    29750.497 
 4331000    293.02458   -431.01146   -23059.761   -24900.121    1840.3604    1.1610133    30.985945    30.985945    30.985945    29750.497 
 4332000    298.78856   -1625.2079   -23026.222   -24902.784    1876.5615    1.1610133    30.985945    30.985945    30.985945    29750.497 
 4333000    300.13125   -1095.3592   -23011.301   -24896.295    1884.9944    1.1610133    30.985945    30.985945    30.985945    29750.497 
 4334000    300.26371   -2226.0993   -23034.946   -24920.772    1885.8263    1.1610133    30.985945    30.985945    30.985945    29750.497 
 4335000    301.98933   -1475.2452   -22952.367   -24849.031    1896.6641    1.1610133    30.985945    30.985945    30.985945    29750.497 
 4336000    291.86183    -1326.607   -23069.933   -24902.991    1833.0577    1.1610133    30.985945    30.985945    30.985945    29750.497 
 4337000    295.54041   -1047.6336   -23057.914   -24914.075    1856.1613    1.1610133    30.985945    30.985945    30.985945    29750.497 
 4338000    301.77431   -39.752327   -22939.647    -24834.96    1895.3137    1.1610133    30.985945    30.985945    30.985945    29750.497 
 4339000    292.69426    -789.8545   -23103.509   -24941.795    1838.2858    1.1610133    30.985945    30.985945    30.985945    29750.497 
 4340000    299.10232   -819.61481   -23113.477   -24992.009    1878.5321    1.1610133    30.985945    30.985945    30.985945    29750.497 
 4341000    299.78853   -1248.8336   -23151.725   -25034.567    1882.8419    1.1610133    30.985945    30.985945    30.985945    29750.497 
 4342000    293.38319   -1049.8121    -23101.09   -24943.703    1842.6127    1.1610133    30.985945    30.985945    30.985945    29750.497 
 4343000    300.72545   -803.35392   -22993.356   -24882.082    1888.7263    1.1610133    30.985945    30.985945    30.985945    29750.497 
 4344000    299.56133   -1205.8699   -22981.201   -24862.616     1881.415    1.1610133    30.985945    30.985945    30.985945    29750.497 
 4345000    295.20051   -994.49142   -23074.048   -24928.075    1854.0265    1.1610133    30.985945    30.985945    30.985945    29750.497 
 4346000    295.49675   -1624.9835   -23016.357   -24872.244    1855.8871    1.1610133    30.985945    30.985945    30.985945    29750.497 
 4347000    295.20604   -1455.7494   -22980.347   -24834.408    1854.0612    1.1610133    30.985945    30.985945    30.985945    29750.497 
 4348000    306.64989     -2527.56    -23032.31   -24958.246    1925.9351    1.1610133    30.985945    30.985945    30.985945    29750.497 
 4349000    295.91136   -1627.5168   -23055.526   -24914.017    1858.4911    1.1610133    30.985945    30.985945    30.985945    29750.497 
 4350000    290.05534   -522.03415   -23148.321   -24970.033    1821.7119    1.1610133    30.985945    30.985945    30.985945    29750.497 
 4351000    297.57433   -1190.5486   -23110.134   -24979.069    1868.9355    1.1610133    30.985945    30.985945    30.985945    29750.497 
 4352000    296.50272   -1232.7847   -22992.381   -24854.586    1862.2052    1.1610133    30.985945    30.985945    30.985945    29750.497 
 4353000    296.45222   -1630.4007   -23103.065   -24964.953    1861.8879    1.1610133    30.985945    30.985945    30.985945    29750.497 
 4354000    290.80165   -792.93291   -23163.325   -24989.724    1826.3992    1.1610133    30.985945    30.985945    30.985945    29750.497 
 4355000    293.37249   -2086.0831   -23059.208   -24901.754    1842.5455    1.1610133    30.985945    30.985945    30.985945    29750.497 
 4356000    301.02721   -2217.2435   -23029.946   -24920.568    1890.6215    1.1610133    30.985945    30.985945    30.985945    29750.497 
 4357000    300.45584   -2077.4397   -23059.675   -24946.708     1887.033    1.1610133    30.985945    30.985945    30.985945    29750.497 
 4358000    291.30795    -1595.309   -23012.904   -24842.483     1829.579    1.1610133    30.985945    30.985945    30.985945    29750.497 
 4359000    300.76816   -1092.4309   -23040.312   -24929.306    1888.9945    1.1610133    30.985945    30.985945    30.985945    29750.497 
 4360000     290.1373   -1500.2625   -23103.636   -24925.863    1822.2267    1.1610133    30.985945    30.985945    30.985945    29750.497 
 4361000    303.09641   -1096.4853   -22972.405   -24876.022    1903.6172    1.1610133    30.985945    30.985945    30.985945    29750.497 
 4362000    298.60152   -1105.9033   -23025.335   -24900.722    1875.3868    1.1610133    30.985945    30.985945    30.985945    29750.497 
 4363000     296.5695   -1594.0052    -23123.18   -24985.804    1862.6246    1.1610133    30.985945    30.985945    30.985945    29750.497 
 4364000    294.90904   -1655.4916   -22974.438   -24826.634    1852.1959    1.1610133    30.985945    30.985945    30.985945    29750.497 
 4365000    290.62732   -1377.1086   -23175.177   -25000.481    1825.3043    1.1610133    30.985945    30.985945    30.985945    29750.497 
 4366000    296.63996   -1967.1628   -23047.171   -24910.238     1863.067    1.1610133    30.985945    30.985945    30.985945    29750.497 
 4367000    292.51313   -1544.7315   -23081.346   -24918.494    1837.1483    1.1610133    30.985945    30.985945    30.985945    29750.497 
 4368000    302.20218   -1935.8362   -23050.074   -24948.075    1898.0009    1.1610133    30.985945    30.985945    30.985945    29750.497 
 4369000    299.82424   -1736.8642   -23124.982   -25008.048    1883.0662    1.1610133    30.985945    30.985945    30.985945    29750.497 
 4370000    305.20773   -517.42868   -23035.402   -24952.279    1916.8775    1.1610133    30.985945    30.985945    30.985945    29750.497 
 4371000    305.02222   -2666.8265   -23084.506   -25000.219    1915.7124    1.1610133    30.985945    30.985945    30.985945    29750.497 
 4372000    295.14844   -1403.0257   -23111.973   -24965.673    1853.6995    1.1610133    30.985945    30.985945    30.985945    29750.497 
 4373000    297.89998   -1377.9584   -23066.146   -24937.127    1870.9807    1.1610133    30.985945    30.985945    30.985945    29750.497 
 4374000     305.2551   -1541.7546   -23065.925     -24983.1    1917.1751    1.1610133    30.985945    30.985945    30.985945    29750.497 
 4375000    298.68434   -1663.2154   -23099.391   -24975.298    1875.9069    1.1610133    30.985945    30.985945    30.985945    29750.497 
 4376000    294.24671   -1589.3765   -23160.822   -25008.858    1848.0361    1.1610133    30.985945    30.985945    30.985945    29750.497 
 4377000    296.05559   -1985.1042   -23036.125   -24895.522    1859.3969    1.1610133    30.985945    30.985945    30.985945    29750.497 
 4378000    304.55281   -1917.5435   -23070.412   -24983.176    1912.7642    1.1610133    30.985945    30.985945    30.985945    29750.497 
 4379000    302.20637   -827.47996   -23038.459   -24936.486    1898.0273    1.1610133    30.985945    30.985945    30.985945    29750.497 
 4380000     299.5781   -1752.5313   -23087.877   -24969.397    1881.5203    1.1610133    30.985945    30.985945    30.985945    29750.497 
 4381000    302.34054   -1944.1918   -23056.535   -24955.405      1898.87    1.1610133    30.985945    30.985945    30.985945    29750.497 
 4382000    295.75389   -1381.7379   -23160.833   -25018.335    1857.5021    1.1610133    30.985945    30.985945    30.985945    29750.497 
 4383000    299.30465   -2442.4549    -23059.86   -24939.663    1879.8029    1.1610133    30.985945    30.985945    30.985945    29750.497 
 4384000    298.97937   -2400.3534     -23058.8    -24936.56    1877.7599    1.1610133    30.985945    30.985945    30.985945    29750.497 
 4385000    298.40096   -1886.1137   -23032.683    -24906.81    1874.1271    1.1610133    30.985945    30.985945    30.985945    29750.497 
 4386000    301.34819   -1591.7656   -23020.961   -24913.599    1892.6374    1.1610133    30.985945    30.985945    30.985945    29750.497 
 4387000    301.30769   -2215.4302   -23039.739   -24932.122     1892.383    1.1610133    30.985945    30.985945    30.985945    29750.497 
 4388000    299.08328   -1828.2671   -23125.128    -25003.54    1878.4125    1.1610133    30.985945    30.985945    30.985945    29750.497 
 4389000    294.29268   -2326.2908   -23131.307   -24979.632    1848.3248    1.1610133    30.985945    30.985945    30.985945    29750.497 
 4390000     294.8117   -1482.5564   -23033.756    -24885.34    1851.5846    1.1610133    30.985945    30.985945    30.985945    29750.497 
 4391000    291.07787   -1239.7619   -23157.364   -24985.498     1828.134    1.1610133    30.985945    30.985945    30.985945    29750.497 
 4392000    296.87211   -1621.9266    -23170.25   -25034.775    1864.5251    1.1610133    30.985945    30.985945    30.985945    29750.497 
 4393000    296.15827   -1898.0575   -23112.424   -24972.466    1860.0418    1.1610133    30.985945    30.985945    30.985945    29750.497 
 4394000    298.78532   -2040.9183   -23111.464   -24988.005    1876.5412    1.1610133    30.985945    30.985945    30.985945    29750.497 
 4395000    290.75144   -1347.2179   -23141.254   -24967.338    1826.0838    1.1610133    30.985945    30.985945    30.985945    29750.497 
 4396000    295.88216   -2880.2644   -23168.877   -25027.184    1858.3077    1.1610133    30.985945    30.985945    30.985945    29750.497 
 4397000    289.64301   -922.06161   -23300.843   -25119.965    1819.1222    1.1610133    30.985945    30.985945    30.985945    29750.497 
 4398000    295.37102   -2177.5797   -23216.883    -25071.98    1855.0974    1.1610133    30.985945    30.985945    30.985945    29750.497 
 4399000    300.96071   -1793.5122   -23083.698   -24973.901    1890.2038    1.1610133    30.985945    30.985945    30.985945    29750.497 
 4400000    283.95438    -1744.768   -23107.824   -24891.218    1783.3945    1.1610133    30.985945    30.985945    30.985945    29750.497 
 4401000    297.66767   -1977.6376   -23089.196   -24958.717    1869.5217    1.1610133    30.985945    30.985945    30.985945    29750.497 
 4402000    301.70736   -1415.2253   -23004.992   -24899.885    1894.8932    1.1610133    30.985945    30.985945    30.985945    29750.497 
 4403000    305.12081   -2214.0789   -23120.907   -25037.239    1916.3316    1.1610133    30.985945    30.985945    30.985945    29750.497 
 4404000    291.44638   -1771.4364   -23112.144   -24942.592    1830.4484    1.1610133    30.985945    30.985945    30.985945    29750.497 
 4405000    303.85367   -1023.8647   -23066.001   -24974.374    1908.3733    1.1610133    30.985945    30.985945    30.985945    29750.497 
 4406000    302.84028   -1706.1577   -23033.042    -24935.05    1902.0086    1.1610133    30.985945    30.985945    30.985945    29750.497 
 4407000    303.41702   -2726.9776   -23116.458   -25022.088    1905.6308    1.1610133    30.985945    30.985945    30.985945    29750.497 
 4408000    295.00851   -1100.6354   -23088.111   -24940.931    1852.8206    1.1610133    30.985945    30.985945    30.985945    29750.497 
 4409000    299.37825   -1832.9484   -23117.111   -24997.377    1880.2651    1.1610133    30.985945    30.985945    30.985945    29750.497 
 4410000    298.73933   -2886.7607   -23096.316   -24972.569    1876.2523    1.1610133    30.985945    30.985945    30.985945    29750.497 
 4411000    301.74947   -3485.5417   -23205.245   -25100.403    1895.1577    1.1610133    30.985945    30.985945    30.985945    29750.497 
 4412000    300.52557   -1821.8155   -23149.541   -25037.012    1887.4709    1.1610133    30.985945    30.985945    30.985945    29750.497 
 4413000    300.95678   -1602.9886   -23090.031    -24980.21    1890.1792    1.1610133    30.985945    30.985945    30.985945    29750.497 
 4414000    299.43135    -1070.762   -23134.656   -25015.254    1880.5986    1.1610133    30.985945    30.985945    30.985945    29750.497 
 4415000    289.81865   -1990.6569   -23207.376   -25027.601    1820.2254    1.1610133    30.985945    30.985945    30.985945    29750.497 
 4416000    292.18502   -2094.2644   -23207.658   -25042.745    1835.0875    1.1610133    30.985945    30.985945    30.985945    29750.497 
 4417000    298.51112   -1898.2888    -23029.07   -24903.889     1874.819    1.1610133    30.985945    30.985945    30.985945    29750.497 
 4418000    299.72678   -1696.1067   -23044.395   -24926.849     1882.454    1.1610133    30.985945    30.985945    30.985945    29750.497 
 4419000    294.61052   -1437.7792   -23110.879     -24961.2     1850.321    1.1610133    30.985945    30.985945    30.985945    29750.497 
 4420000    306.38772   -1710.2244   -23071.303   -24995.592    1924.2885    1.1610133    30.985945    30.985945    30.985945    29750.497 
 4421000    292.89221   -2730.8546   -23118.604   -24958.133    1839.5291    1.1610133    30.985945    30.985945    30.985945    29750.497 
 4422000    308.01858   -1737.6824   -22999.446   -24933.978    1934.5313    1.1610133    30.985945    30.985945    30.985945    29750.497 
 4423000    299.38709   -3005.4248   -23098.172   -24978.492    1880.3206    1.1610133    30.985945    30.985945    30.985945    29750.497 
 4424000    296.92434   -1334.0419   -23124.456   -24989.309    1864.8532    1.1610133    30.985945    30.985945    30.985945    29750.497 
 4425000    299.21746   -1768.3993   -23090.469   -24969.724    1879.2553    1.1610133    30.985945    30.985945    30.985945    29750.497 
 4426000    300.46085   -1318.4458   -23142.534   -25029.598    1887.0644    1.1610133    30.985945    30.985945    30.985945    29750.497 
 4427000    289.10213   -1082.4856    -23054.98   -24870.706    1815.7252    1.1610133    30.985945    30.985945    30.985945    29750.497 
 4428000    299.45836   -2324.4885   -23109.745   -24990.513    1880.7682    1.1610133    30.985945    30.985945    30.985945    29750.497 
 4429000    297.15688   -1658.7049   -23056.788   -24923.102    1866.3136    1.1610133    30.985945    30.985945    30.985945    29750.497 
 4430000    292.72302    -1887.381   -23086.848   -24925.315    1838.4665    1.1610133    30.985945    30.985945    30.985945    29750.497 
 4431000     291.5146   -700.92865   -23151.199   -24982.076    1830.8769    1.1610133    30.985945    30.985945    30.985945    29750.497 
 4432000    291.63828   -1951.1862   -23185.735   -25017.389    1831.6537    1.1610133    30.985945    30.985945    30.985945    29750.497 
 4433000    306.60926   -1721.8817   -23012.742   -24938.422    1925.6799    1.1610133    30.985945    30.985945    30.985945    29750.497 
 4434000    303.13532    -1370.803   -22982.947   -24886.809    1903.8616    1.1610133    30.985945    30.985945    30.985945    29750.497 
 4435000    297.50353   -916.37067   -23034.073   -24902.564    1868.4908    1.1610133    30.985945    30.985945    30.985945    29750.497 
 4436000    303.83704   -1671.1659   -22961.208   -24869.477    1908.2688    1.1610133    30.985945    30.985945    30.985945    29750.497 
 4437000    302.08606   -2336.2729   -23071.042   -24968.313    1897.2717    1.1610133    30.985945    30.985945    30.985945    29750.497 
 4438000    294.16226   -1469.3232   -23083.781   -24931.287    1847.5057    1.1610133    30.985945    30.985945    30.985945    29750.497 
 4439000     306.9957    -1472.385   -23077.077   -25005.184     1928.107    1.1610133    30.985945    30.985945    30.985945    29750.497 
 4440000    298.49173   -1503.9922   -23032.182   -24906.879    1874.6972    1.1610133    30.985945    30.985945    30.985945    29750.497 
 4441000    297.61499   -1684.6595   -23029.772   -24898.963    1869.1908    1.1610133    30.985945    30.985945    30.985945    29750.497 
 4442000     297.2726   -1996.6681   -23010.591   -24877.632    1867.0404    1.1610133    30.985945    30.985945    30.985945    29750.497 
 4443000    299.43236   -778.70918   -23021.927   -24902.531     1880.605    1.1610133    30.985945    30.985945    30.985945    29750.497 
 4444000    301.82416   -1245.2444   -22992.412   -24888.038    1895.6268    1.1610133    30.985945    30.985945    30.985945    29750.497 
 4445000    303.60186   -1177.7384   -23064.825   -24971.617    1906.7917    1.1610133    30.985945    30.985945    30.985945    29750.497 
 4446000    286.18089    -1900.937   -23093.109   -24890.487    1797.3782    1.1610133    30.985945    30.985945    30.985945    29750.497 
 4447000    293.02236   -1025.1188   -23081.916   -24922.262    1840.3465    1.1610133    30.985945    30.985945    30.985945    29750.497 
 4448000    299.77987   -1613.4366   -23031.101   -24913.888    1882.7875    1.1610133    30.985945    30.985945    30.985945    29750.497 
 4449000    295.87313   -1987.7182   -23143.401   -25001.652    1858.2509    1.1610133    30.985945    30.985945    30.985945    29750.497 
 4450000    286.02617   -1106.2346   -23162.117   -24958.524    1796.4064    1.1610133    30.985945    30.985945    30.985945    29750.497 
 4451000    299.89355   -1182.2574   -23077.021   -24960.522    1883.5014    1.1610133    30.985945    30.985945    30.985945    29750.497 
 4452000    295.00083    -778.9356   -23066.821   -24919.593    1852.7724    1.1610133    30.985945    30.985945    30.985945    29750.497 
 4453000    298.55838   -845.50473   -23080.241   -24955.357    1875.1158    1.1610133    30.985945    30.985945    30.985945    29750.497 
 4454000    298.97935   -2314.3359   -23053.736   -24931.496    1877.7598    1.1610133    30.985945    30.985945    30.985945    29750.497 
 4455000    298.24177   -954.38052   -22991.632    -24864.76    1873.1273    1.1610133    30.985945    30.985945    30.985945    29750.497 
 4456000    297.14471   -2131.2655   -23082.784   -24949.022    1866.2372    1.1610133    30.985945    30.985945    30.985945    29750.497 
 4457000    297.17455   -1442.9481   -23100.748   -24967.172    1866.4246    1.1610133    30.985945    30.985945    30.985945    29750.497 
 4458000    296.03748   -941.36683   -23146.861   -25006.144    1859.2832    1.1610133    30.985945    30.985945    30.985945    29750.497 
 4459000    300.95326   -2076.5628   -23070.789   -24960.947    1890.1571    1.1610133    30.985945    30.985945    30.985945    29750.497 
 4460000    305.78891    -1937.234   -22970.706   -24891.233    1920.5277    1.1610133    30.985945    30.985945    30.985945    29750.497 
 4461000    294.55129   -1015.5649   -23088.163   -24938.112     1849.949    1.1610133    30.985945    30.985945    30.985945    29750.497 
 4462000    296.05016    -2676.306   -23056.652   -24916.015    1859.3628    1.1610133    30.985945    30.985945    30.985945    29750.497 
 4463000    304.59682   -1289.4545    -23090.66   -25003.701    1913.0407    1.1610133    30.985945    30.985945    30.985945    29750.497 
 4464000    292.79257   -2465.4949   -23108.301   -24947.205    1838.9033    1.1610133    30.985945    30.985945    30.985945    29750.497 
 4465000    296.61264   -2393.9506   -23035.118   -24898.014    1862.8955    1.1610133    30.985945    30.985945    30.985945    29750.497 
 4466000    295.50138   -1418.5689   -23046.606   -24902.522    1855.9161    1.1610133    30.985945    30.985945    30.985945    29750.497 
 4467000     294.7853   -2912.2291   -23071.088   -24922.507    1851.4187    1.1610133    30.985945    30.985945    30.985945    29750.497 
 4468000    295.56684   -1606.0825   -23090.432   -24946.759    1856.3273    1.1610133    30.985945    30.985945    30.985945    29750.497 
 4469000    295.85638   -1411.5046   -23124.958   -24983.103    1858.1458    1.1610133    30.985945    30.985945    30.985945    29750.497 
 4470000    292.54878    -1822.082   -23123.094   -24960.466    1837.3722    1.1610133    30.985945    30.985945    30.985945    29750.497 
 4471000    300.16677   -1916.5427    -22997.61   -24882.828    1885.2175    1.1610133    30.985945    30.985945    30.985945    29750.497 
 4472000    304.87455   -1920.7536   -23086.429   -25001.214     1914.785    1.1610133    30.985945    30.985945    30.985945    29750.497 
 4473000    295.36645   -532.91186   -23101.255   -24956.324    1855.0687    1.1610133    30.985945    30.985945    30.985945    29750.497 
 4474000    300.39791   -1362.0242   -23094.535   -24981.205    1886.6691    1.1610133    30.985945    30.985945    30.985945    29750.497 
 4475000     303.0809    -1325.328   -23050.332   -24953.851    1903.5198    1.1610133    30.985945    30.985945    30.985945    29750.497 
 4476000    296.24392   -1128.7339   -23046.903   -24907.482    1860.5797    1.1610133    30.985945    30.985945    30.985945    29750.497 
 4477000    296.94869   -1782.3386   -22970.045   -24835.051    1865.0061    1.1610133    30.985945    30.985945    30.985945    29750.497 
 4478000    294.51886   -1479.7259   -23038.166   -24887.911    1849.7454    1.1610133    30.985945    30.985945    30.985945    29750.497 
 4479000    293.51774   -1184.4022   -23054.353    -24897.81    1843.4578    1.1610133    30.985945    30.985945    30.985945    29750.497 
 4480000    288.44806   -1048.2544   -22978.587   -24790.204    1811.6173    1.1610133    30.985945    30.985945    30.985945    29750.497 
 4481000    297.90224   -1362.5293   -22947.283   -24818.278    1870.9949    1.1610133    30.985945    30.985945    30.985945    29750.497 
 4482000    302.35319   -1571.7064   -22882.307   -24781.257    1898.9494    1.1610133    30.985945    30.985945    30.985945    29750.497 
 4483000     297.7987    -1090.472    -22979.67   -24850.015    1870.3446    1.1610133    30.985945    30.985945    30.985945    29750.497 
 4484000    291.99825   -2241.6884   -23049.309   -24883.223    1833.9145    1.1610133    30.985945    30.985945    30.985945    29750.497 
 4485000    298.39045   -1263.0845   -23034.097   -24908.158    1874.0611    1.1610133    30.985945    30.985945    30.985945    29750.497 
 4486000    299.98445    -2675.176   -22973.498    -24857.57    1884.0724    1.1610133    30.985945    30.985945    30.985945    29750.497 
 4487000    303.03919    -1091.297   -22967.857   -24871.115    1903.2579    1.1610133    30.985945    30.985945    30.985945    29750.497 
 4488000    305.65222   -1964.6816    -23027.71   -24947.379    1919.6692    1.1610133    30.985945    30.985945    30.985945    29750.497 
 4489000     307.3239   -1127.3059   -22914.654   -24844.822    1930.1683    1.1610133    30.985945    30.985945    30.985945    29750.497 
 4490000    298.17024   -2355.8937    -23069.35   -24942.028    1872.6781    1.1610133    30.985945    30.985945    30.985945    29750.497 
 4491000    296.59431   -1752.0546   -23006.636   -24869.416    1862.7804    1.1610133    30.985945    30.985945    30.985945    29750.497 
 4492000    303.33785   -2429.8127   -23084.985   -24990.119    1905.1336    1.1610133    30.985945    30.985945    30.985945    29750.497 
 4493000    291.09678   -1128.2895   -23095.808   -24924.061    1828.2527    1.1610133    30.985945    30.985945    30.985945    29750.497 
 4494000    294.93507   -922.86463   -23118.087   -24970.447    1852.3594    1.1610133    30.985945    30.985945    30.985945    29750.497 
 4495000    294.17689    -2053.202   -23123.745   -24971.343    1847.5976    1.1610133    30.985945    30.985945    30.985945    29750.497 
 4496000    298.34124   -1560.6227   -23027.608   -24901.361    1873.7521    1.1610133    30.985945    30.985945    30.985945    29750.497 
 4497000    306.92848   -1366.7039    -22979.85   -24907.535    1927.6848    1.1610133    30.985945    30.985945    30.985945    29750.497 
 4498000    299.04288    -1315.649   -23012.095   -24890.254    1878.1588    1.1610133    30.985945    30.985945    30.985945    29750.497 
 4499000    296.20355   -909.69905   -23026.891   -24887.217    1860.3262    1.1610133    30.985945    30.985945    30.985945    29750.497 
 4500000    277.83479   -1565.3189   -23196.185   -24941.145      1744.96    1.1610133    30.985945    30.985945    30.985945    29750.497 
 4501000     309.3444   -2099.5687   -22991.042     -24933.9    1942.8582    1.1610133    30.985945    30.985945    30.985945    29750.497 
 4502000    293.36712   -1138.7536   -23008.907   -24851.419    1842.5118    1.1610133    30.985945    30.985945    30.985945    29750.497 
 4503000    292.53713   -918.99116   -22991.535   -24828.834     1837.299    1.1610133    30.985945    30.985945    30.985945    29750.497 
 4504000    298.29947   -1167.6821   -23000.361   -24873.851    1873.4898    1.1610133    30.985945    30.985945    30.985945    29750.497 
 4505000     301.4927   -1282.0896   -22972.791   -24866.336     1893.545    1.1610133    30.985945    30.985945    30.985945    29750.497 
 4506000    298.49936   -1507.6227   -23034.865    -24909.61    1874.7452    1.1610133    30.985945    30.985945    30.985945    29750.497 
 4507000    291.03874   -724.12681    -23106.45   -24934.339    1827.8882    1.1610133    30.985945    30.985945    30.985945    29750.497 
 4508000    304.93171   -1366.2219   -22955.902   -24871.046     1915.144    1.1610133    30.985945    30.985945    30.985945    29750.497 
 4509000    308.23311   -2242.7147   -23022.405   -24958.284    1935.8786    1.1610133    30.985945    30.985945    30.985945    29750.497 
 4510000    306.78664    -2177.335   -23042.563   -24969.357     1926.794    1.1610133    30.985945    30.985945    30.985945    29750.497 
 4511000    297.58425   -2353.6196   -23114.534   -24983.532    1868.9977    1.1610133    30.985945    30.985945    30.985945    29750.497 
 4512000    302.25465   -1838.1091   -23046.673   -24945.003    1898.3305    1.1610133    30.985945    30.985945    30.985945    29750.497 
 4513000    297.57133   -1274.3244   -23057.115   -24926.032    1868.9166    1.1610133    30.985945    30.985945    30.985945    29750.497 
 4514000    288.85027   -441.68533   -23139.887   -24954.031    1814.1434    1.1610133    30.985945    30.985945    30.985945    29750.497 
 4515000    305.81522   -1061.3937   -22996.021   -24916.714    1920.6929    1.1610133    30.985945    30.985945    30.985945    29750.497 
 4516000    294.10798   -1407.0633   -23100.739   -24947.904    1847.1648    1.1610133    30.985945    30.985945    30.985945    29750.497 
 4517000    293.75263   -1257.0225   -23096.246   -24941.179     1844.933    1.1610133    30.985945    30.985945    30.985945    29750.497 
 4518000    301.02125   -3142.9038   -23088.997   -24979.581    1890.5841    1.1610133    30.985945    30.985945    30.985945    29750.497 
 4519000    303.26718   -1698.0731    -23157.14    -25061.83    1904.6898    1.1610133    30.985945    30.985945    30.985945    29750.497 
 4520000    299.70764   -2035.8537   -23029.437   -24911.771    1882.3339    1.1610133    30.985945    30.985945    30.985945    29750.497 
 4521000    300.49582   -1296.9391   -23064.245   -24951.529    1887.2841    1.1610133    30.985945    30.985945    30.985945    29750.497 
 4522000    303.96849   -1873.1356   -23068.853   -24977.947    1909.0944    1.1610133    30.985945    30.985945    30.985945    29750.497 
 4523000    301.29037   -2042.4546   -23061.794   -24954.068    1892.2743    1.1610133    30.985945    30.985945    30.985945    29750.497 
 4524000    290.17048   -1394.1173   -23118.922   -24941.357    1822.4351    1.1610133    30.985945    30.985945    30.985945    29750.497 
 4525000    303.54766   -1486.4327   -22957.872   -24864.324    1906.4514    1.1610133    30.985945    30.985945    30.985945    29750.497 
 4526000    301.92108   -810.50621   -22978.487   -24874.723    1896.2355    1.1610133    30.985945    30.985945    30.985945    29750.497 
 4527000    294.70252   -830.92782    -23080.63   -24931.529    1850.8988    1.1610133    30.985945    30.985945    30.985945    29750.497 
 4528000    300.87857   -2444.2073   -23077.654   -24967.342     1889.688    1.1610133    30.985945    30.985945    30.985945    29750.497 
 4529000    298.32577   -763.73037   -23064.296   -24937.951    1873.6549    1.1610133    30.985945    30.985945    30.985945    29750.497 
 4530000    295.29905   -2844.4396   -23156.916   -25011.562    1854.6454    1.1610133    30.985945    30.985945    30.985945    29750.497 
 4531000    296.05204   -558.29178   -23098.229   -24957.603    1859.3746    1.1610133    30.985945    30.985945    30.985945    29750.497 
 4532000    290.66202   -1333.0217   -23197.532   -25023.054    1825.5222    1.1610133    30.985945    30.985945    30.985945    29750.497 
 4533000    297.43772   -709.51215    -23098.16   -24966.238    1868.0774    1.1610133    30.985945    30.985945    30.985945    29750.497 
 4534000    288.81075   -1116.8116   -23176.549   -24990.444    1813.8952    1.1610133    30.985945    30.985945    30.985945    29750.497 
 4535000    298.04841   -1547.7147   -23114.905   -24986.818     1871.913    1.1610133    30.985945    30.985945    30.985945    29750.497 
 4536000    292.79498   -1119.8375   -23007.071   -24845.989    1838.9184    1.1610133    30.985945    30.985945    30.985945    29750.497 
 4537000     298.2054   -1445.8964   -23094.717   -24967.616    1872.8989    1.1610133    30.985945    30.985945    30.985945    29750.497 
 4538000    293.58884   -1953.0936    -23163.42   -25007.324    1843.9043    1.1610133    30.985945    30.985945    30.985945    29750.497 
 4539000    293.53916   -2097.4148   -23162.602   -25006.194    1843.5923    1.1610133    30.985945    30.985945    30.985945    29750.497 
 4540000    300.67186   -1599.5491   -23109.095   -24997.484    1888.3897    1.1610133    30.985945    30.985945    30.985945    29750.497 
 4541000    297.37477   -1880.5778   -22979.891   -24847.573    1867.6821    1.1610133    30.985945    30.985945    30.985945    29750.497 
 4542000    298.28164   -1096.7752   -22985.072    -24858.45    1873.3778    1.1610133    30.985945    30.985945    30.985945    29750.497 
 4543000    296.33417    -2195.647    -23110.52   -24971.667    1861.1465    1.1610133    30.985945    30.985945    30.985945    29750.497 
 4544000     297.9203   -2196.2438   -23116.907   -24988.015    1871.1084    1.1610133    30.985945    30.985945    30.985945    29750.497 
 4545000    301.45604   -2699.3688   -23128.242   -25021.557    1893.3148    1.1610133    30.985945    30.985945    30.985945    29750.497 
 4546000    296.74781    -1589.071    -23138.44   -25002.184    1863.7445    1.1610133    30.985945    30.985945    30.985945    29750.497 
 4547000    298.37156   -2095.8569   -23023.733   -24897.676    1873.9425    1.1610133    30.985945    30.985945    30.985945    29750.497 
 4548000    299.38159     -2095.52   -23147.062   -25027.348    1880.2861    1.1610133    30.985945    30.985945    30.985945    29750.497 
 4549000    296.01436   -1394.0133   -23074.124   -24933.262     1859.138    1.1610133    30.985945    30.985945    30.985945    29750.497 
 4550000    289.42804   -1776.0103   -23109.225   -24926.997    1817.7721    1.1610133    30.985945    30.985945    30.985945    29750.497 
 4551000    290.42038   -2027.7945   -23123.517   -24947.521    1824.0046    1.1610133    30.985945    30.985945    30.985945    29750.497 
 4552000    288.09022   -1081.8433   -23132.301   -24941.671    1809.3699    1.1610133    30.985945    30.985945    30.985945    29750.497 
 4553000    301.44853   -957.72714   -23090.556   -24983.823    1893.2676    1.1610133    30.985945    30.985945    30.985945    29750.497 
 4554000     301.6531   -2124.4428   -23014.287   -24908.839    1894.5525    1.1610133    30.985945    30.985945    30.985945    29750.497 
 4555000    293.06842   -720.98429     -23131.6   -24972.236    1840.6358    1.1610133    30.985945    30.985945    30.985945    29750.497 
 4556000    294.87778   -2352.5496   -23111.679   -24963.679    1851.9996    1.1610133    30.985945    30.985945    30.985945    29750.497 
 4557000    295.06543   -1715.1987    -23070.37   -24923.548    1853.1781    1.1610133    30.985945    30.985945    30.985945    29750.497 
 4558000    306.89098   -1194.8993   -23010.282   -24937.731    1927.4493    1.1610133    30.985945    30.985945    30.985945    29750.497 
 4559000    304.01817    -1915.719    -22978.31   -24887.717    1909.4064    1.1610133    30.985945    30.985945    30.985945    29750.497 
 4560000    302.24365   -2018.8615    -22969.15   -24867.411    1898.2614    1.1610133    30.985945    30.985945    30.985945    29750.497 
 4561000    305.90082   -2670.1354   -23010.513   -24931.744    1921.2305    1.1610133    30.985945    30.985945    30.985945    29750.497 
 4562000    297.86509   -2053.5299   -23066.514   -24937.276    1870.7616    1.1610133    30.985945    30.985945    30.985945    29750.497 
 4563000    295.27084   -1729.9762   -23166.538   -25021.007    1854.4683    1.1610133    30.985945    30.985945    30.985945    29750.497 
 4564000    301.15288   -782.05135   -23041.048   -24932.459    1891.4108    1.1610133    30.985945    30.985945    30.985945    29750.497 
 4565000    304.35174   -1305.2803   -23023.406   -24934.908    1911.5014    1.1610133    30.985945    30.985945    30.985945    29750.497 
 4566000    296.67761   -2318.7827    -23109.85   -24973.154    1863.3035    1.1610133    30.985945    30.985945    30.985945    29750.497 
 4567000    296.71056   -1492.5501    -23036.56    -24900.07    1863.5105    1.1610133    30.985945    30.985945    30.985945    29750.497 
 4568000    303.43387   -1509.9925   -23070.442   -24976.178    1905.7367    1.1610133    30.985945    30.985945    30.985945    29750.497 
 4569000     288.6207    -1382.872   -23152.238   -24964.939    1812.7016    1.1610133    30.985945    30.985945    30.985945    29750.497 
 4570000    300.20977   -1850.1589   -23078.135   -24963.623    1885.4875    1.1610133    30.985945    30.985945    30.985945    29750.497 
 4571000     297.4036   -1902.3399   -23036.557    -24904.42    1867.8632    1.1610133    30.985945    30.985945    30.985945    29750.497 
 4572000    305.21443   -1356.7238    -23036.42   -24953.339    1916.9196    1.1610133    30.985945    30.985945    30.985945    29750.497 
 4573000    300.77938   -1317.8062   -23066.956   -24956.021     1889.065    1.1610133    30.985945    30.985945    30.985945    29750.497 
 4574000    292.87492   -2304.2084   -23095.037   -24934.457    1839.4205    1.1610133    30.985945    30.985945    30.985945    29750.497 
 4575000    289.38834   -2120.0198   -23144.764   -24962.286    1817.5228    1.1610133    30.985945    30.985945    30.985945    29750.497 
 4576000    298.89759   -1386.5779   -23111.589   -24988.835    1877.2463    1.1610133    30.985945    30.985945    30.985945    29750.497 
 4577000    293.81786   -2340.4851   -23107.795   -24953.138    1845.3427    1.1610133    30.985945    30.985945    30.985945    29750.497 
 4578000    308.34489   -918.19818   -22936.648   -24873.229    1936.5807    1.1610133    30.985945    30.985945    30.985945    29750.497 
 4579000    304.62414   -1786.6214   -23012.828    -24926.04    1913.2123    1.1610133    30.985945    30.985945    30.985945    29750.497 
 4580000    306.38789   -1137.6067   -22975.879   -24900.168    1924.2896    1.1610133    30.985945    30.985945    30.985945    29750.497 
 4581000    298.82102   -1262.0888   -23100.661   -24977.427    1876.7654    1.1610133    30.985945    30.985945    30.985945    29750.497 
 4582000     296.0374   -2191.2679   -23036.361   -24895.644    1859.2827    1.1610133    30.985945    30.985945    30.985945    29750.497 
 4583000    292.54109   -2182.7788    -23172.43   -25009.754    1837.3239    1.1610133    30.985945    30.985945    30.985945    29750.497 
 4584000    297.15362    -2529.949     -23108.8   -24975.093    1866.2932    1.1610133    30.985945    30.985945    30.985945    29750.497 
 4585000    306.90765   -1879.3064   -22962.923   -24890.477     1927.554    1.1610133    30.985945    30.985945    30.985945    29750.497 
 4586000    299.31533   -1161.5625   -23030.602   -24910.472    1879.8699    1.1610133    30.985945    30.985945    30.985945    29750.497 
 4587000    300.80839   -1641.9462   -23091.186   -24980.433    1889.2472    1.1610133    30.985945    30.985945    30.985945    29750.497 
 4588000    296.93117   -2276.5834   -23100.967   -24965.863    1864.8961    1.1610133    30.985945    30.985945    30.985945    29750.497 
 4589000    292.96449   -1705.7872   -23130.356   -24970.339     1839.983    1.1610133    30.985945    30.985945    30.985945    29750.497 
 4590000    294.21582   -1796.2964   -23118.866   -24966.708    1847.8421    1.1610133    30.985945    30.985945    30.985945    29750.497 
 4591000    288.33546   -2273.7072   -23164.043   -24974.953    1810.9101    1.1610133    30.985945    30.985945    30.985945    29750.497 
 4592000     299.4898   -1815.1434    -23156.55   -25037.516    1880.9657    1.1610133    30.985945    30.985945    30.985945    29750.497 
 4593000    296.98562   -1306.5747   -23133.671   -24998.909     1865.238    1.1610133    30.985945    30.985945    30.985945    29750.497 
 4594000     303.8193   -1904.0948   -23058.204   -24966.362    1908.1574    1.1610133    30.985945    30.985945    30.985945    29750.497 
 4595000    302.57243   -1310.8786   -23124.762   -25025.089    1900.3264    1.1610133    30.985945    30.985945    30.985945    29750.497 
 4596000    298.27881   -1994.3553   -23140.692   -25014.052      1873.36    1.1610133    30.985945    30.985945    30.985945    29750.497 
 4597000    304.77949   -1806.7658   -23055.668   -24969.856    1914.1879    1.1610133    30.985945    30.985945    30.985945    29750.497 
 4598000    284.95081   -1283.6082   -23105.511   -24895.164    1789.6526    1.1610133    30.985945    30.985945    30.985945    29750.497 
 4599000    289.48445   -1758.2846   -23119.006   -24937.133    1818.1264    1.1610133    30.985945    30.985945    30.985945    29750.497 
 4600000    303.38165   -872.31767   -23025.906   -24931.315    1905.4087    1.1610133    30.985945    30.985945    30.985945    29750.497 
 4601000    307.23117   -2227.2515   -22968.357   -24897.943    1929.5858    1.1610133    30.985945    30.985945    30.985945    29750.497 
 4602000    293.50981    -1897.899   -23071.489   -24914.897     1843.408    1.1610133    30.985945    30.985945    30.985945    29750.497 
 4603000    295.60744   -852.37344   -23091.913   -24948.496    1856.5823    1.1610133    30.985945    30.985945    30.985945    29750.497 
 4604000    300.26288   -1526.0856   -23049.621   -24935.442    1885.8211    1.1610133    30.985945    30.985945    30.985945    29750.497 
 4605000    293.88209   -1571.7701   -23140.262   -24986.008    1845.7461    1.1610133    30.985945    30.985945    30.985945    29750.497 
 4606000    298.61843    -682.5133   -23098.055   -24973.548     1875.493    1.1610133    30.985945    30.985945    30.985945    29750.497 
 4607000    296.55268   -1809.9872   -23136.552   -24999.071    1862.5189    1.1610133    30.985945    30.985945    30.985945    29750.497 
 4608000    294.57769   -37.662141   -23125.445    -24975.56    1850.1148    1.1610133    30.985945    30.985945    30.985945    29750.497 
 4609000    293.03733   -2066.1076   -23103.895   -24944.336    1840.4405    1.1610133    30.985945    30.985945    30.985945    29750.497 
 4610000    301.35207   -2688.6704   -23078.399   -24971.061    1892.6618    1.1610133    30.985945    30.985945    30.985945    29750.497 
 4611000    293.02387   -1072.1771   -23081.941   -24922.297     1840.356    1.1610133    30.985945    30.985945    30.985945    29750.497 
 4612000    301.16817   -1641.7434   -23055.877   -24947.384    1891.5068    1.1610133    30.985945    30.985945    30.985945    29750.497 
 4613000    301.69617   -1290.8664   -23049.524   -24944.347     1894.823    1.1610133    30.985945    30.985945    30.985945    29750.497 
 4614000    307.45028   -701.17048   -23047.181   -24978.143     1930.962    1.1610133    30.985945    30.985945    30.985945    29750.497 
 4615000    293.40991   -1093.6358   -23066.043   -24908.824    1842.7805    1.1610133    30.985945    30.985945    30.985945    29750.497 
 4616000    295.63086   -1508.2409   -23093.317   -24950.046    1856.7293    1.1610133    30.985945    30.985945    30.985945    29750.497 
 4617000    298.16577   -2027.6169   -23085.842   -24958.492      1872.65    1.1610133    30.985945    30.985945    30.985945    29750.497 
 4618000    290.30129   -1854.7564   -23128.574   -24951.831    1823.2567    1.1610133    30.985945    30.985945    30.985945    29750.497 
 4619000    305.66022   -1144.2127    -22988.86   -24908.579    1919.7194    1.1610133    30.985945    30.985945    30.985945    29750.497 
 4620000    296.64492   -1706.1689   -23005.735   -24868.834    1863.0982    1.1610133    30.985945    30.985945    30.985945    29750.497 
 4621000    297.83168   -2230.6252   -23077.844   -24948.396    1870.5517    1.1610133    30.985945    30.985945    30.985945    29750.497 
 4622000    307.17698   -2053.0996   -22919.313   -24848.558    1929.2455    1.1610133    30.985945    30.985945    30.985945    29750.497 
 4623000    297.30601   -1688.5857   -23119.525   -24986.775    1867.2503    1.1610133    30.985945    30.985945    30.985945    29750.497 
 4624000    301.39255   -1530.3953   -23172.065   -25064.981    1892.9161    1.1610133    30.985945    30.985945    30.985945    29750.497 
 4625000    306.85563   -1582.9871   -23003.134   -24930.361    1927.2273    1.1610133    30.985945    30.985945    30.985945    29750.497 
 4626000    297.70497   -2584.7646   -23074.266   -24944.022     1869.756    1.1610133    30.985945    30.985945    30.985945    29750.497 
 4627000      293.037   -1756.1635   -23076.656   -24917.095    1840.4384    1.1610133    30.985945    30.985945    30.985945    29750.497 
 4628000    301.19696    -1661.222   -22923.782   -24815.469    1891.6876    1.1610133    30.985945    30.985945    30.985945    29750.497 
 4629000    299.55741   -2217.3871   -23050.783   -24932.173    1881.3903    1.1610133    30.985945    30.985945    30.985945    29750.497 
 4630000    293.70672   -2174.5752   -23094.575    -24939.22    1844.6447    1.1610133    30.985945    30.985945    30.985945    29750.497 
 4631000    288.67638   -1224.5187   -23229.847   -25042.899    1813.0513    1.1610133    30.985945    30.985945    30.985945    29750.497 
 4632000    305.19019   -1369.2562   -22981.168   -24897.936    1916.7673    1.1610133    30.985945    30.985945    30.985945    29750.497 
 4633000    287.89743   -2663.7174   -23089.128   -24897.287     1808.159    1.1610133    30.985945    30.985945    30.985945    29750.497 
 4634000    303.41791   -1228.7718    -23069.28   -24974.916    1905.6364    1.1610133    30.985945    30.985945    30.985945    29750.497 
 4635000    298.66214   -949.61077   -23039.736   -24915.503    1875.7675    1.1610133    30.985945    30.985945    30.985945    29750.497 
 4636000    297.37173   -1863.4263   -23000.381   -24868.044     1867.663    1.1610133    30.985945    30.985945    30.985945    29750.497 
 4637000    296.79323   -2298.8872   -23113.024   -24977.054    1864.0297    1.1610133    30.985945    30.985945    30.985945    29750.497 
 4638000    302.74205   -1781.6747   -23088.526   -24989.918    1901.3917    1.1610133    30.985945    30.985945    30.985945    29750.497 
 4639000       306.61   -1726.8125   -23071.512   -24997.197    1925.6846    1.1610133    30.985945    30.985945    30.985945    29750.497 
 4640000    303.88804   -1486.4785    -23030.44   -24939.029    1908.5891    1.1610133    30.985945    30.985945    30.985945    29750.497 
 4641000    295.27989   -2576.2139   -23122.074   -24976.599    1854.5251    1.1610133    30.985945    30.985945    30.985945    29750.497 
 4642000    292.32933   -2159.1813   -23104.213   -24940.207    1835.9939    1.1610133    30.985945    30.985945    30.985945    29750.497 
 4643000    290.57099   -1401.5846   -23104.026   -24928.976    1824.9505    1.1610133    30.985945    30.985945    30.985945    29750.497 
 4644000    316.40471   -2192.4655    -22899.17   -24886.371    1987.2009    1.1610133    30.985945    30.985945    30.985945    29750.497 
 4645000    291.24656   -1013.2493    -23140.08   -24969.273    1829.1935    1.1610133    30.985945    30.985945    30.985945    29750.497 
 4646000    295.37342    -1633.265   -23038.094   -24893.207    1855.1125    1.1610133    30.985945    30.985945    30.985945    29750.497 
 4647000    291.54043   -2259.2616   -23103.807   -24934.846    1831.0392    1.1610133    30.985945    30.985945    30.985945    29750.497 
 4648000     298.5563   -2539.3781   -23084.985   -24960.088    1875.1028    1.1610133    30.985945    30.985945    30.985945    29750.497 
 4649000    297.97651   -1668.6626   -22971.816   -24843.277    1871.4614    1.1610133    30.985945    30.985945    30.985945    29750.497 
 4650000    293.91529   -1321.8604   -23060.324   -24906.279    1845.9546    1.1610133    30.985945    30.985945    30.985945    29750.497 
 4651000    292.95779   -1211.5132   -23056.732   -24896.673     1839.941    1.1610133    30.985945    30.985945    30.985945    29750.497 
 4652000    310.92833   -1409.8431   -23020.342   -24973.148    1952.8061    1.1610133    30.985945    30.985945    30.985945    29750.497 
 4653000    287.39373   -1327.7137   -23091.797   -24896.792    1804.9955    1.1610133    30.985945    30.985945    30.985945    29750.497 
 4654000    307.51476   -2489.7714   -22994.999   -24926.366     1931.367    1.1610133    30.985945    30.985945    30.985945    29750.497 
 4655000    292.59593   -1292.1507   -23128.055   -24965.724    1837.6683    1.1610133    30.985945    30.985945    30.985945    29750.497 
 4656000    302.08709   -667.41824   -22936.717   -24833.995    1897.2781    1.1610133    30.985945    30.985945    30.985945    29750.497 
 4657000    298.13723   -436.90258   -23108.631   -24981.102    1872.4708    1.1610133    30.985945    30.985945    30.985945    29750.497 
 4658000    300.74212   -1804.9871   -23106.159    -24994.99    1888.8309    1.1610133    30.985945    30.985945    30.985945    29750.497 
 4659000    301.17651   -2232.2887   -23123.188   -25014.747    1891.5592    1.1610133    30.985945    30.985945    30.985945    29750.497 
 4660000    295.02953   -1930.9326   -23233.038   -25085.991    1852.9526    1.1610133    30.985945    30.985945    30.985945    29750.497 
 4661000    292.27866   -1689.7818   -23203.014    -25038.69    1835.6756    1.1610133    30.985945    30.985945    30.985945    29750.497 
 4662000    284.99464   -409.44645   -23150.904   -24940.832    1789.9278    1.1610133    30.985945    30.985945    30.985945    29750.497 
 4663000    296.35864   -1088.6274   -23128.962   -24990.262    1861.3003    1.1610133    30.985945    30.985945    30.985945    29750.497 
 4664000     299.9356   -1470.4592   -23108.649   -24992.414    1883.7655    1.1610133    30.985945    30.985945    30.985945    29750.497 
 4665000    302.15119     -1712.48   -23102.076   -24999.757    1897.6807    1.1610133    30.985945    30.985945    30.985945    29750.497 
 4666000    292.50604   -1819.3601     -23087.9   -24925.003    1837.1037    1.1610133    30.985945    30.985945    30.985945    29750.497 
 4667000    297.04347   -1681.9636   -23124.836   -24990.437    1865.6014    1.1610133    30.985945    30.985945    30.985945    29750.497 
 4668000    291.28433   -1905.4624   -23131.516   -24960.947    1829.4307    1.1610133    30.985945    30.985945    30.985945    29750.497 
 4669000    292.70353   -1251.2669   -23186.798   -25025.142    1838.3441    1.1610133    30.985945    30.985945    30.985945    29750.497 
 4670000    293.54225   -1329.5266   -23078.434   -24922.046    1843.6117    1.1610133    30.985945    30.985945    30.985945    29750.497 
 4671000    300.33288   -1753.8047   -23159.802   -25046.063    1886.2607    1.1610133    30.985945    30.985945    30.985945    29750.497 
 4672000    295.55899   -1616.4569   -23200.865   -25057.143     1856.278    1.1610133    30.985945    30.985945    30.985945    29750.497 
 4673000    300.35051   -1969.2705   -23095.594   -24981.965    1886.3715    1.1610133    30.985945    30.985945    30.985945    29750.497 
 4674000    302.10712   -1416.1842   -23042.077   -24939.481     1897.404    1.1610133    30.985945    30.985945    30.985945    29750.497 
 4675000    303.90981   -1208.1328   -23126.104    -25034.83    1908.7258    1.1610133    30.985945    30.985945    30.985945    29750.497 
 4676000    301.40298   -913.92648   -22959.202   -24852.184    1892.9816    1.1610133    30.985945    30.985945    30.985945    29750.497 
 4677000    303.00788   -2425.4964   -23027.507   -24930.568    1903.0612    1.1610133    30.985945    30.985945    30.985945    29750.497 
 4678000    301.73691   -960.68245     -23076.3   -24971.379    1895.0788    1.1610133    30.985945    30.985945    30.985945    29750.497 
 4679000    295.92219   -1749.6984   -23072.361    -24930.92    1858.5591    1.1610133    30.985945    30.985945    30.985945    29750.497 
 4680000    298.04478     -1857.77   -22973.515   -24845.405    1871.8901    1.1610133    30.985945    30.985945    30.985945    29750.497 
 4681000    303.95982   -2682.4871   -23062.555   -24971.595      1909.04    1.1610133    30.985945    30.985945    30.985945    29750.497 
 4682000    294.76795   -1664.0035   -23042.647   -24893.957    1851.3098    1.1610133    30.985945    30.985945    30.985945    29750.497 
 4683000    302.13763   -694.07409   -23139.951   -25037.546    1897.5956    1.1610133    30.985945    30.985945    30.985945    29750.497 
 4684000    301.58711   -1099.8947   -23096.158   -24990.296     1894.138    1.1610133    30.985945    30.985945    30.985945    29750.497 
 4685000    300.84291   -1097.0774   -22999.446    -24888.91     1889.464    1.1610133    30.985945    30.985945    30.985945    29750.497 
 4686000    304.44673   -2058.3693   -22998.072    -24910.17     1912.098    1.1610133    30.985945    30.985945    30.985945    29750.497 
 4687000    292.45865    -1905.727   -23081.734    -24918.54    1836.8061    1.1610133    30.985945    30.985945    30.985945    29750.497 
 4688000    306.70535    -1271.352   -22994.335   -24920.618    1926.2834    1.1610133    30.985945    30.985945    30.985945    29750.497 
 4689000    300.34288   -437.09549   -23015.243   -24901.566    1886.3235    1.1610133    30.985945    30.985945    30.985945    29750.497 
 4690000    293.60546   -711.30298   -22964.168   -24808.177    1844.0087    1.1610133    30.985945    30.985945    30.985945    29750.497 
 4691000    303.48713    -1598.253   -22939.655   -24845.726    1906.0712    1.1610133    30.985945    30.985945    30.985945    29750.497 
 4692000     297.0805   -870.01663   -23061.015   -24926.849    1865.8339    1.1610133    30.985945    30.985945    30.985945    29750.497 
 4693000    297.57239   -1340.4008   -23064.384   -24933.307    1868.9233    1.1610133    30.985945    30.985945    30.985945    29750.497 
 4694000    294.46517   -261.85412   -22992.344   -24841.752    1849.4081    1.1610133    30.985945    30.985945    30.985945    29750.497 
 4695000    292.19673   -899.27026   -23000.228   -24835.389     1835.161    1.1610133    30.985945    30.985945    30.985945    29750.497 
 4696000    294.95925   -1156.7633   -23071.833   -24924.344    1852.5112    1.1610133    30.985945    30.985945    30.985945    29750.497 
 4697000    303.31918    -1472.724   -23105.556   -25010.572    1905.0163    1.1610133    30.985945    30.985945    30.985945    29750.497 
 4698000    296.91089   -1834.8805   -23068.963   -24933.732    1864.7687    1.1610133    30.985945    30.985945    30.985945    29750.497 
 4699000    294.81122    -2774.921   -23082.598   -24934.179    1851.5815    1.1610133    30.985945    30.985945    30.985945    29750.497 
 4700000    292.28861   -2283.4453   -23102.236   -24937.974    1835.7381    1.1610133    30.985945    30.985945    30.985945    29750.497 
 4701000    301.19737   -493.62108   -23076.404   -24968.094    1891.6902    1.1610133    30.985945    30.985945    30.985945    29750.497 
 4702000     298.6054   -1599.9731   -23027.623   -24903.034    1875.4111    1.1610133    30.985945    30.985945    30.985945    29750.497 
 4703000    301.97031   -1590.5823   -22974.881   -24871.426    1896.5447    1.1610133    30.985945    30.985945    30.985945    29750.497 
 4704000    301.22162    -1102.126   -22960.472   -24852.315    1891.8425    1.1610133    30.985945    30.985945    30.985945    29750.497 
 4705000    302.04211   -1568.0616   -23086.625    -24983.62    1896.9956    1.1610133    30.985945    30.985945    30.985945    29750.497 
 4706000    296.89068     -1537.83   -23040.075   -24904.717    1864.6417    1.1610133    30.985945    30.985945    30.985945    29750.497 
 4707000     305.0013   -1714.7368   -23063.028   -24978.609     1915.581    1.1610133    30.985945    30.985945    30.985945    29750.497 
 4708000     298.0435   -2157.1231   -23053.577   -24925.459    1871.8821    1.1610133    30.985945    30.985945    30.985945    29750.497 
 4709000    298.07289   -2482.9341   -23083.121   -24955.188    1872.0667    1.1610133    30.985945    30.985945    30.985945    29750.497 
 4710000    307.46997   -1947.0896    -22969.69   -24900.776    1931.0857    1.1610133    30.985945    30.985945    30.985945    29750.497 
 4711000    297.97417   -2207.3906   -23153.725   -25025.171    1871.4467    1.1610133    30.985945    30.985945    30.985945    29750.497 
 4712000    291.00287   -1798.2205   -23252.949   -25080.612    1827.6629    1.1610133    30.985945    30.985945    30.985945    29750.497 
 4713000    297.75084   -1879.5018    -23185.75   -25055.794    1870.0441    1.1610133    30.985945    30.985945    30.985945    29750.497 
 4714000    308.14537   -1684.2932   -23025.231   -24960.558    1935.3276    1.1610133    30.985945    30.985945    30.985945    29750.497 
 4715000    296.79012    -807.4275   -23051.278   -24915.289    1864.0102    1.1610133    30.985945    30.985945    30.985945    29750.497 
 4716000    300.50161   -1929.2206   -23043.925   -24931.245    1887.3204    1.1610133    30.985945    30.985945    30.985945    29750.497 
 4717000    308.55407   -2264.5971   -23091.239   -25029.133    1937.8944    1.1610133    30.985945    30.985945    30.985945    29750.497 
 4718000    294.24682   -1786.6006   -23076.959   -24924.996    1848.0368    1.1610133    30.985945    30.985945    30.985945    29750.497 
 4719000    302.52504   -1076.0747   -23110.138   -25010.166    1900.0287    1.1610133    30.985945    30.985945    30.985945    29750.497 
 4720000    294.41032   -2647.0077   -23108.407   -24957.471    1849.0637    1.1610133    30.985945    30.985945    30.985945    29750.497 
 4721000    295.39845   -2091.1718   -23163.548   -25018.818    1855.2697    1.1610133    30.985945    30.985945    30.985945    29750.497 
 4722000    297.14192    -1826.461   -23144.354   -25010.574    1866.2197    1.1610133    30.985945    30.985945    30.985945    29750.497 
 4723000    301.25577   -1219.7275   -23075.794   -24967.851     1892.057    1.1610133    30.985945    30.985945    30.985945    29750.497 
 4724000    303.17554   -526.88745   -22992.243   -24896.357    1904.1142    1.1610133    30.985945    30.985945    30.985945    29750.497 
 4725000    288.69096   -1042.3001   -23172.883   -24986.026    1813.1429    1.1610133    30.985945    30.985945    30.985945    29750.497 
 4726000    300.94265   -1677.2528   -23171.867   -25061.958    1890.0904    1.1610133    30.985945    30.985945    30.985945    29750.497 
 4727000    302.27906   -1480.3762   -23153.256   -25051.739    1898.4838    1.1610133    30.985945    30.985945    30.985945    29750.497 
 4728000    299.49512   -2760.9372    -23089.61   -24970.609    1880.9991    1.1610133    30.985945    30.985945    30.985945    29750.497 
 4729000    305.50989   -1843.3947    -23143.28   -25062.055    1918.7753    1.1610133    30.985945    30.985945    30.985945    29750.497 
 4730000    297.33281     -324.691   -23141.638   -25009.056    1867.4186    1.1610133    30.985945    30.985945    30.985945    29750.497 
 4731000    294.79806   -1815.2174   -23083.158   -24934.656    1851.4989    1.1610133    30.985945    30.985945    30.985945    29750.497 
 4732000    305.48733    -2112.998   -23069.496    -24988.13    1918.6336    1.1610133    30.985945    30.985945    30.985945    29750.497 
 4733000    292.96075   -2221.5422   -23106.811    -24946.77    1839.9595    1.1610133    30.985945    30.985945    30.985945    29750.497 
 4734000    292.41009   -2077.9375   -23089.827   -24926.328    1836.5011    1.1610133    30.985945    30.985945    30.985945    29750.497 
 4735000    294.48569   -2345.0858   -23058.934   -24908.471     1849.537    1.1610133    30.985945    30.985945    30.985945    29750.497 
 4736000    303.10747   -1919.6082   -23094.918   -24998.604    1903.6867    1.1610133    30.985945    30.985945    30.985945    29750.497 
 4737000    296.77017   -2073.9874   -23113.517   -24977.402    1863.8849    1.1610133    30.985945    30.985945    30.985945    29750.497 
 4738000     290.3829   -2380.1344    -23110.17   -24933.939    1823.7692    1.1610133    30.985945    30.985945    30.985945    29750.497 
 4739000    293.97892   -1111.5893   -23054.363   -24900.717    1846.3542    1.1610133    30.985945    30.985945    30.985945    29750.497 
 4740000    301.66128   -1201.4961   -23061.716    -24956.32    1894.6038    1.1610133    30.985945    30.985945    30.985945    29750.497 
 4741000    292.98886   -2724.4217   -23078.417   -24918.553    1840.1361    1.1610133    30.985945    30.985945    30.985945    29750.497 
 4742000    301.05401    -1715.938   -23153.212   -25044.002    1890.7898    1.1610133    30.985945    30.985945    30.985945    29750.497 
 4743000    304.98753   -1431.6157   -23019.074   -24934.569    1915.4946    1.1610133    30.985945    30.985945    30.985945    29750.497 
 4744000    296.33348   -2682.0288   -23011.502   -24872.644    1861.1422    1.1610133    30.985945    30.985945    30.985945    29750.497 
 4745000    304.88785   -1837.4438   -23073.421   -24988.289    1914.8685    1.1610133    30.985945    30.985945    30.985945    29750.497 
 4746000    299.39693   -2172.7805   -23157.119   -25037.501    1880.3824    1.1610133    30.985945    30.985945    30.985945    29750.497 
 4747000    284.44379   -1886.4533   -23152.705   -24939.173    1786.4682    1.1610133    30.985945    30.985945    30.985945    29750.497 
 4748000    303.78931   -1773.2523   -23050.488   -24958.457    1907.9691    1.1610133    30.985945    30.985945    30.985945    29750.497 
 4749000    296.22962   -1052.8842   -23163.414   -25023.904    1860.4899    1.1610133    30.985945    30.985945    30.985945    29750.497 
 4750000    300.48188    -1684.132   -23105.375   -24992.571    1887.1965    1.1610133    30.985945    30.985945    30.985945    29750.497 
 4751000    296.92925    -1883.738   -23126.727   -24991.611     1864.884    1.1610133    30.985945    30.985945    30.985945    29750.497 
 4752000    304.73348   -1550.3002   -23044.866   -24958.765    1913.8989    1.1610133    30.985945    30.985945    30.985945    29750.497 
 4753000    297.37606   -2486.7827   -23027.493   -24895.184    1867.6902    1.1610133    30.985945    30.985945    30.985945    29750.497 
 4754000    296.60959   -1571.9941   -22999.338   -24862.214    1862.8763    1.1610133    30.985945    30.985945    30.985945    29750.497 
 4755000    301.08565   -1680.3618   -23014.237   -24905.226    1890.9886    1.1610133    30.985945    30.985945    30.985945    29750.497 
 4756000    295.36757   -885.72449   -23093.227   -24948.303    1855.0757    1.1610133    30.985945    30.985945    30.985945    29750.497 
 4757000    295.99352   -1500.3168   -22985.193     -24844.2    1859.0071    1.1610133    30.985945    30.985945    30.985945    29750.497 
 4758000    302.38395   -996.54572   -22949.829   -24848.971    1899.1426    1.1610133    30.985945    30.985945    30.985945    29750.497 
 4759000    300.95902   -174.78146   -22993.801   -24883.994    1890.1932    1.1610133    30.985945    30.985945    30.985945    29750.497 
 4760000    297.72543   -1030.8251   -23068.444   -24938.328    1869.8844    1.1610133    30.985945    30.985945    30.985945    29750.497 
 4761000     301.7292   -1502.7105   -23038.841   -24933.871    1895.0304    1.1610133    30.985945    30.985945    30.985945    29750.497 
 4762000    298.46121   -2015.3373   -23151.066   -25025.571    1874.5055    1.1610133    30.985945    30.985945    30.985945    29750.497 
 4763000    304.49263   -1060.7498   -23039.621   -24952.007    1912.3863    1.1610133    30.985945    30.985945    30.985945    29750.497 
 4764000     301.6199   -473.33497   -22981.232   -24875.576    1894.3439    1.1610133    30.985945    30.985945    30.985945    29750.497 
 4765000    298.73886   -1170.4968   -23058.715   -24934.964    1876.2493    1.1610133    30.985945    30.985945    30.985945    29750.497 
 4766000    306.15779    -1554.543    -23082.03   -25004.874    1922.8444    1.1610133    30.985945    30.985945    30.985945    29750.497 
 4767000    300.78047   -1814.0372    -23073.99   -24963.062    1889.0718    1.1610133    30.985945    30.985945    30.985945    29750.497 
 4768000     295.7893   -1436.0281   -23080.546   -24938.271    1857.7244    1.1610133    30.985945    30.985945    30.985945    29750.497 
 4769000    297.01987    -1614.282    -23020.51   -24885.963    1865.4531    1.1610133    30.985945    30.985945    30.985945    29750.497 
 4770000    300.33463   -1672.2128    -23030.14   -24916.412    1886.2717    1.1610133    30.985945    30.985945    30.985945    29750.497 
 4771000    302.30965   -1707.9991   -23092.166   -24990.842    1898.6759    1.1610133    30.985945    30.985945    30.985945    29750.497 
 4772000    293.74449   -620.43627   -23086.198    -24931.08    1844.8819    1.1610133    30.985945    30.985945    30.985945    29750.497 
 4773000    303.67601   -1423.8377   -22997.544   -24904.802    1907.2575    1.1610133    30.985945    30.985945    30.985945    29750.497 
 4774000    301.17895   -2161.5666    -22987.04   -24878.614    1891.5745    1.1610133    30.985945    30.985945    30.985945    29750.497 
 4775000    295.13163   -2195.6868   -23084.196    -24937.79    1853.5939    1.1610133    30.985945    30.985945    30.985945    29750.497 
 4776000    297.61042   -2386.2898   -23105.598    -24974.76    1869.1621    1.1610133    30.985945    30.985945    30.985945    29750.497 
 4777000    300.82554   -1649.9892   -22939.578   -24828.933    1889.3549    1.1610133    30.985945    30.985945    30.985945    29750.497 
 4778000    295.32297   -2202.5026   -23092.776   -24947.571    1854.7956    1.1610133    30.985945    30.985945    30.985945    29750.497 
 4779000     290.8681   -2128.7747   -23186.137   -25012.953    1826.8165    1.1610133    30.985945    30.985945    30.985945    29750.497 
 4780000    295.07383   -1868.7746   -23054.779    -24908.01    1853.2309    1.1610133    30.985945    30.985945    30.985945    29750.497 
 4781000    291.80783   -1881.7078   -23100.138   -24932.856    1832.7186    1.1610133    30.985945    30.985945    30.985945    29750.497 
 4782000    304.41837   -2549.0119   -22957.865   -24869.785    1911.9199    1.1610133    30.985945    30.985945    30.985945    29750.497 
 4783000    291.41756   -1567.5308   -23110.567   -24940.834    1830.2675    1.1610133    30.985945    30.985945    30.985945    29750.497 
 4784000    292.22861   -1854.6434   -23039.916   -24875.277    1835.3613    1.1610133    30.985945    30.985945    30.985945    29750.497 
 4785000    289.83951   -1946.5389   -23053.887   -24874.244    1820.3564    1.1610133    30.985945    30.985945    30.985945    29750.497 
 4786000    294.11691   -2239.9096   -23029.601   -24876.822    1847.2209    1.1610133    30.985945    30.985945    30.985945    29750.497 
 4787000    301.95302   -702.15257   -23056.346   -24952.782    1896.4361    1.1610133    30.985945    30.985945    30.985945    29750.497 
 4788000    294.82627   -1897.3141   -23052.075   -24903.751    1851.6761    1.1610133    30.985945    30.985945    30.985945    29750.497 
 4789000    306.43545   -2011.3163   -22905.963   -24830.551    1924.5883    1.1610133    30.985945    30.985945    30.985945    29750.497 
 4790000    297.25365     -1261.15   -23025.747   -24892.668    1866.9214    1.1610133    30.985945    30.985945    30.985945    29750.497 
 4791000    301.01528   -2597.2976   -22998.993   -24889.539    1890.5466    1.1610133    30.985945    30.985945    30.985945    29750.497 
 4792000    300.84288   -996.16707     -22984.9   -24874.364    1889.4638    1.1610133    30.985945    30.985945    30.985945    29750.497 
 4793000    291.54259   -1204.4267   -22996.208   -24827.261    1831.0527    1.1610133    30.985945    30.985945    30.985945    29750.497 
 4794000     306.9128   -1689.0882   -22910.926   -24838.512    1927.5863    1.1610133    30.985945    30.985945    30.985945    29750.497 
 4795000     304.3448   -1544.5275   -22919.702    -24831.16    1911.4578    1.1610133    30.985945    30.985945    30.985945    29750.497 
 4796000    283.20085    -1677.638   -23229.697   -25008.359    1778.6618    1.1610133    30.985945    30.985945    30.985945    29750.497 
 4797000    291.11072   -1568.6846   -23132.869    -24961.21    1828.3403    1.1610133    30.985945    30.985945    30.985945    29750.497 
 4798000    289.20841   -1124.5354   -23116.155   -24932.548    1816.3927    1.1610133    30.985945    30.985945    30.985945    29750.497 
 4799000     296.3953   -1621.0049   -23008.321   -24869.851    1861.5305    1.1610133    30.985945    30.985945    30.985945    29750.497 
 4800000    293.22957    -1650.664   -23070.297   -24911.945    1841.6479    1.1610133    30.985945    30.985945    30.985945    29750.497 
 4801000    300.49279   -2412.5999   -23003.253   -24890.518     1887.265    1.1610133    30.985945    30.985945    30.985945    29750.497 
 4802000    304.32991   -1978.9711   -22995.777   -24907.142    1911.3643    1.1610133    30.985945    30.985945    30.985945    29750.497 
 4803000    300.90536    -1796.479   -23122.035   -25011.891    1889.8562    1.1610133    30.985945    30.985945    30.985945    29750.497 
 4804000    296.58225   -1059.2961   -23138.179   -25000.883    1862.7046    1.1610133    30.985945    30.985945    30.985945    29750.497 
 4805000    292.97464   -982.15239   -23117.031   -24957.077    1840.0468    1.1610133    30.985945    30.985945    30.985945    29750.497 
 4806000    309.45033   -1505.7122   -22958.523   -24902.047    1943.5235    1.1610133    30.985945    30.985945    30.985945    29750.497 
 4807000    298.37565   -1953.8212   -23068.858   -24942.827    1873.9682    1.1610133    30.985945    30.985945    30.985945    29750.497 
 4808000    300.94074   -1930.0489   -23188.135   -25078.214    1890.0784    1.1610133    30.985945    30.985945    30.985945    29750.497 
 4809000    301.90149   -2027.4446   -23010.741   -24906.853    1896.1124    1.1610133    30.985945    30.985945    30.985945    29750.497 
 4810000    298.20104   -1840.9841   -23007.944   -24880.816    1872.8716    1.1610133    30.985945    30.985945    30.985945    29750.497 
 4811000    297.01764     -1513.25   -23064.962   -24930.401    1865.4391    1.1610133    30.985945    30.985945    30.985945    29750.497 
 4812000     293.2163   -2078.9179   -23171.042   -25012.606    1841.5646    1.1610133    30.985945    30.985945    30.985945    29750.497 
 4813000    290.84666   -1787.2526   -23133.182   -24959.864    1826.6819    1.1610133    30.985945    30.985945    30.985945    29750.497 
 4814000    296.38497   -1462.4432   -23102.752   -24964.218    1861.4656    1.1610133    30.985945    30.985945    30.985945    29750.497 
 4815000    294.97786   -654.11918    -23036.15   -24888.779    1852.6282    1.1610133    30.985945    30.985945    30.985945    29750.497 
 4816000    299.60633    -1752.306   -23025.218   -24906.916    1881.6975    1.1610133    30.985945    30.985945    30.985945    29750.497 
 4817000    298.77558   -1282.9522   -23008.297   -24884.777      1876.48    1.1610133    30.985945    30.985945    30.985945    29750.497 
 4818000    299.49653   -1157.9625    -22980.49   -24861.498    1881.0079    1.1610133    30.985945    30.985945    30.985945    29750.497 
 4819000    300.80403   -449.27543   -23020.284   -24909.504    1889.2198    1.1610133    30.985945    30.985945    30.985945    29750.497 
 4820000    290.14708   -1180.9903    -23019.22   -24841.508    1822.2881    1.1610133    30.985945    30.985945    30.985945    29750.497 
 4821000    294.57133   -1945.9139   -23146.913   -24996.988    1850.0749    1.1610133    30.985945    30.985945    30.985945    29750.497 
 4822000    308.19707   -541.75279   -22955.485   -24891.137    1935.6523    1.1610133    30.985945    30.985945    30.985945    29750.497 
 4823000    302.59126   -758.79125   -23002.341   -24902.786    1900.4446    1.1610133    30.985945    30.985945    30.985945    29750.497 
 4824000    292.84328   -1245.7318     -23060.3   -24899.522    1839.2217    1.1610133    30.985945    30.985945    30.985945    29750.497 
 4825000    295.78382   -1387.3673   -23124.642   -24982.332      1857.69    1.1610133    30.985945    30.985945    30.985945    29750.497 
 4826000    294.88274   -1031.2178   -23077.593   -24929.624    1852.0307    1.1610133    30.985945    30.985945    30.985945    29750.497 
 4827000     300.4361   -1072.3145   -23055.882   -24942.791     1886.909    1.1610133    30.985945    30.985945    30.985945    29750.497 
 4828000    307.01426   -2358.2439   -22959.097    -24887.32    1928.2235    1.1610133    30.985945    30.985945    30.985945    29750.497 
 4829000    295.06347   -993.91804   -23079.966   -24933.132    1853.1658    1.1610133    30.985945    30.985945    30.985945    29750.497 
 4830000    297.75888   -1242.3373   -23143.283   -25013.377    1870.0945    1.1610133    30.985945    30.985945    30.985945    29750.497 
 4831000    307.48003   -1155.0416   -22949.632    -24880.78    1931.1489    1.1610133    30.985945    30.985945    30.985945    29750.497 
 4832000    296.76608   -2074.0615    -23095.58    -24959.44    1863.8592    1.1610133    30.985945    30.985945    30.985945    29750.497 
 4833000     294.6062   -1066.8333   -23086.919   -24937.213    1850.2939    1.1610133    30.985945    30.985945    30.985945    29750.497 
 4834000    305.33474   -1652.5251   -23083.104   -25000.779    1917.6752    1.1610133    30.985945    30.985945    30.985945    29750.497 
 4835000    302.86325   -1020.9533   -23023.407    -24925.56    1902.1529    1.1610133    30.985945    30.985945    30.985945    29750.497 
 4836000    297.40044   -1017.1713   -23079.247    -24947.09    1867.8433    1.1610133    30.985945    30.985945    30.985945    29750.497 
 4837000    301.90694   -1554.5079   -23068.017   -24964.164    1896.1467    1.1610133    30.985945    30.985945    30.985945    29750.497 
 4838000    301.41523   -2043.2573    -23063.73   -24956.789    1893.0584    1.1610133    30.985945    30.985945    30.985945    29750.497 
 4839000    294.74923   -1802.4644   -23069.218   -24920.411    1851.1922    1.1610133    30.985945    30.985945    30.985945    29750.497 
 4840000    305.23852   -2296.7304   -23080.906   -24997.977    1917.0709    1.1610133    30.985945    30.985945    30.985945    29750.497 
 4841000    296.34733   -1231.1513   -23096.459   -24957.688    1861.2292    1.1610133    30.985945    30.985945    30.985945    29750.497 
 4842000    298.80777   -1608.1376   -23038.586   -24915.268    1876.6821    1.1610133    30.985945    30.985945    30.985945    29750.497 
 4843000    291.16916   -1439.1949   -23082.471   -24911.178    1828.7073    1.1610133    30.985945    30.985945    30.985945    29750.497 
 4844000    289.05593   -2244.9769    -23114.61   -24930.045    1815.4351    1.1610133    30.985945    30.985945    30.985945    29750.497 
 4845000    294.66586   -1448.3646   -23015.975   -24866.643    1850.6686    1.1610133    30.985945    30.985945    30.985945    29750.497 
 4846000    287.63586   -1564.8103   -23229.833   -25036.349    1806.5162    1.1610133    30.985945    30.985945    30.985945    29750.497 
 4847000    302.33606   -1134.5687   -23054.597   -24953.438    1898.8418    1.1610133    30.985945    30.985945    30.985945    29750.497 
 4848000    299.61484   -617.39555     -23073.3   -24955.051     1881.751    1.1610133    30.985945    30.985945    30.985945    29750.497 
 4849000    298.56074   -1503.2389   -23079.477   -24954.608    1875.1307    1.1610133    30.985945    30.985945    30.985945    29750.497 
 4850000    296.60934   -1894.3561   -23066.624   -24929.498    1862.8748    1.1610133    30.985945    30.985945    30.985945    29750.497 
 4851000    299.56756   -1642.3006   -23053.932   -24935.387    1881.4541    1.1610133    30.985945    30.985945    30.985945    29750.497 
 4852000     301.6327   -1072.1341   -23062.853   -24957.278    1894.4243    1.1610133    30.985945    30.985945    30.985945    29750.497 
 4853000    297.64877   -2339.1765     -23086.2   -24955.603     1869.403    1.1610133    30.985945    30.985945    30.985945    29750.497 
 4854000     305.9727    -2045.134   -22940.235   -24861.917     1921.682    1.1610133    30.985945    30.985945    30.985945    29750.497 
 4855000    302.21288   -1983.9377   -23153.567   -25051.635    1898.0682    1.1610133    30.985945    30.985945    30.985945    29750.497 
 4856000    293.07287   -1631.2526   -23084.638   -24925.302    1840.6638    1.1610133    30.985945    30.985945    30.985945    29750.497 
 4857000    311.03494   -1177.0952   -22982.692   -24936.168    1953.4757    1.1610133    30.985945    30.985945    30.985945    29750.497 
 4858000    298.78077    -723.3453   -23133.771   -25010.284    1876.5126    1.1610133    30.985945    30.985945    30.985945    29750.497 
 4859000    303.70177   -1399.7782   -22986.507   -24893.926    1907.4193    1.1610133    30.985945    30.985945    30.985945    29750.497 
 4860000    293.92234   -272.65991    -23073.54   -24919.539    1845.9989    1.1610133    30.985945    30.985945    30.985945    29750.497 
 4861000       299.79   -1540.2519   -22963.267   -24846.118    1882.8511    1.1610133    30.985945    30.985945    30.985945    29750.497 
 4862000    300.53542   -1023.4731   -23025.439   -24912.972    1887.5328    1.1610133    30.985945    30.985945    30.985945    29750.497 
 4863000    302.55055   -1746.4337    -23045.58   -24945.769     1900.189    1.1610133    30.985945    30.985945    30.985945    29750.497 
 4864000    294.69503   -685.53382   -23057.515   -24908.366    1850.8518    1.1610133    30.985945    30.985945    30.985945    29750.497 
 4865000    290.84991   -1046.4342   -23028.715   -24855.417    1826.7023    1.1610133    30.985945    30.985945    30.985945    29750.497 
 4866000    297.09856   -1509.3569   -23084.799   -24950.747    1865.9473    1.1610133    30.985945    30.985945    30.985945    29750.497 
 4867000    303.41601   -1546.4748   -23010.707   -24916.332    1905.6245    1.1610133    30.985945    30.985945    30.985945    29750.497 
 4868000    294.83925   -2048.3317   -23092.481   -24944.238    1851.7576    1.1610133    30.985945    30.985945    30.985945    29750.497 
 4869000    287.48173    -1108.543   -23100.473   -24906.022    1805.5482    1.1610133    30.985945    30.985945    30.985945    29750.497 
 4870000    297.57852   -724.85559   -23031.303   -24900.264    1868.9618    1.1610133    30.985945    30.985945    30.985945    29750.497 
 4871000    296.44618   -2099.5316   -23056.723   -24918.573      1861.85    1.1610133    30.985945    30.985945    30.985945    29750.497 
 4872000    289.07634    -2211.926   -23117.211   -24932.774    1815.5632    1.1610133    30.985945    30.985945    30.985945    29750.497 
 4873000    291.62174   -1809.6372   -23064.241   -24895.791    1831.5498    1.1610133    30.985945    30.985945    30.985945    29750.497 
 4874000    299.18702   -1794.5387   -23024.952   -24904.016    1879.0641    1.1610133    30.985945    30.985945    30.985945    29750.497 
 4875000    299.11398   -987.59635   -22883.577   -24762.183    1878.6053    1.1610133    30.985945    30.985945    30.985945    29750.497 
 4876000    296.00662   -2380.6227   -23001.857   -24860.946    1859.0893    1.1610133    30.985945    30.985945    30.985945    29750.497 
 4877000    288.86809   -803.03891   -23014.487   -24828.743    1814.2553    1.1610133    30.985945    30.985945    30.985945    29750.497 
 4878000    299.65433   -1811.6536   -23052.719   -24934.718     1881.999    1.1610133    30.985945    30.985945    30.985945    29750.497 
 4879000    295.49192   -2195.0252   -23056.169   -24912.026    1855.8567    1.1610133    30.985945    30.985945    30.985945    29750.497 
 4880000      293.953   -2735.1616   -22981.288    -24827.48    1846.1915    1.1610133    30.985945    30.985945    30.985945    29750.497 
 4881000    302.97722   -2133.2686   -23006.511   -24909.379    1902.8686    1.1610133    30.985945    30.985945    30.985945    29750.497 
 4882000    305.19615   -659.52459   -22988.651   -24905.456    1916.8048    1.1610133    30.985945    30.985945    30.985945    29750.497 
 4883000     307.3425   -1209.3772   -23037.698   -24967.983    1930.2851    1.1610133    30.985945    30.985945    30.985945    29750.497 
 4884000    301.63623   -2290.9538   -23045.809   -24940.256    1894.4465    1.1610133    30.985945    30.985945    30.985945    29750.497 
 4885000    304.47301   -2372.0633   -23052.384   -24964.647    1912.2631    1.1610133    30.985945    30.985945    30.985945    29750.497 
 4886000    299.53957   -2054.6066   -23060.838   -24942.117    1881.2783    1.1610133    30.985945    30.985945    30.985945    29750.497 
 4887000    302.31092   -1444.7908   -23094.999   -24993.683    1898.6839    1.1610133    30.985945    30.985945    30.985945    29750.497 
 4888000    307.76308   -790.88123    -23033.86   -24966.787    1932.9266    1.1610133    30.985945    30.985945    30.985945    29750.497 
 4889000    288.10112   -1254.7569   -23129.273   -24938.711    1809.4383    1.1610133    30.985945    30.985945    30.985945    29750.497 
 4890000    313.81571   -1397.6088   -22950.543   -24921.483    1970.9405    1.1610133    30.985945    30.985945    30.985945    29750.497 
 4891000    305.46946   -2040.7681   -23019.049   -24937.571    1918.5213    1.1610133    30.985945    30.985945    30.985945    29750.497 
 4892000    303.14365    -1181.289   -23046.423   -24950.337    1903.9139    1.1610133    30.985945    30.985945    30.985945    29750.497 
 4893000    302.35732   -2494.6313   -23016.236   -24915.211    1898.9753    1.1610133    30.985945    30.985945    30.985945    29750.497 
 4894000    292.74198   -1713.2922   -23088.663   -24927.248    1838.5855    1.1610133    30.985945    30.985945    30.985945    29750.497 
 4895000    308.78204    -1392.955   -23080.012   -25019.338    1939.3263    1.1610133    30.985945    30.985945    30.985945    29750.497 
 4896000    296.13315   -1611.0093   -23042.603   -24902.487     1859.884    1.1610133    30.985945    30.985945    30.985945    29750.497 
 4897000    300.17912   -2572.3175   -23083.277   -24968.572     1885.295    1.1610133    30.985945    30.985945    30.985945    29750.497 
 4898000    305.44393   -1548.0426   -23065.399    -24983.76     1918.361    1.1610133    30.985945    30.985945    30.985945    29750.497 
 4899000    300.74416   -1478.9336   -23142.232   -25031.076    1888.8438    1.1610133    30.985945    30.985945    30.985945    29750.497 
 4900000    299.48623   -1292.5393   -23081.939   -24962.883    1880.9433    1.1610133    30.985945    30.985945    30.985945    29750.497 
 4901000    296.84198   -1115.9763   -23121.121   -24985.456    1864.3359    1.1610133    30.985945    30.985945    30.985945    29750.497 
 4902000     302.1009   -1164.8814   -23195.788   -25093.153    1897.3649    1.1610133    30.985945    30.985945    30.985945    29750.497 
 4903000    304.61833   -1077.9292   -22951.344    -24864.52    1913.1757    1.1610133    30.985945    30.985945    30.985945    29750.497 
 4904000     298.5036   -1503.3015   -23060.512   -24935.283    1874.7718    1.1610133    30.985945    30.985945    30.985945    29750.497 
 4905000     303.1327   -1279.7208   -22928.516   -24832.361    1903.8452    1.1610133    30.985945    30.985945    30.985945    29750.497 
 4906000    303.16232   -376.81935   -23080.282   -24984.314    1904.0312    1.1610133    30.985945    30.985945    30.985945    29750.497 
 4907000    297.00691   -1237.2877   -23080.243   -24945.614    1865.3717    1.1610133    30.985945    30.985945    30.985945    29750.497 
 4908000    305.02971     -1437.78   -23022.035   -24937.795    1915.7595    1.1610133    30.985945    30.985945    30.985945    29750.497 
 4909000    299.19965   -1674.2367   -23049.114   -24928.258    1879.1434    1.1610133    30.985945    30.985945    30.985945    29750.497 
 4910000    294.87337   -1248.5002   -23066.512   -24918.484    1851.9719    1.1610133    30.985945    30.985945    30.985945    29750.497 
 4911000    300.77092   -1287.0343   -23083.594   -24972.606    1889.0119    1.1610133    30.985945    30.985945    30.985945    29750.497 
 4912000    289.48173   -415.56974   -23094.955   -24913.065    1818.1093    1.1610133    30.985945    30.985945    30.985945    29750.497 
 4913000    302.82311   -797.48189   -22983.207   -24885.108    1901.9008    1.1610133    30.985945    30.985945    30.985945    29750.497 
 4914000    305.82661   -1261.9712   -22976.635     -24897.4    1920.7645    1.1610133    30.985945    30.985945    30.985945    29750.497 
 4915000    296.32131   -1140.9895    -23048.33   -24909.396    1861.0658    1.1610133    30.985945    30.985945    30.985945    29750.497 
 4916000    296.21802   -1675.9328   -23076.964   -24937.381    1860.4171    1.1610133    30.985945    30.985945    30.985945    29750.497 
 4917000     313.0236   -1542.8684   -22919.209   -24885.175    1965.9656    1.1610133    30.985945    30.985945    30.985945    29750.497 
 4918000    295.92523   -1556.7302   -23071.773   -24930.351    1858.5782    1.1610133    30.985945    30.985945    30.985945    29750.497 
 4919000    298.20723   -2217.5027   -23102.952   -24975.862    1872.9104    1.1610133    30.985945    30.985945    30.985945    29750.497 
 4920000    298.43194   -1203.3477   -23038.964   -24913.286    1874.3217    1.1610133    30.985945    30.985945    30.985945    29750.497 
 4921000    292.94254   -1703.3807   -23078.141   -24917.986    1839.8452    1.1610133    30.985945    30.985945    30.985945    29750.497 
 4922000    293.71578   -1776.4119   -23063.521   -24908.222    1844.7016    1.1610133    30.985945    30.985945    30.985945    29750.497 
 4923000    299.83875   -1090.8025   -22985.653    -24868.81    1883.1573    1.1610133    30.985945    30.985945    30.985945    29750.497 
 4924000    303.88423   -1929.7043   -22941.999   -24850.564    1908.5652    1.1610133    30.985945    30.985945    30.985945    29750.497 
 4925000    294.79047   -2727.2555   -23122.429    -24973.88    1851.4512    1.1610133    30.985945    30.985945    30.985945    29750.497 
 4926000    296.26273   -3190.7238    -23075.82   -24936.518    1860.6979    1.1610133    30.985945    30.985945    30.985945    29750.497 
 4927000    297.45582   -1424.7403   -23100.116   -24968.307    1868.1911    1.1610133    30.985945    30.985945    30.985945    29750.497 
 4928000    293.50288   -1931.8649   -23067.339   -24910.703    1843.3644    1.1610133    30.985945    30.985945    30.985945    29750.497 
 4929000    289.94967   -1648.3431   -23013.871   -24834.919    1821.0483    1.1610133    30.985945    30.985945    30.985945    29750.497 
 4930000    298.29198   -932.07435   -22928.672   -24802.114    1873.4427    1.1610133    30.985945    30.985945    30.985945    29750.497 
 4931000     307.6491   -1110.6496   -22989.859    -24922.07    1932.2107    1.1610133    30.985945    30.985945    30.985945    29750.497 
 4932000    298.83347   -1505.2173   -23040.917   -24917.761    1876.8436    1.1610133    30.985945    30.985945    30.985945    29750.497 
 4933000    290.34801   -1329.3268   -23116.978   -24940.528    1823.5501    1.1610133    30.985945    30.985945    30.985945    29750.497 
 4934000    311.59357   -1156.8288   -23016.371   -24973.355    1956.9842    1.1610133    30.985945    30.985945    30.985945    29750.497 
 4935000    292.08998   -2034.5136   -23094.699    -24929.19    1834.4906    1.1610133    30.985945    30.985945    30.985945    29750.497 
 4936000    290.57527   -2034.7107   -23175.657   -25000.634    1824.9774    1.1610133    30.985945    30.985945    30.985945    29750.497 
 4937000    297.07741   -2588.0565   -23216.066    -25081.88    1865.8145    1.1610133    30.985945    30.985945    30.985945    29750.497 
 4938000    294.95027   -2350.9226   -23113.057   -24965.512    1852.4548    1.1610133    30.985945    30.985945    30.985945    29750.497 
 4939000    295.33022   -1807.7869   -23109.445   -24964.286    1854.8412    1.1610133    30.985945    30.985945    30.985945    29750.497 
 4940000     306.3413   -1238.2707   -23088.175   -25012.172     1923.997    1.1610133    30.985945    30.985945    30.985945    29750.497 
 4941000    291.46896   -2491.8596   -23100.977   -24931.567    1830.5902    1.1610133    30.985945    30.985945    30.985945    29750.497 
 4942000    299.18489   -639.42039   -22980.168   -24859.219    1879.0507    1.1610133    30.985945    30.985945    30.985945    29750.497 
 4943000    307.87347   -387.58584   -22974.774   -24908.394    1933.6199    1.1610133    30.985945    30.985945    30.985945    29750.497 
 4944000    300.51786   -1887.9499    -23040.76   -24928.182    1887.4225    1.1610133    30.985945    30.985945    30.985945    29750.497 
 4945000    296.75388   -2419.7224   -23128.878   -24992.661    1863.7826    1.1610133    30.985945    30.985945    30.985945    29750.497 
 4946000    296.75089   -1349.8855   -23128.141   -24991.905    1863.7638    1.1610133    30.985945    30.985945    30.985945    29750.497 
 4947000    301.27793    -604.3394   -22937.359   -24829.555    1892.1961    1.1610133    30.985945    30.985945    30.985945    29750.497 
 4948000    302.47302   -1843.7718   -23066.413   -24966.115     1899.702    1.1610133    30.985945    30.985945    30.985945    29750.497 
 4949000    298.74585   -1695.3887   -23024.064   -24900.357    1876.2933    1.1610133    30.985945    30.985945    30.985945    29750.497 
 4950000    301.74805   -2482.0398   -23046.902   -24942.051    1895.1488    1.1610133    30.985945    30.985945    30.985945    29750.497 
 4951000    307.32125   -80.096653   -23038.619   -24968.771    1930.1516    1.1610133    30.985945    30.985945    30.985945    29750.497 
 4952000    297.59916   -1065.3754   -23084.037   -24953.128    1869.0914    1.1610133    30.985945    30.985945    30.985945    29750.497 
 4953000    297.80034   -1780.6155   -22969.527   -24839.882    1870.3549    1.1610133    30.985945    30.985945    30.985945    29750.497 
 4954000    302.87588   -1796.3741   -23040.543   -24942.776    1902.2322    1.1610133    30.985945    30.985945    30.985945    29750.497 
 4955000    301.06945   -1841.1943   -23084.758   -24975.645    1890.8868    1.1610133    30.985945    30.985945    30.985945    29750.497 
 4956000    304.53262   -2882.8449   -23109.233    -25021.87    1912.6375    1.1610133    30.985945    30.985945    30.985945    29750.497 
 4957000    297.05772   -1600.1502   -23150.185   -25015.876    1865.6908    1.1610133    30.985945    30.985945    30.985945    29750.497 
 4958000    299.16633   -1912.1181   -23120.615   -24999.549    1878.9341    1.1610133    30.985945    30.985945    30.985945    29750.497 
 4959000    308.91852   -1004.8233    -23077.16   -25017.344    1940.1834    1.1610133    30.985945    30.985945    30.985945    29750.497 
 4960000    300.57693   -1814.0515   -23077.739   -24965.533    1887.7935    1.1610133    30.985945    30.985945    30.985945    29750.497 
 4961000    302.11362   -1881.4112   -23099.038   -24996.483    1897.4448    1.1610133    30.985945    30.985945    30.985945    29750.497 
 4962000    296.57019   -1326.4623   -23079.547   -24942.176    1862.6289    1.1610133    30.985945    30.985945    30.985945    29750.497 
 4963000    298.05397   -1620.7079   -23111.892    -24983.84    1871.9479    1.1610133    30.985945    30.985945    30.985945    29750.497 
 4964000    303.15189   -500.42803   -23130.902   -25034.868    1903.9657    1.1610133    30.985945    30.985945    30.985945    29750.497 
 4965000    308.05546    -1660.086   -23081.161   -25015.924    1934.7629    1.1610133    30.985945    30.985945    30.985945    29750.497 
 4966000     301.0614   -2043.2035   -23012.393   -24903.229    1890.8362    1.1610133    30.985945    30.985945    30.985945    29750.497 
 4967000    297.67361   -1538.5698   -23073.607   -24943.166     1869.559    1.1610133    30.985945    30.985945    30.985945    29750.497 
 4968000    302.60655   -1236.5456   -23016.046   -24916.586    1900.5406    1.1610133    30.985945    30.985945    30.985945    29750.497 
 4969000     304.1635    -1099.354   -23075.133   -24985.452    1910.3192    1.1610133    30.985945    30.985945    30.985945    29750.497 
 4970000    299.46166    -1741.497   -23064.244   -24945.033     1880.789    1.1610133    30.985945    30.985945    30.985945    29750.497 
 4971000    299.76009   -2143.2327   -23001.955   -24884.619    1882.6632    1.1610133    30.985945    30.985945    30.985945    29750.497 
 4972000    299.70388   -1948.3733   -23022.375   -24904.686    1882.3103    1.1610133    30.985945    30.985945    30.985945    29750.497 
 4973000    298.87592   -2043.1671   -23048.702   -24925.812    1877.1101    1.1610133    30.985945    30.985945    30.985945    29750.497 
 4974000    296.75762   -2435.6893   -23107.083   -24970.889    1863.8061    1.1610133    30.985945    30.985945    30.985945    29750.497 
 4975000    304.92169   -122.04643   -23122.785   -25037.866    1915.0811    1.1610133    30.985945    30.985945    30.985945    29750.497 
 4976000    296.40528   -1145.8808   -23160.764   -25022.357    1861.5932    1.1610133    30.985945    30.985945    30.985945    29750.497 
 4977000     301.2688   -2038.0621   -23172.068   -25064.207    1892.1388    1.1610133    30.985945    30.985945    30.985945    29750.497 
 4978000    306.55691   -1165.6038   -23125.944   -25051.295    1925.3512    1.1610133    30.985945    30.985945    30.985945    29750.497 
 4979000    298.65596   -800.56567   -23116.743   -24992.472    1875.7287    1.1610133    30.985945    30.985945    30.985945    29750.497 
 4980000     296.0542    -2418.273   -23121.527   -24980.915    1859.3882    1.1610133    30.985945    30.985945    30.985945    29750.497 
 4981000      298.708    -1958.683   -23131.697   -25007.753    1876.0555    1.1610133    30.985945    30.985945    30.985945    29750.497 
 4982000    295.50669   -1919.3143   -23166.793   -25022.742    1855.9495    1.1610133    30.985945    30.985945    30.985945    29750.497 
 4983000    289.85563   -1960.9118    -23216.51   -25036.968    1820.4576    1.1610133    30.985945    30.985945    30.985945    29750.497 
 4984000    292.95402   -1281.3188   -23129.983     -24969.9    1839.9173    1.1610133    30.985945    30.985945    30.985945    29750.497 
 4985000    293.47146   -442.13263   -23160.546   -25003.713    1843.1671    1.1610133    30.985945    30.985945    30.985945    29750.497 
 4986000    301.66429   -1399.8248   -23052.932   -24947.554    1894.6227    1.1610133    30.985945    30.985945    30.985945    29750.497 
 4987000     294.8255   -1423.2616    -23166.08   -25017.751    1851.6713    1.1610133    30.985945    30.985945    30.985945    29750.497 
 4988000    289.04558   -2445.6013   -23167.526   -24982.896      1815.37    1.1610133    30.985945    30.985945    30.985945    29750.497 
 4989000    300.20301   -1463.9822   -23092.568   -24978.013     1885.445    1.1610133    30.985945    30.985945    30.985945    29750.497 
 4990000    293.49505   -1216.1351   -23098.839   -24942.154    1843.3153    1.1610133    30.985945    30.985945    30.985945    29750.497 
 4991000    293.61582    -1297.212   -23103.648   -24947.721    1844.0737    1.1610133    30.985945    30.985945    30.985945    29750.497 
 4992000    299.98173   -895.03216   -22986.863   -24870.919    1884.0553    1.1610133    30.985945    30.985945    30.985945    29750.497 
 4993000     298.4922   -1775.9974    -23040.88    -24915.58    1874.7002    1.1610133    30.985945    30.985945    30.985945    29750.497 
 4994000    303.88461   -678.98939   -23051.162   -24959.729    1908.5676    1.1610133    30.985945    30.985945    30.985945    29750.497 
 4995000    298.10088   -1523.9803    -23006.04   -24878.282    1872.2425    1.1610133    30.985945    30.985945    30.985945    29750.497 
 4996000    295.60907   -2187.3695   -23045.489   -24902.082    1856.5925    1.1610133    30.985945    30.985945    30.985945    29750.497 
 4997000    292.26932   -1378.5454   -23080.401   -24916.018     1835.617    1.1610133    30.985945    30.985945    30.985945    29750.497 
 4998000    294.72608   -2053.0453   -22979.423    -24830.47    1851.0468    1.1610133    30.985945    30.985945    30.985945    29750.497 
 4999000    303.28523    -3059.115   -23044.794   -24949.598    1904.8031    1.1610133    30.985945    30.985945    30.985945    29750.497 
 5000000    303.54348   -1139.5747   -23085.941   -24992.366    1906.4251    1.1610133    30.985945    30.985945    30.985945    29750.497 
 5001000    291.71122   -2276.9566   -23218.599   -25050.711    1832.1118    1.1610133    30.985945    30.985945    30.985945    29750.497 
 5002000    296.74872   -1212.9013   -23095.738   -24959.489    1863.7502    1.1610133    30.985945    30.985945    30.985945    29750.497 
 5003000    302.37899   -1480.2626   -23008.364   -24907.475    1899.1115    1.1610133    30.985945    30.985945    30.985945    29750.497 
 5004000    299.21648   -2121.9563   -23048.564   -24927.813    1879.2491    1.1610133    30.985945    30.985945    30.985945    29750.497 
 5005000    297.59068   -1683.1029   -23064.319   -24933.357    1869.0381    1.1610133    30.985945    30.985945    30.985945    29750.497 
 5006000    298.38599   -1342.4126   -23138.586   -25012.619    1874.0331    1.1610133    30.985945    30.985945    30.985945    29750.497 
 5007000    293.28249   -2177.6926    -23166.31   -25008.291    1841.9803    1.1610133    30.985945    30.985945    30.985945    29750.497 
 5008000    302.05943   -1945.8573   -23023.335    -24920.44    1897.1044    1.1610133    30.985945    30.985945    30.985945    29750.497 
 5009000    297.01915   -1109.7293   -23040.674   -24906.122    1865.4486    1.1610133    30.985945    30.985945    30.985945    29750.497 
 5010000    299.47585   -1156.2726   -23070.612   -24951.491    1880.8781    1.1610133    30.985945    30.985945    30.985945    29750.497 
 5011000    295.18183    -840.1765   -23026.302   -24880.211    1853.9092    1.1610133    30.985945    30.985945    30.985945    29750.497 
 5012000    305.69347   -1536.6707   -23022.122    -24942.05    1919.9282    1.1610133    30.985945    30.985945    30.985945    29750.497 
 5013000    293.58226   -1541.7968   -22964.508   -24808.371     1843.863    1.1610133    30.985945    30.985945    30.985945    29750.497 
 5014000    306.40932   -1347.6182   -22973.466    -24897.89    1924.4242    1.1610133    30.985945    30.985945    30.985945    29750.497 
 5015000    295.09542   -1633.3609   -23136.446   -24989.813    1853.3665    1.1610133    30.985945    30.985945    30.985945    29750.497 
 5016000    290.15883   -1395.8887   -23128.398    -24950.76    1822.3619    1.1610133    30.985945    30.985945    30.985945    29750.497 
 5017000    307.22113   -1261.9857   -22925.033   -24854.556    1929.5228    1.1610133    30.985945    30.985945    30.985945    29750.497 
 5018000    302.30108   -2581.5816   -22979.017   -24877.639    1898.6221    1.1610133    30.985945    30.985945    30.985945    29750.497 
 5019000    302.96685   -359.95103   -23002.406    -24905.21    1902.8035    1.1610133    30.985945    30.985945    30.985945    29750.497 
 5020000     295.3198   -1294.6171   -23072.788   -24927.564    1854.7757    1.1610133    30.985945    30.985945    30.985945    29750.497 
 5021000    289.96018   -1711.2844   -23036.524   -24857.638    1821.1143    1.1610133    30.985945    30.985945    30.985945    29750.497 
 5022000     295.5919   -1814.9803    -23118.65   -24975.135    1856.4847    1.1610133    30.985945    30.985945    30.985945    29750.497 
 5023000     286.9177   -1398.1227   -23064.941   -24866.947    1802.0058    1.1610133    30.985945    30.985945    30.985945    29750.497 
 5024000    302.66889    -2011.116    -23061.34   -24962.272    1900.9322    1.1610133    30.985945    30.985945    30.985945    29750.497 
 5025000    300.14726    -1512.622    -23048.25   -24933.345    1885.0949    1.1610133    30.985945    30.985945    30.985945    29750.497 
 5026000    291.76873    -1473.329   -23130.614   -24963.087     1832.473    1.1610133    30.985945    30.985945    30.985945    29750.497 
 5027000      299.956   -1858.6493   -23061.621   -24945.515    1883.8937    1.1610133    30.985945    30.985945    30.985945    29750.497 
 5028000    300.03606   -491.82963   -23042.979   -24927.376    1884.3965    1.1610133    30.985945    30.985945    30.985945    29750.497 
 5029000     288.4245   -868.89714   -23062.475   -24873.944    1811.4694    1.1610133    30.985945    30.985945    30.985945    29750.497 
 5030000    302.22292    -1598.499   -23104.048   -25002.179    1898.1312    1.1610133    30.985945    30.985945    30.985945    29750.497 
 5031000     301.2052   -1446.8936   -23024.347   -24916.087    1891.7394    1.1610133    30.985945    30.985945    30.985945    29750.497 
 5032000    304.07508   -949.64283   -23032.905   -24942.669    1909.7639    1.1610133    30.985945    30.985945    30.985945    29750.497 
 5033000     291.5324   -1643.9236   -23041.405   -24872.394    1830.9887    1.1610133    30.985945    30.985945    30.985945    29750.497 
 5034000    300.32556   -2415.4291   -23083.427   -24969.642    1886.2148    1.1610133    30.985945    30.985945    30.985945    29750.497 
 5035000     308.0731   -1731.7821    -23034.77   -24969.643    1934.8737    1.1610133    30.985945    30.985945    30.985945    29750.497 
 5036000    299.06145   -1964.2587   -23088.513   -24966.788    1878.2754    1.1610133    30.985945    30.985945    30.985945    29750.497 
 5037000    285.89563   -1968.1667   -23181.677   -24977.264    1795.5866    1.1610133    30.985945    30.985945    30.985945    29750.497 
 5038000    297.34106    -2130.054    -23085.47   -24952.941    1867.4704    1.1610133    30.985945    30.985945    30.985945    29750.497 
 5039000    298.06282   -1745.5557   -23061.377   -24933.381    1872.0034    1.1610133    30.985945    30.985945    30.985945    29750.497 
 5040000    291.05524   -2114.5147   -23105.597   -24933.589    1827.9919    1.1610133    30.985945    30.985945    30.985945    29750.497 
 5041000    300.92941   -1480.9274   -23114.719   -25004.726    1890.0073    1.1610133    30.985945    30.985945    30.985945    29750.497 
 5042000    295.54289   -1032.5518   -23105.479   -24961.656    1856.1768    1.1610133    30.985945    30.985945    30.985945    29750.497 
 5043000    302.43481    -2077.674   -23068.256   -24967.718     1899.462    1.1610133    30.985945    30.985945    30.985945    29750.497 
 5044000    299.49203   -1946.3324   -23067.412   -24948.392    1880.9797    1.1610133    30.985945    30.985945    30.985945    29750.497 
 5045000    301.10706    -1582.591   -23004.505   -24895.628     1891.123    1.1610133    30.985945    30.985945    30.985945    29750.497 
 5046000    302.01962   -1831.0276   -23053.156    -24950.01    1896.8544    1.1610133    30.985945    30.985945    30.985945    29750.497 
 5047000    295.79948   -2192.7453   -23112.942    -24970.73    1857.7884    1.1610133    30.985945    30.985945    30.985945    29750.497 
 5048000    299.73511   -1599.3949   -23097.675   -24980.181    1882.5064    1.1610133    30.985945    30.985945    30.985945    29750.497 
 5049000    294.36968   -2030.4631   -23015.223   -24864.032    1848.8085    1.1610133    30.985945    30.985945    30.985945    29750.497 
 5050000    300.67671   -745.78562   -23040.966   -24929.386    1888.4202    1.1610133    30.985945    30.985945    30.985945    29750.497 
 5051000    296.14996   -1361.8512     -23098.7    -24958.69    1859.9896    1.1610133    30.985945    30.985945    30.985945    29750.497 
 5052000    298.76864   -1528.3911   -23114.919   -24991.355    1876.4364    1.1610133    30.985945    30.985945    30.985945    29750.497 
 5053000    301.03062   -2198.2394   -22937.931   -24828.574    1890.6429    1.1610133    30.985945    30.985945    30.985945    29750.497 
 5054000    311.31092   -2035.5981   -23070.117   -25025.326     1955.209    1.1610133    30.985945    30.985945    30.985945    29750.497 
 5055000    309.22874   -653.68475   -23060.493   -25002.624    1942.1318    1.1610133    30.985945    30.985945    30.985945    29750.497 
 5056000    286.76711    -1028.778   -23174.096   -24975.156      1801.06    1.1610133    30.985945    30.985945    30.985945    29750.497 
 5057000    300.65369   -1764.0831   -23115.039   -25003.315    1888.2756    1.1610133    30.985945    30.985945    30.985945    29750.497 
 5058000    300.40015   -1818.6346   -23172.572   -25059.256    1886.6832    1.1610133    30.985945    30.985945    30.985945    29750.497 
 5059000    296.05051   -501.09671   -23141.377   -25000.742     1859.365    1.1610133    30.985945    30.985945    30.985945    29750.497 
 5060000    300.58266     -1387.58   -23070.166   -24957.995    1887.8294    1.1610133    30.985945    30.985945    30.985945    29750.497 
 5061000    307.17968   -1607.9463   -22986.575   -24915.838    1929.2625    1.1610133    30.985945    30.985945    30.985945    29750.497 
 5062000    289.02758   -1674.4361   -23095.217   -24910.474     1815.257    1.1610133    30.985945    30.985945    30.985945    29750.497 
 5063000    290.80224   -1000.5601   -23161.678   -24988.081    1826.4029    1.1610133    30.985945    30.985945    30.985945    29750.497 
 5064000    299.53251   -1591.4175   -23115.597   -24996.831    1881.2339    1.1610133    30.985945    30.985945    30.985945    29750.497 
 5065000    297.44963    -1496.545   -23106.942   -24975.095    1868.1522    1.1610133    30.985945    30.985945    30.985945    29750.497 
 5066000    295.83273   -2211.8374   -23111.709   -24969.706    1857.9972    1.1610133    30.985945    30.985945    30.985945    29750.497 
 5067000    303.49453   -2918.4777   -23019.296   -24925.414    1906.1177    1.1610133    30.985945    30.985945    30.985945    29750.497 
 5068000    302.90094   -1604.8662   -23024.391    -24926.78    1902.3895    1.1610133    30.985945    30.985945    30.985945    29750.497 
 5069000    300.65675   -1579.3114    -22996.55   -24884.845    1888.2948    1.1610133    30.985945    30.985945    30.985945    29750.497 
 5070000    304.02302   -1301.3623   -23069.338   -24978.775    1909.4369    1.1610133    30.985945    30.985945    30.985945    29750.497 
 5071000    297.54197   -1290.0043   -23094.974   -24963.706    1868.7322    1.1610133    30.985945    30.985945    30.985945    29750.497 
 5072000    298.56046   -1065.7387   -23055.485   -24930.614    1875.1289    1.1610133    30.985945    30.985945    30.985945    29750.497 
 5073000    297.81083   -1538.1565   -23107.008   -24977.429    1870.4208    1.1610133    30.985945    30.985945    30.985945    29750.497 
 5074000    294.89695   -1822.2242   -23114.861   -24966.981      1852.12    1.1610133    30.985945    30.985945    30.985945    29750.497 
 5075000    297.56781   -2062.6909   -23129.785   -24998.679    1868.8945    1.1610133    30.985945    30.985945    30.985945    29750.497 
 5076000    296.57796    -2107.446   -23053.762    -24916.44    1862.6777    1.1610133    30.985945    30.985945    30.985945    29750.497 
 5077000    290.19329   -1032.4475   -23128.524   -24951.102    1822.5783    1.1610133    30.985945    30.985945    30.985945    29750.497 
 5078000    302.80722    -1192.236   -23074.061   -24975.862     1901.801    1.1610133    30.985945    30.985945    30.985945    29750.497 
 5079000    301.45431   -1829.2759   -23061.433   -24954.737    1893.3039    1.1610133    30.985945    30.985945    30.985945    29750.497 
 5080000    289.75644   -1369.6729   -23112.721   -24932.555    1819.8347    1.1610133    30.985945    30.985945    30.985945    29750.497 
 5081000    302.84914    -1075.384   -23008.994   -24911.058    1902.0643    1.1610133    30.985945    30.985945    30.985945    29750.497 
 5082000     297.7388    -669.0141   -23018.962   -24888.931    1869.9684    1.1610133    30.985945    30.985945    30.985945    29750.497 
 5083000    292.01062   -1436.5011   -23035.257   -24869.249    1833.9922    1.1610133    30.985945    30.985945    30.985945    29750.497 
 5084000    304.64719   -1692.1926   -22976.424   -24889.781     1913.357    1.1610133    30.985945    30.985945    30.985945    29750.497 
 5085000    297.99448    -1407.848   -23038.514   -24910.088    1871.5742    1.1610133    30.985945    30.985945    30.985945    29750.497 
 5086000    308.84077   -1756.5832   -22991.075    -24930.77    1939.6951    1.1610133    30.985945    30.985945    30.985945    29750.497 
 5087000    296.23591   -1965.9111   -23078.119   -24938.649    1860.5294    1.1610133    30.985945    30.985945    30.985945    29750.497 
 5088000    294.14537   -2160.5116   -23126.517   -24973.917    1847.3996    1.1610133    30.985945    30.985945    30.985945    29750.497 
 5089000    300.54242   -2138.4243    -23018.93   -24906.506    1887.5767    1.1610133    30.985945    30.985945    30.985945    29750.497 
 5090000    302.01327   -1019.4881   -23080.191   -24977.006    1896.8145    1.1610133    30.985945    30.985945    30.985945    29750.497 
 5091000    298.56746    41.112908   -23062.245   -24937.418    1875.1729    1.1610133    30.985945    30.985945    30.985945    29750.497 
 5092000    298.24464   -1280.7044   -23139.873   -25013.018    1873.1454    1.1610133    30.985945    30.985945    30.985945    29750.497 
 5093000    305.78792   -1551.5474   -23085.713   -25006.235    1920.5215    1.1610133    30.985945    30.985945    30.985945    29750.497 
 5094000    304.82941    -1277.213   -23003.678   -24918.179    1914.5015    1.1610133    30.985945    30.985945    30.985945    29750.497 
 5095000    293.52406   -2060.7886    -23057.15   -24900.648    1843.4975    1.1610133    30.985945    30.985945    30.985945    29750.497 
 5096000     301.5868    -1636.935   -23034.245   -24928.381     1894.136    1.1610133    30.985945    30.985945    30.985945    29750.497 
 5097000    313.84489   -1666.9089   -22912.142   -24883.265    1971.1238    1.1610133    30.985945    30.985945    30.985945    29750.497 
 5098000    298.71274   -2716.7281    -23085.26   -24961.346    1876.0853    1.1610133    30.985945    30.985945    30.985945    29750.497 
 5099000     298.7121   -1268.8234   -23052.845   -24928.927    1876.0813    1.1610133    30.985945    30.985945    30.985945    29750.497 
 5100000     288.8542    -1221.888   -23193.739   -25007.907    1814.1681    1.1610133    30.985945    30.985945    30.985945    29750.497 
 5101000    299.10134     -1785.25   -23020.896   -24899.421    1878.5259    1.1610133    30.985945    30.985945    30.985945    29750.497 
 5102000     302.8104   -1288.8164   -22988.555   -24890.376    1901.8209    1.1610133    30.985945    30.985945    30.985945    29750.497 
 5103000    302.90185   -1873.3922   -23011.503   -24913.898    1902.3953    1.1610133    30.985945    30.985945    30.985945    29750.497 
 5104000    292.63646   -1484.9927     -23153.2   -24991.123    1837.9228    1.1610133    30.985945    30.985945    30.985945    29750.497 
 5105000    304.13242   -1080.7312    -23049.17   -24959.294     1910.124    1.1610133    30.985945    30.985945    30.985945    29750.497 
 5106000    297.17012   -1704.7175   -23072.828   -24939.225    1866.3968    1.1610133    30.985945    30.985945    30.985945    29750.497 
 5107000    296.70567   -990.82191   -23031.164   -24894.644    1863.4798    1.1610133    30.985945    30.985945    30.985945    29750.497 
 5108000    300.79573   -878.53843   -23009.376   -24898.544    1889.1676    1.1610133    30.985945    30.985945    30.985945    29750.497 
 5109000    306.85985   -1708.0156   -23063.414   -24990.668    1927.2538    1.1610133    30.985945    30.985945    30.985945    29750.497 
 5110000    300.61964   -2097.8894   -23039.657   -24927.719    1888.0617    1.1610133    30.985945    30.985945    30.985945    29750.497 
 5111000    295.50794   -2617.6296    -23095.37   -24951.327    1855.9574    1.1610133    30.985945    30.985945    30.985945    29750.497 
 5112000    303.79362   -1130.6794   -23128.095   -25036.092    1907.9961    1.1610133    30.985945    30.985945    30.985945    29750.497 
 5113000    293.65081   -1274.2705   -23196.723   -25041.017    1844.2935    1.1610133    30.985945    30.985945    30.985945    29750.497 
 5114000    300.29288   -2120.6579   -23095.159   -24981.169    1886.0095    1.1610133    30.985945    30.985945    30.985945    29750.497 
 5115000    307.59926   -2126.7453    -23137.89   -25069.788    1931.8977    1.1610133    30.985945    30.985945    30.985945    29750.497 
 5116000    292.26357   -2723.5724   -23132.516   -24968.097    1835.5809    1.1610133    30.985945    30.985945    30.985945    29750.497 
 5117000    292.03633   -1760.4344   -23140.717   -24974.871    1834.1537    1.1610133    30.985945    30.985945    30.985945    29750.497 
 5118000    301.74823    -2648.564   -22989.521   -24884.671    1895.1499    1.1610133    30.985945    30.985945    30.985945    29750.497 
 5119000    297.87783   -2557.3166   -23106.761   -24977.602    1870.8416    1.1610133    30.985945    30.985945    30.985945    29750.497 
 5120000    293.96674   -2486.9175   -23111.367   -24957.645    1846.2778    1.1610133    30.985945    30.985945    30.985945    29750.497 
 5121000    292.07086   -2471.6876   -23179.632   -25014.002    1834.3706    1.1610133    30.985945    30.985945    30.985945    29750.497 
 5122000    294.36261   -2139.1998   -23156.986    -25005.75     1848.764    1.1610133    30.985945    30.985945    30.985945    29750.497 
 5123000    296.63279   -1895.0548   -23021.414   -24884.436     1863.022    1.1610133    30.985945    30.985945    30.985945    29750.497 
 5124000    300.79295   -1931.1375   -23122.321   -25011.471    1889.1502    1.1610133    30.985945    30.985945    30.985945    29750.497 
 5125000    294.22199   -2053.7684   -23109.044   -24956.925    1847.8809    1.1610133    30.985945    30.985945    30.985945    29750.497 
 5126000    307.69722   -1915.3273   -23071.443   -25003.956     1932.513    1.1610133    30.985945    30.985945    30.985945    29750.497 
 5127000    300.72233   -1167.1367   -23124.599   -25013.306    1888.7067    1.1610133    30.985945    30.985945    30.985945    29750.497 
 5128000    298.73281    -2480.887   -23062.083   -24938.295    1876.2113    1.1610133    30.985945    30.985945    30.985945    29750.497 
 5129000    300.92062   -1659.1509   -23131.967   -25021.919    1889.9521    1.1610133    30.985945    30.985945    30.985945    29750.497 
 5130000    294.08642    -2216.217   -23148.235   -24995.265    1847.0294    1.1610133    30.985945    30.985945    30.985945    29750.497 
 5131000     298.7866   -1777.3389   -23082.592   -24959.141    1876.5492    1.1610133    30.985945    30.985945    30.985945    29750.497 
 5132000    301.34823     -1638.75   -23080.378   -24973.016    1892.6377    1.1610133    30.985945    30.985945    30.985945    29750.497 
 5133000    299.67566   -2223.5795   -23099.531   -24981.664     1882.133    1.1610133    30.985945    30.985945    30.985945    29750.497 
 5134000    307.55922   -2330.1666   -23061.788   -24993.434    1931.6462    1.1610133    30.985945    30.985945    30.985945    29750.497 
 5135000     297.1201   -1301.9115   -23202.044   -25068.127    1866.0826    1.1610133    30.985945    30.985945    30.985945    29750.497 
 5136000    296.08681    -1718.515   -23162.085   -25021.678     1859.593    1.1610133    30.985945    30.985945    30.985945    29750.497 
 5137000    298.80481   -2685.7654   -23083.981   -24960.644    1876.6636    1.1610133    30.985945    30.985945    30.985945    29750.497 
 5138000    303.41895   -1524.5449   -22999.165   -24904.808     1905.643    1.1610133    30.985945    30.985945    30.985945    29750.497 
 5139000    296.23589   -1388.4295   -23117.898   -24978.427    1860.5293    1.1610133    30.985945    30.985945    30.985945    29750.497 
 5140000    298.15171   -2944.0653   -23116.211   -24988.772    1872.5617    1.1610133    30.985945    30.985945    30.985945    29750.497 
 5141000     305.9412   -2055.0026   -23008.305   -24929.789    1921.4842    1.1610133    30.985945    30.985945    30.985945    29750.497 
 5142000    297.37064   -1317.6341   -23124.769   -24992.426    1867.6562    1.1610133    30.985945    30.985945    30.985945    29750.497 
 5143000    287.48715   -1871.4328   -23092.656   -24898.238    1805.5822    1.1610133    30.985945    30.985945    30.985945    29750.497 
 5144000    295.75224   -1796.2365   -23121.491   -24978.983    1857.4917    1.1610133    30.985945    30.985945    30.985945    29750.497 
 5145000    292.81171   -2652.7913   -23059.747    -24898.77    1839.0235    1.1610133    30.985945    30.985945    30.985945    29750.497 
 5146000    298.61662   -1224.6608    -23094.64   -24970.121    1875.4816    1.1610133    30.985945    30.985945    30.985945    29750.497 
 5147000    298.48926   -1073.6698   -23055.945   -24930.627    1874.6817    1.1610133    30.985945    30.985945    30.985945    29750.497 
 5148000    306.28518    -1664.585    -23086.15   -25009.794    1923.6445    1.1610133    30.985945    30.985945    30.985945    29750.497 
 5149000    290.89284   -2396.0997   -23153.186   -24980.158    1826.9719    1.1610133    30.985945    30.985945    30.985945    29750.497 
 5150000    302.68614    -1638.088   -23085.442   -24986.483    1901.0405    1.1610133    30.985945    30.985945    30.985945    29750.497 
 5151000    292.80618    -1449.484   -23152.796   -24991.785    1838.9888    1.1610133    30.985945    30.985945    30.985945    29750.497 
 5152000    308.06651   -1867.6696    -23073.76   -25008.593    1934.8323    1.1610133    30.985945    30.985945    30.985945    29750.497 
 5153000     290.8083   -1138.9549   -23217.642   -25044.083    1826.4409    1.1610133    30.985945    30.985945    30.985945    29750.497 
 5154000    306.65705   -110.00752   -23019.054   -24945.034    1925.9801    1.1610133    30.985945    30.985945    30.985945    29750.497 
 5155000    297.12729   -265.00764   -23085.894   -24952.022    1866.1278    1.1610133    30.985945    30.985945    30.985945    29750.497 
 5156000    291.90128   -1492.7694   -23179.945    -25013.25    1833.3055    1.1610133    30.985945    30.985945    30.985945    29750.497 
 5157000     303.6019    -890.9406   -23035.336   -24942.128     1906.792    1.1610133    30.985945    30.985945    30.985945    29750.497 
 5158000    311.29386   -1156.4185   -22891.879   -24846.981    1955.1019    1.1610133    30.985945    30.985945    30.985945    29750.497 
 5159000    294.43279   -1161.5599   -22994.485    -24843.69    1849.2048    1.1610133    30.985945    30.985945    30.985945    29750.497 
 5160000    302.02763   -1435.5965   -23052.904   -24949.809    1896.9047    1.1610133    30.985945    30.985945    30.985945    29750.497 
 5161000    290.94163   -1481.1725   -23048.693   -24875.971    1827.2783    1.1610133    30.985945    30.985945    30.985945    29750.497 
 5162000    290.46586   -1586.7183   -23105.356   -24929.646    1824.2902    1.1610133    30.985945    30.985945    30.985945    29750.497 
 5163000    299.07202   -849.31041   -23006.045   -24884.387    1878.3418    1.1610133    30.985945    30.985945    30.985945    29750.497 
 5164000    300.27714     -1372.27   -22988.285   -24874.196    1885.9106    1.1610133    30.985945    30.985945    30.985945    29750.497 
 5165000    288.64937   -2462.1121   -23076.149    -24889.03    1812.8816    1.1610133    30.985945    30.985945    30.985945    29750.497 
 5166000    301.45225   -1459.6928   -23036.266   -24929.557     1893.291    1.1610133    30.985945    30.985945    30.985945    29750.497 
 5167000    297.31257   -1554.6819    -23135.83   -25003.122    1867.2914    1.1610133    30.985945    30.985945    30.985945    29750.497 
 5168000    305.03046   -1295.0769   -22938.032   -24853.796    1915.7642    1.1610133    30.985945    30.985945    30.985945    29750.497 
 5169000    306.60589   -1155.8848   -23029.512   -24955.171    1925.6587    1.1610133    30.985945    30.985945    30.985945    29750.497 
 5170000    306.54109   -1071.8828   -23018.511   -24943.763    1925.2518    1.1610133    30.985945    30.985945    30.985945    29750.497 
 5171000    296.20865   -1341.5768   -22966.057   -24826.415    1860.3582    1.1610133    30.985945    30.985945    30.985945    29750.497 
 5172000    302.08463   -991.23328   -23039.916   -24937.179    1897.2627    1.1610133    30.985945    30.985945    30.985945    29750.497 
 5173000    292.11868   -1330.8033   -23073.843   -24908.514    1834.6708    1.1610133    30.985945    30.985945    30.985945    29750.497 
 5174000    293.65273   -1188.9653   -23038.517   -24882.822    1844.3056    1.1610133    30.985945    30.985945    30.985945    29750.497 
 5175000    301.16176   -1340.5355   -23116.264   -25007.731    1891.4665    1.1610133    30.985945    30.985945    30.985945    29750.497 
 5176000    291.38732   -1540.6187   -23162.215   -24992.293    1830.0775    1.1610133    30.985945    30.985945    30.985945    29750.497 
 5177000    295.39262   -982.43585   -23039.175   -24894.408    1855.2331    1.1610133    30.985945    30.985945    30.985945    29750.497 
 5178000    294.20334   -1755.7875   -23051.937   -24899.701    1847.7637    1.1610133    30.985945    30.985945    30.985945    29750.497 
 5179000    295.46529    -2531.859   -23077.891   -24933.581    1855.6895    1.1610133    30.985945    30.985945    30.985945    29750.497 
 5180000    295.03094   -1416.7583   -23180.532   -25033.494    1852.9615    1.1610133    30.985945    30.985945    30.985945    29750.497 
 5181000    302.77765   -1458.7866   -23096.271   -24997.886    1901.6152    1.1610133    30.985945    30.985945    30.985945    29750.497 
 5182000    295.53182   -1561.6479   -23084.527   -24940.634    1856.1073    1.1610133    30.985945    30.985945    30.985945    29750.497 
 5183000    294.27342   -1984.4832   -23116.383   -24964.587    1848.2038    1.1610133    30.985945    30.985945    30.985945    29750.497 
 5184000    304.22159   -1889.7503   -23132.043   -25042.727     1910.684    1.1610133    30.985945    30.985945    30.985945    29750.497 
 5185000    300.66545   -1731.8343   -23084.427   -24972.777    1888.3495    1.1610133    30.985945    30.985945    30.985945    29750.497 
 5186000    294.09543   -945.53137   -22995.487   -24842.573     1847.086    1.1610133    30.985945    30.985945    30.985945    29750.497 
 5187000    295.79446   -887.40918   -23097.922   -24955.678    1857.7569    1.1610133    30.985945    30.985945    30.985945    29750.497 
 5188000    290.03356   -1358.7909   -23172.849   -24994.424    1821.5752    1.1610133    30.985945    30.985945    30.985945    29750.497 
 5189000    296.27107    -314.1491   -23120.885   -24981.635    1860.7502    1.1610133    30.985945    30.985945    30.985945    29750.497 
 5190000    298.38804    -1671.423   -23173.662   -25047.708     1874.046    1.1610133    30.985945    30.985945    30.985945    29750.497 
 5191000    293.84113   -1438.1715   -23175.427   -25020.916    1845.4888    1.1610133    30.985945    30.985945    30.985945    29750.497 
 5192000    300.61902   -1777.6277   -23037.203   -24925.261    1888.0578    1.1610133    30.985945    30.985945    30.985945    29750.497 
 5193000    293.30448   -1034.7158   -23110.581     -24952.7    1842.1184    1.1610133    30.985945    30.985945    30.985945    29750.497 
 5194000    292.70497   -1371.2095   -23144.578   -24982.932    1838.3531    1.1610133    30.985945    30.985945    30.985945    29750.497 
 5195000     311.3378   -1334.6699   -23065.994   -25021.371    1955.3778    1.1610133    30.985945    30.985945    30.985945    29750.497 
 5196000    298.97057   -2122.0661   -23082.731   -24960.436    1877.7047    1.1610133    30.985945    30.985945    30.985945    29750.497 
 5197000    303.05506   -584.98993   -23052.772    -24956.13    1903.3575    1.1610133    30.985945    30.985945    30.985945    29750.497 
 5198000    299.05246   -2246.7664   -23107.582   -24985.801    1878.2189    1.1610133    30.985945    30.985945    30.985945    29750.497 
 5199000    302.38759   -2027.5232   -23043.397   -24942.562    1899.1654    1.1610133    30.985945    30.985945    30.985945    29750.497 
 5200000    295.72044   -1534.1465   -23088.281   -24945.573     1857.292    1.1610133    30.985945    30.985945    30.985945    29750.497 
 5201000    299.84486   -1456.6983   -23063.266   -24946.462    1883.1957    1.1610133    30.985945    30.985945    30.985945    29750.497 
 5202000     297.2507   -1808.3885   -23043.304   -24910.207    1866.9029    1.1610133    30.985945    30.985945    30.985945    29750.497 
 5203000    294.81635   -329.61992   -23075.245   -24926.859    1851.6138    1.1610133    30.985945    30.985945    30.985945    29750.497 
 5204000    300.98877    -1426.724   -23054.104   -24944.484    1890.3801    1.1610133    30.985945    30.985945    30.985945    29750.497 
 5205000    299.58471   -1482.6908   -22990.737   -24872.299    1881.5618    1.1610133    30.985945    30.985945    30.985945    29750.497 
 5206000    291.01445    -909.4295   -23123.918   -24951.654    1827.7357    1.1610133    30.985945    30.985945    30.985945    29750.497 
 5207000    293.94618   -1723.4942   -23000.094   -24846.243    1846.1486    1.1610133    30.985945    30.985945    30.985945    29750.497 
 5208000    289.18787   -1513.0756   -23054.996    -24871.26    1816.2638    1.1610133    30.985945    30.985945    30.985945    29750.497 
 5209000    307.32472   -911.21129   -22899.466    -24829.64    1930.1734    1.1610133    30.985945    30.985945    30.985945    29750.497 
 5210000    293.91788   -2344.6943    -22992.36   -24838.331    1845.9709    1.1610133    30.985945    30.985945    30.985945    29750.497 
 5211000    289.32075    -1894.616   -23095.251   -24912.349    1817.0983    1.1610133    30.985945    30.985945    30.985945    29750.497 
 5212000    295.30779   -1060.1042   -23077.722   -24932.422    1854.7003    1.1610133    30.985945    30.985945    30.985945    29750.497 
 5213000    291.16642   -2098.0619   -23103.869    -24932.56    1828.6902    1.1610133    30.985945    30.985945    30.985945    29750.497 
 5214000    305.10631   -1834.5611   -22996.876   -24913.116    1916.2405    1.1610133    30.985945    30.985945    30.985945    29750.497 
 5215000    292.44709   -1313.3084   -23063.845   -24900.579    1836.7334    1.1610133    30.985945    30.985945    30.985945    29750.497 
 5216000    295.84992    -1207.821   -23018.238   -24876.343    1858.1052    1.1610133    30.985945    30.985945    30.985945    29750.497 
 5217000    300.27011   -1631.6641   -23020.999   -24906.866    1885.8665    1.1610133    30.985945    30.985945    30.985945    29750.497 
 5218000     298.4485   -1058.9194   -23069.496   -24943.921    1874.4258    1.1610133    30.985945    30.985945    30.985945    29750.497 
 5219000    293.30143   -1613.6739   -23103.298   -24945.398    1842.0992    1.1610133    30.985945    30.985945    30.985945    29750.497 
 5220000    301.97352   -2031.6479   -23104.634   -25001.199    1896.5648    1.1610133    30.985945    30.985945    30.985945    29750.497 
 5221000    298.49889   -593.62017   -23052.866   -24927.609    1874.7422    1.1610133    30.985945    30.985945    30.985945    29750.497 
 5222000    300.69133   -2968.2817   -23088.974   -24977.486     1888.512    1.1610133    30.985945    30.985945    30.985945    29750.497 
 5223000    302.51411   -2094.3461   -23031.806   -24931.766    1899.9601    1.1610133    30.985945    30.985945    30.985945    29750.497 
 5224000    296.93851   -1733.6351   -23035.758     -24900.7    1864.9421    1.1610133    30.985945    30.985945    30.985945    29750.497 
 5225000    300.29616   -1272.4514   -23158.127   -25044.157    1886.0301    1.1610133    30.985945    30.985945    30.985945    29750.497 
 5226000    300.86502   -1170.9625   -23027.905   -24917.508    1889.6029    1.1610133    30.985945    30.985945    30.985945    29750.497 
 5227000    309.97919   -2476.7106   -22962.583   -24909.428     1946.845    1.1610133    30.985945    30.985945    30.985945    29750.497 
 5228000    301.59604   -1950.8887   -23071.843   -24966.037    1894.1941    1.1610133    30.985945    30.985945    30.985945    29750.497 
 5229000    302.44495   -1028.9948   -23057.418   -24956.944    1899.5257    1.1610133    30.985945    30.985945    30.985945    29750.497 
 5230000    295.55965   -1064.2634   -23056.308   -24912.591    1856.2821    1.1610133    30.985945    30.985945    30.985945    29750.497 
 5231000    300.12341   -1423.9778   -23125.921   -25010.866    1884.9451    1.1610133    30.985945    30.985945    30.985945    29750.497 
 5232000    302.27185   -2276.0293    -23067.01   -24965.449    1898.4385    1.1610133    30.985945    30.985945    30.985945    29750.497 
 5233000    296.67945   -2491.4088   -23064.161   -24927.476    1863.3151    1.1610133    30.985945    30.985945    30.985945    29750.497 
 5234000    300.26332    -1659.377    -23081.65   -24967.474    1885.8238    1.1610133    30.985945    30.985945    30.985945    29750.497 
 5235000    303.34158   -1489.6313   -23089.273    -24994.43     1905.157    1.1610133    30.985945    30.985945    30.985945    29750.497 
 5236000    292.45211   -2043.7556   -23115.769   -24952.534     1836.765    1.1610133    30.985945    30.985945    30.985945    29750.497 
 5237000    302.11963   -1309.7665   -23093.777   -24991.259    1897.4825    1.1610133    30.985945    30.985945    30.985945    29750.497 
 5238000    306.75794   -1782.1008   -22986.166    -24912.78    1926.6137    1.1610133    30.985945    30.985945    30.985945    29750.497 
 5239000     301.1132   -1533.9049    -22968.87   -24860.031    1891.1615    1.1610133    30.985945    30.985945    30.985945    29750.497 
 5240000    296.74954   -599.02178    -23086.45   -24950.205    1863.7553    1.1610133    30.985945    30.985945    30.985945    29750.497 
 5241000    296.26044   -1680.8074   -23060.237    -24920.92    1860.6835    1.1610133    30.985945    30.985945    30.985945    29750.497 
 5242000    310.95993   -689.17867   -23038.973   -24991.977    1953.0046    1.1610133    30.985945    30.985945    30.985945    29750.497 
 5243000    301.06609   -1149.5726   -23107.951   -24998.817    1890.8657    1.1610133    30.985945    30.985945    30.985945    29750.497 
 5244000    300.95366   -1696.6041   -23112.068   -25002.228    1890.1596    1.1610133    30.985945    30.985945    30.985945    29750.497 
 5245000    301.83176   -1619.9424   -23098.666   -24994.341    1895.6745    1.1610133    30.985945    30.985945    30.985945    29750.497 
 5246000    306.87432   -2038.9278   -23023.903   -24951.248    1927.3447    1.1610133    30.985945    30.985945    30.985945    29750.497 
 5247000    295.56327   -1036.6795   -23151.412   -25007.717    1856.3048    1.1610133    30.985945    30.985945    30.985945    29750.497 
 5248000     302.1719   -865.25657   -23081.999    -24979.81    1897.8108    1.1610133    30.985945    30.985945    30.985945    29750.497 
 5249000    294.49528   -2556.6366   -23170.291   -25019.888    1849.5973    1.1610133    30.985945    30.985945    30.985945    29750.497 
 5250000    290.74097   -1051.6836   -23051.319   -24877.337    1826.0181    1.1610133    30.985945    30.985945    30.985945    29750.497 
 5251000    308.39592   -1439.7522   -23087.853   -25024.755    1936.9012    1.1610133    30.985945    30.985945    30.985945    29750.497 
 5252000    293.73549   -1427.8574   -23160.008   -25004.834    1844.8254    1.1610133    30.985945    30.985945    30.985945    29750.497 
 5253000    291.53038   -1353.6019   -23149.555   -24980.531     1830.976    1.1610133    30.985945    30.985945    30.985945    29750.497 
 5254000    301.09292   -1910.4912   -23011.166   -24902.201    1891.0342    1.1610133    30.985945    30.985945    30.985945    29750.497 
 5255000    294.02302   -1742.0498   -23148.662   -24995.293    1846.6312    1.1610133    30.985945    30.985945    30.985945    29750.497 
 5256000    300.46831   -1379.6128   -23035.494   -24922.605    1887.1113    1.1610133    30.985945    30.985945    30.985945    29750.497 
 5257000    297.76159   -1073.0147   -23055.305   -24925.416    1870.1115    1.1610133    30.985945    30.985945    30.985945    29750.497 
 5258000    289.96992   -2409.7541   -23148.318   -24969.493    1821.1754    1.1610133    30.985945    30.985945    30.985945    29750.497 
 5259000    305.33121   -1059.6941   -23014.775   -24932.428    1917.6531    1.1610133    30.985945    30.985945    30.985945    29750.497 
 5260000    301.72772   -1586.6186   -23085.102   -24980.123    1895.0211    1.1610133    30.985945    30.985945    30.985945    29750.497 
 5261000    303.17031   -1797.0269     -23015.5   -24919.581    1904.0814    1.1610133    30.985945    30.985945    30.985945    29750.497 
 5262000     289.2626   -1034.4012    -23190.91   -25007.643     1816.733    1.1610133    30.985945    30.985945    30.985945    29750.497 
 5263000    297.43043    -1176.499   -22996.453   -24864.484    1868.0317    1.1610133    30.985945    30.985945    30.985945    29750.497 
 5264000    296.55767   -644.05413   -23031.873   -24894.423    1862.5502    1.1610133    30.985945    30.985945    30.985945    29750.497 
 5265000    299.75575   -907.96442   -23078.627   -24961.263     1882.636    1.1610133    30.985945    30.985945    30.985945    29750.497 
 5266000    293.26635   -1146.6832   -22993.671    -24835.55    1841.8789    1.1610133    30.985945    30.985945    30.985945    29750.497 
 5267000    292.91858   -627.63281   -23166.448   -25006.143    1839.6947    1.1610133    30.985945    30.985945    30.985945    29750.497 
 5268000    290.05875   -1778.5859   -23079.748   -24901.481    1821.7333    1.1610133    30.985945    30.985945    30.985945    29750.497 
 5269000     292.1991   -1407.5716   -23056.187   -24891.363     1835.176    1.1610133    30.985945    30.985945    30.985945    29750.497 
 5270000    303.29853   -1213.0286   -23060.156   -24965.042    1904.8866    1.1610133    30.985945    30.985945    30.985945    29750.497 
 5271000     302.4708   -948.80519    -23021.35   -24921.038    1899.6881    1.1610133    30.985945    30.985945    30.985945    29750.497 
 5272000    300.57219   -1644.0312   -22977.661   -24865.424    1887.7637    1.1610133    30.985945    30.985945    30.985945    29750.497 
 5273000    298.17969   -1670.2825    -23039.44   -24912.178    1872.7375    1.1610133    30.985945    30.985945    30.985945    29750.497 
 5274000    296.47922   -2147.3328   -23064.544   -24926.602    1862.0576    1.1610133    30.985945    30.985945    30.985945    29750.497 
 5275000    289.90152   -2013.2644   -23122.458   -24943.204    1820.7458    1.1610133    30.985945    30.985945    30.985945    29750.497 
 5276000    301.81767   -1353.9637    -22915.73   -24811.316     1895.586    1.1610133    30.985945    30.985945    30.985945    29750.497 
 5277000    295.95118   -1753.4041   -23040.138   -24898.879    1858.7411    1.1610133    30.985945    30.985945    30.985945    29750.497 
 5278000    302.86116   -1219.6022   -22983.867   -24886.007    1902.1397    1.1610133    30.985945    30.985945    30.985945    29750.497 
 5279000    305.21725   -1459.6515   -23036.596   -24953.533    1916.9373    1.1610133    30.985945    30.985945    30.985945    29750.497 
 5280000    296.31761   -1246.0308   -23131.987    -24993.03    1861.0425    1.1610133    30.985945    30.985945    30.985945    29750.497 
 5281000    303.73545   -1521.2321   -22943.723   -24851.354    1907.6308    1.1610133    30.985945    30.985945    30.985945    29750.497 
 5282000    298.60013   -2391.1454   -23073.291   -24948.669     1875.378    1.1610133    30.985945    30.985945    30.985945    29750.497 
 5283000    299.05317   -2181.6232    -23086.41   -24964.633    1878.2234    1.1610133    30.985945    30.985945    30.985945    29750.497 
 5284000    303.53481   -1963.5274   -23031.668   -24938.038    1906.3706    1.1610133    30.985945    30.985945    30.985945    29750.497 
 5285000    299.31114   -1588.2968   -23033.748   -24913.591    1879.8436    1.1610133    30.985945    30.985945    30.985945    29750.497 
 5286000    295.73701   -1841.4902   -23028.663   -24886.059    1857.3961    1.1610133    30.985945    30.985945    30.985945    29750.497 
 5287000    297.59959   -2453.0618   -23007.095   -24876.189    1869.0941    1.1610133    30.985945    30.985945    30.985945    29750.497 
 5288000     299.2239   -2235.8523   -23072.877   -24952.173    1879.2957    1.1610133    30.985945    30.985945    30.985945    29750.497 
 5289000    296.50943   -1034.9702   -23044.999   -24907.246    1862.2473    1.1610133    30.985945    30.985945    30.985945    29750.497 
 5290000    298.92978   -1096.8443   -23134.166   -25011.614    1877.4485    1.1610133    30.985945    30.985945    30.985945    29750.497 
 5291000    303.35936   -946.87592   -23071.522   -24976.791    1905.2687    1.1610133    30.985945    30.985945    30.985945    29750.497 
 5292000     292.0075   -1435.4877   -23144.357    -24978.33    1833.9726    1.1610133    30.985945    30.985945    30.985945    29750.497 
 5293000    306.08366   -1581.3689    -22899.15   -24821.529    1922.3789    1.1610133    30.985945    30.985945    30.985945    29750.497 
 5294000    290.50504   -2328.5351   -23096.216   -24920.752    1824.5363    1.1610133    30.985945    30.985945    30.985945    29750.497 
 5295000     296.4628   -1826.1653   -23084.557   -24946.511    1861.9544    1.1610133    30.985945    30.985945    30.985945    29750.497 
 5296000    295.98664   -2172.2242   -23120.256    -24979.22    1858.9639    1.1610133    30.985945    30.985945    30.985945    29750.497 
 5297000    299.40448   -1385.5358   -23063.464   -24943.894    1880.4298    1.1610133    30.985945    30.985945    30.985945    29750.497 
 5298000    304.76162   -1260.3444   -23078.394    -24992.47    1914.0757    1.1610133    30.985945    30.985945    30.985945    29750.497 
 5299000    296.73897   -2122.7958   -23047.763   -24911.452    1863.6889    1.1610133    30.985945    30.985945    30.985945    29750.497 
 5300000     294.4415   -1679.9397   -23151.533   -25000.792    1849.2595    1.1610133    30.985945    30.985945    30.985945    29750.497 
 5301000    299.58645   -1828.4853   -23103.118   -24984.691    1881.5727    1.1610133    30.985945    30.985945    30.985945    29750.497 
 5302000    303.53035   -957.36365   -22968.755   -24875.098    1906.3426    1.1610133    30.985945    30.985945    30.985945    29750.497 
 5303000    301.34527   -655.44139   -23026.592   -24919.211    1892.6191    1.1610133    30.985945    30.985945    30.985945    29750.497 
 5304000    304.60626     -1589.17   -23033.249   -24946.349       1913.1    1.1610133    30.985945    30.985945    30.985945    29750.497 
 5305000    301.25801   -1237.1924   -23109.489    -25001.56     1892.071    1.1610133    30.985945    30.985945    30.985945    29750.497 
 5306000    296.83491   -2007.7299   -23030.919   -24895.211    1864.2915    1.1610133    30.985945    30.985945    30.985945    29750.497 
 5307000    297.89241   -1032.4812   -23074.978   -24945.912    1870.9332    1.1610133    30.985945    30.985945    30.985945    29750.497 
 5308000    300.36013   -2467.8292   -23034.542   -24920.974    1886.4318    1.1610133    30.985945    30.985945    30.985945    29750.497 
 5309000    306.81274   -1227.5716   -23015.442     -24942.4    1926.9579    1.1610133    30.985945    30.985945    30.985945    29750.497 
 5310000    301.75189   -1582.3609   -23003.775   -24898.948    1895.1729    1.1610133    30.985945    30.985945    30.985945    29750.497 
 5311000    304.94559   -679.62276   -22948.857   -24864.088    1915.2311    1.1610133    30.985945    30.985945    30.985945    29750.497 
 5312000    300.43756   -1024.1279   -22992.715   -24879.633    1886.9181    1.1610133    30.985945    30.985945    30.985945    29750.497 
 5313000    287.97538   -1715.5361    -23047.99   -24856.639    1808.6486    1.1610133    30.985945    30.985945    30.985945    29750.497 
 5314000    309.47742   -1700.8245   -22959.443   -24903.136    1943.6936    1.1610133    30.985945    30.985945    30.985945    29750.497 
 5315000    299.14838    -2041.056   -23113.667   -24992.489    1878.8214    1.1610133    30.985945    30.985945    30.985945    29750.497 
 5316000    293.57247   -2461.5529   -23083.472   -24927.273    1843.8015    1.1610133    30.985945    30.985945    30.985945    29750.497 
 5317000    290.54547   -1641.9667   -23188.504   -25013.294    1824.7902    1.1610133    30.985945    30.985945    30.985945    29750.497 
 5318000    289.25104   -1612.1313   -23125.846   -24942.506    1816.6605    1.1610133    30.985945    30.985945    30.985945    29750.497 
 5319000    295.11546   -1473.1332   -23088.373   -24941.866    1853.4923    1.1610133    30.985945    30.985945    30.985945    29750.497 
 5320000    309.59538   -1836.2061   -23079.497   -25023.931    1944.4344    1.1610133    30.985945    30.985945    30.985945    29750.497 
 5321000    298.26359   -2161.8399   -23135.148   -25008.412    1873.2644    1.1610133    30.985945    30.985945    30.985945    29750.497 
 5322000    304.54489   -2444.4624   -22966.769   -24879.484    1912.7145    1.1610133    30.985945    30.985945    30.985945    29750.497 
 5323000    288.14103   -996.42042   -23145.972   -24955.661     1809.689    1.1610133    30.985945    30.985945    30.985945    29750.497 
 5324000     289.5215   -1315.5804   -23148.762   -24967.121    1818.3591    1.1610133    30.985945    30.985945    30.985945    29750.497 
 5325000    300.89451   -1593.4735   -23044.875   -24934.663     1889.788    1.1610133    30.985945    30.985945    30.985945    29750.497 
 5326000    297.48116   -2119.4744   -23034.584   -24902.934    1868.3503    1.1610133    30.985945    30.985945    30.985945    29750.497 
 5327000    308.00261   -1390.1505   -23010.691   -24945.122     1934.431    1.1610133    30.985945    30.985945    30.985945    29750.497 
 5328000    289.89155   -1530.8549   -23201.053   -25021.737    1820.6833    1.1610133    30.985945    30.985945    30.985945    29750.497 
 5329000    298.97823   -1575.4749   -23088.675   -24966.428    1877.7527    1.1610133    30.985945    30.985945    30.985945    29750.497 
 5330000    293.80682   -2332.1187   -23212.801   -25058.074    1845.2734    1.1610133    30.985945    30.985945    30.985945    29750.497 
 5331000    300.66317   -2139.2087   -23087.723   -24976.058    1888.3351    1.1610133    30.985945    30.985945    30.985945    29750.497 
 5332000    300.68056   -2039.5717   -23106.165   -24994.609    1888.4443    1.1610133    30.985945    30.985945    30.985945    29750.497 
 5333000    307.92007   -643.90647   -23093.398   -25027.311    1933.9125    1.1610133    30.985945    30.985945    30.985945    29750.497 
 5334000     303.4242   -1761.8352   -23151.071   -25056.747     1905.676    1.1610133    30.985945    30.985945    30.985945    29750.497 
 5335000    289.96535   -2452.6503    -23132.04   -24953.187    1821.1468    1.1610133    30.985945    30.985945    30.985945    29750.497 
 5336000    297.66677   -2501.9363   -23002.938   -24872.454     1869.516    1.1610133    30.985945    30.985945    30.985945    29750.497 
 5337000    300.06999   -2019.1655    -23101.11    -24985.72    1884.6096    1.1610133    30.985945    30.985945    30.985945    29750.497 
 5338000    297.28611    -2582.094    -23049.02   -24916.145    1867.1252    1.1610133    30.985945    30.985945    30.985945    29750.497 
 5339000    287.13786   -1918.3718   -23168.951    -24972.34    1803.3885    1.1610133    30.985945    30.985945    30.985945    29750.497 
 5340000    299.18457   -1644.6775   -23047.917   -24926.966    1879.0487    1.1610133    30.985945    30.985945    30.985945    29750.497 
 5341000    300.36241   -1710.5248   -23132.699   -25019.145    1886.4462    1.1610133    30.985945    30.985945    30.985945    29750.497 
 5342000    289.18849   -1903.8377   -23125.405   -24941.673    1816.2676    1.1610133    30.985945    30.985945    30.985945    29750.497 
 5343000    298.69477   -633.00423   -23108.151   -24984.123    1875.9724    1.1610133    30.985945    30.985945    30.985945    29750.497 
 5344000    305.89177     -2249.42   -23051.007   -24972.181    1921.1737    1.1610133    30.985945    30.985945    30.985945    29750.497 
 5345000    292.11658   -2328.4843   -23110.039   -24944.697    1834.6577    1.1610133    30.985945    30.985945    30.985945    29750.497 
 5346000    292.02861    -2096.757   -23139.395     -24973.5    1834.1052    1.1610133    30.985945    30.985945    30.985945    29750.497 
 5347000    299.42163    -1233.526   -23123.753   -25004.291    1880.5376    1.1610133    30.985945    30.985945    30.985945    29750.497 
 5348000    299.61229   -2085.0562   -23113.134   -24994.869     1881.735    1.1610133    30.985945    30.985945    30.985945    29750.497 
 5349000    285.80605   -1660.0656   -23211.818   -25006.842     1795.024    1.1610133    30.985945    30.985945    30.985945    29750.497 
 5350000    305.24502   -1057.3748   -23049.013   -24966.125    1917.1117    1.1610133    30.985945    30.985945    30.985945    29750.497 
 5351000     291.7176   -1208.7481   -23135.669   -24967.821    1832.1519    1.1610133    30.985945    30.985945    30.985945    29750.497 
 5352000    300.80664   -957.27928   -23054.603   -24943.839    1889.2362    1.1610133    30.985945    30.985945    30.985945    29750.497 
 5353000    294.56284    -1125.731   -23061.203   -24911.224    1850.0216    1.1610133    30.985945    30.985945    30.985945    29750.497 
 5354000     302.7848    -2421.516   -23017.578   -24919.238    1901.6602    1.1610133    30.985945    30.985945    30.985945    29750.497 
 5355000    298.19357   -1812.2011   -22981.166    -24853.99    1872.8246    1.1610133    30.985945    30.985945    30.985945    29750.497 
 5356000     290.5244    -1391.296   -23169.425   -24994.083    1824.6579    1.1610133    30.985945    30.985945    30.985945    29750.497 
 5357000    294.79313   -2220.5593   -23129.139   -24980.606    1851.4679    1.1610133    30.985945    30.985945    30.985945    29750.497 
 5358000    300.14665   -755.04727   -23028.285   -24913.377    1885.0911    1.1610133    30.985945    30.985945    30.985945    29750.497 
 5359000     295.5419   -2184.2258    -23055.67   -24911.841    1856.1706    1.1610133    30.985945    30.985945    30.985945    29750.497 
 5360000    301.78117      -1067.4    -23109.17   -25004.527    1895.3568    1.1610133    30.985945    30.985945    30.985945    29750.497 
 5361000    291.28641   -1425.2389   -23142.362   -24971.805    1829.4438    1.1610133    30.985945    30.985945    30.985945    29750.497 
 5362000    296.23341   -914.58238   -23152.287   -25012.801    1860.5137    1.1610133    30.985945    30.985945    30.985945    29750.497 
 5363000    301.78408   -972.03539   -23071.748   -24967.123    1895.3751    1.1610133    30.985945    30.985945    30.985945    29750.497 
 5364000    298.46798   -1606.4994   -23028.609   -24903.157    1874.5481    1.1610133    30.985945    30.985945    30.985945    29750.497 
 5365000    296.20439   -2006.6503   -23129.027   -24989.359    1860.3315    1.1610133    30.985945    30.985945    30.985945    29750.497 
 5366000    303.04795   -2094.2788   -23057.437    -24960.75    1903.3129    1.1610133    30.985945    30.985945    30.985945    29750.497 
 5367000    299.12285   -619.23464   -23070.521   -24949.182    1878.6611    1.1610133    30.985945    30.985945    30.985945    29750.497 
 5368000    297.23779    -1415.165   -23055.285   -24922.107    1866.8218    1.1610133    30.985945    30.985945    30.985945    29750.497 
 5369000    291.54865   -1667.6518   -23116.616   -24947.707    1831.0908    1.1610133    30.985945    30.985945    30.985945    29750.497 
 5370000    303.54654   -992.93623   -22978.188   -24884.632    1906.4443    1.1610133    30.985945    30.985945    30.985945    29750.497 
 5371000    291.95304   -2341.0462   -23121.937   -24955.567    1833.6305    1.1610133    30.985945    30.985945    30.985945    29750.497 
 5372000    296.49435   -955.13961   -23008.877    -24871.03    1862.1526    1.1610133    30.985945    30.985945    30.985945    29750.497 
 5373000     293.7344   -1155.2601   -23139.575   -24984.394    1844.8185    1.1610133    30.985945    30.985945    30.985945    29750.497 
 5374000    297.20262   -1907.9618   -23020.959    -24887.56    1866.6009    1.1610133    30.985945    30.985945    30.985945    29750.497 
 5375000    298.93234   -2075.7881    -22977.36   -24854.825    1877.4645    1.1610133    30.985945    30.985945    30.985945    29750.497 
 5376000    290.70939   -807.73477   -23026.586   -24852.405    1825.8197    1.1610133    30.985945    30.985945    30.985945    29750.497 
 5377000    293.93229   -1218.2591   -23090.092   -24936.153    1846.0614    1.1610133    30.985945    30.985945    30.985945    29750.497 
 5378000    297.58553   -1831.3867   -23031.056   -24900.061    1869.0058    1.1610133    30.985945    30.985945    30.985945    29750.497 
 5379000    295.27858   -2170.7981   -23088.999   -24943.516    1854.5169    1.1610133    30.985945    30.985945    30.985945    29750.497 
 5380000    297.04404   -1327.1536   -23063.137   -24928.742    1865.6049    1.1610133    30.985945    30.985945    30.985945    29750.497 
 5381000    297.14707   -1961.0386   -23083.863   -24950.115     1866.252    1.1610133    30.985945    30.985945    30.985945    29750.497 
 5382000    297.52624   -1664.3857   -23073.463   -24942.096    1868.6334    1.1610133    30.985945    30.985945    30.985945    29750.497 
 5383000      298.875   -1743.0461   -23161.279   -25038.383    1877.1044    1.1610133    30.985945    30.985945    30.985945    29750.497 
 5384000    295.38386   -1484.2994   -23098.912    -24954.09     1855.178    1.1610133    30.985945    30.985945    30.985945    29750.497 
 5385000    299.92964   -1106.2327   -23063.887   -24947.616    1883.7281    1.1610133    30.985945    30.985945    30.985945    29750.497 
 5386000    297.74837   -1874.0368   -23036.052   -24906.081    1870.0285    1.1610133    30.985945    30.985945    30.985945    29750.497 
 5387000    295.89037   -1425.8758   -23092.283   -24950.642    1858.3592    1.1610133    30.985945    30.985945    30.985945    29750.497 
 5388000    302.63618   -1494.4753   -23064.078   -24964.805    1900.7268    1.1610133    30.985945    30.985945    30.985945    29750.497 
 5389000    299.47978   -1807.8715   -23070.107    -24951.01    1880.9028    1.1610133    30.985945    30.985945    30.985945    29750.497 
 5390000    306.03962   -2852.5225   -23092.421   -25014.524    1922.1022    1.1610133    30.985945    30.985945    30.985945    29750.497 
 5391000    297.81948   -2031.2188   -23095.507   -24965.982    1870.4751    1.1610133    30.985945    30.985945    30.985945    29750.497 
 5392000    298.60672   -580.95338   -23068.101    -24943.52    1875.4194    1.1610133    30.985945    30.985945    30.985945    29750.497 
 5393000    300.07152   -1506.1116   -23048.316   -24932.936    1884.6192    1.1610133    30.985945    30.985945    30.985945    29750.497 
 5394000    305.00525   -1708.0974   -23065.372   -24980.978    1915.6058    1.1610133    30.985945    30.985945    30.985945    29750.497 
 5395000    301.70247   -1735.5304   -23069.197   -24964.059    1894.8625    1.1610133    30.985945    30.985945    30.985945    29750.497 
 5396000     293.6735   -2019.2271   -23131.293   -24975.729     1844.436    1.1610133    30.985945    30.985945    30.985945    29750.497 
 5397000     295.6515   -1542.2101    -23108.05   -24964.909     1856.859    1.1610133    30.985945    30.985945    30.985945    29750.497 
 5398000    296.48813   -1249.5478   -22983.136   -24845.249    1862.1135    1.1610133    30.985945    30.985945    30.985945    29750.497 
 5399000    302.82903   -895.51284   -23115.454   -25017.392     1901.938    1.1610133    30.985945    30.985945    30.985945    29750.497 
 5400000    303.37501   -2046.1175   -23058.425   -24963.792     1905.367    1.1610133    30.985945    30.985945    30.985945    29750.497 
 5401000    290.19325   -999.39732   -23073.639   -24896.217    1822.5781    1.1610133    30.985945    30.985945    30.985945    29750.497 
 5402000    307.94606   -1217.9731   -22983.175   -24917.251    1934.0758    1.1610133    30.985945    30.985945    30.985945    29750.497 
 5403000    306.99697   -745.14802   -22975.444   -24903.559     1928.115    1.1610133    30.985945    30.985945    30.985945    29750.497 
 5404000    300.77637   -1470.2482   -23082.781   -24971.827    1889.0461    1.1610133    30.985945    30.985945    30.985945    29750.497 
 5405000    305.27947   -1011.9679   -22976.064   -24893.392    1917.3281    1.1610133    30.985945    30.985945    30.985945    29750.497 
 5406000    297.27418   -1727.3415   -23118.861   -24985.912    1867.0503    1.1610133    30.985945    30.985945    30.985945    29750.497 
 5407000    299.14528   -1474.9003   -23043.478    -24922.28    1878.8019    1.1610133    30.985945    30.985945    30.985945    29750.497 
 5408000    301.43656   -1170.8465   -23063.315   -24956.507    1893.1924    1.1610133    30.985945    30.985945    30.985945    29750.497 
 5409000    297.23049   -1003.9181   -23115.414    -24982.19     1866.776    1.1610133    30.985945    30.985945    30.985945    29750.497 
 5410000    301.21791   -2029.9989   -23031.485   -24923.304    1891.8192    1.1610133    30.985945    30.985945    30.985945    29750.497 
 5411000    301.81151    -2037.552   -23087.252   -24982.799    1895.5473    1.1610133    30.985945    30.985945    30.985945    29750.497 
 5412000     289.0626   -2206.5612   -23137.453   -24952.929     1815.477    1.1610133    30.985945    30.985945    30.985945    29750.497 
 5413000    294.21623   -1487.2052   -22988.244   -24836.089    1847.8447    1.1610133    30.985945    30.985945    30.985945    29750.497 
 5414000    306.00199   -1400.5106   -23021.295   -24943.161     1921.866    1.1610133    30.985945    30.985945    30.985945    29750.497 
 5415000    296.21791   -749.24786   -23027.346   -24887.762    1860.4164    1.1610133    30.985945    30.985945    30.985945    29750.497 
 5416000    292.76261   -1969.6481   -23105.959   -24944.675    1838.7151    1.1610133    30.985945    30.985945    30.985945    29750.497 
 5417000    296.58059   -1245.9286    -23122.44   -24985.135    1862.6942    1.1610133    30.985945    30.985945    30.985945    29750.497 
 5418000    302.26585   -1900.1107   -23124.553   -25022.954    1898.4009    1.1610133    30.985945    30.985945    30.985945    29750.497 
 5419000    297.38012   -1727.6958   -23131.426   -24999.142    1867.7157    1.1610133    30.985945    30.985945    30.985945    29750.497 
 5420000    306.79074   -2582.0234   -23096.164   -25022.983    1926.8197    1.1610133    30.985945    30.985945    30.985945    29750.497 
 5421000    292.58846    -1529.304   -23149.593   -24987.215    1837.6214    1.1610133    30.985945    30.985945    30.985945    29750.497 
 5422000    293.78193   -1632.1235   -23149.091   -24994.208     1845.117    1.1610133    30.985945    30.985945    30.985945    29750.497 
 5423000    300.20033   -875.34478   -23112.351   -24997.779    1885.4282    1.1610133    30.985945    30.985945    30.985945    29750.497 
 5424000    297.85412   -1779.1159   -23042.721   -24913.414    1870.6927    1.1610133    30.985945    30.985945    30.985945    29750.497 
 5425000    303.65757   -2468.2612   -23058.151   -24965.293    1907.1417    1.1610133    30.985945    30.985945    30.985945    29750.497 
 5426000    303.75186   -919.43762   -23054.627   -24962.361    1907.7338    1.1610133    30.985945    30.985945    30.985945    29750.497 
 5427000    304.66464   -2474.4349   -23053.909   -24967.376    1913.4666    1.1610133    30.985945    30.985945    30.985945    29750.497 
 5428000    295.11287   -1664.8462   -23182.923   -25036.399    1853.4761    1.1610133    30.985945    30.985945    30.985945    29750.497 
 5429000    300.50363   -2292.5654    -23193.29   -25080.623    1887.3331    1.1610133    30.985945    30.985945    30.985945    29750.497 
 5430000    295.62952   -1588.1308   -23193.515   -25050.236     1856.721    1.1610133    30.985945    30.985945    30.985945    29750.497 
 5431000    309.87721   -1238.8184   -22998.519   -24944.724    1946.2045    1.1610133    30.985945    30.985945    30.985945    29750.497 
 5432000    298.18269   -2128.3595    -23116.11   -24988.866    1872.7563    1.1610133    30.985945    30.985945    30.985945    29750.497 
 5433000     300.3234   -1973.7786   -23084.797   -24970.998    1886.2012    1.1610133    30.985945    30.985945    30.985945    29750.497 
 5434000    293.66662   -2445.5029   -23226.054   -25070.447    1844.3928    1.1610133    30.985945    30.985945    30.985945    29750.497 
 5435000    292.80679   -1416.6526   -23159.128    -24998.12    1838.9926    1.1610133    30.985945    30.985945    30.985945    29750.497 
 5436000    305.90314   -796.99082   -23018.056   -24939.301    1921.2451    1.1610133    30.985945    30.985945    30.985945    29750.497 
 5437000    298.78983   -1969.8372   -23092.956   -24969.526    1876.5695    1.1610133    30.985945    30.985945    30.985945    29750.497 
 5438000    295.04696   -1282.5479   -23203.727   -25056.789    1853.0622    1.1610133    30.985945    30.985945    30.985945    29750.497 
 5439000    298.22695   -1996.5694   -23160.954   -25033.988    1873.0343    1.1610133    30.985945    30.985945    30.985945    29750.497 
 5440000     296.5106   -1820.6924   -23016.634   -24878.889    1862.2546    1.1610133    30.985945    30.985945    30.985945    29750.497 
 5441000    299.37182   -701.42794   -23078.147   -24958.372    1880.2247    1.1610133    30.985945    30.985945    30.985945    29750.497 
 5442000     299.8624   -1598.9262   -23149.685   -25032.991    1883.3059    1.1610133    30.985945    30.985945    30.985945    29750.497 
 5443000    302.20518   -1713.9012   -23120.809   -25018.829    1898.0198    1.1610133    30.985945    30.985945    30.985945    29750.497 
 5444000    292.87195   -1172.9719   -23067.496   -24906.898    1839.4019    1.1610133    30.985945    30.985945    30.985945    29750.497 
 5445000    297.50534   -1995.6717   -23080.398     -24948.9    1868.5022    1.1610133    30.985945    30.985945    30.985945    29750.497 
 5446000    293.92326   -2641.6559   -23078.884   -24924.889    1846.0047    1.1610133    30.985945    30.985945    30.985945    29750.497 
 5447000     299.4627   -1184.1826   -23116.825   -24997.621    1880.7955    1.1610133    30.985945    30.985945    30.985945    29750.497 
 5448000    295.44101   -1184.5969   -23031.089   -24886.626     1855.537    1.1610133    30.985945    30.985945    30.985945    29750.497 
 5449000    291.27779    -1530.846   -23026.473   -24855.863    1829.3896    1.1610133    30.985945    30.985945    30.985945    29750.497 
 5450000    295.98635   -1167.1909   -23048.916   -24907.878     1858.962    1.1610133    30.985945    30.985945    30.985945    29750.497 
 5451000    293.19242   -1616.9653   -23127.732   -24969.147    1841.4146    1.1610133    30.985945    30.985945    30.985945    29750.497 
 5452000    297.88389   -2312.1494   -23221.591   -25092.471    1870.8797    1.1610133    30.985945    30.985945    30.985945    29750.497 
 5453000    304.58207   -2194.5244    -23022.41   -24935.358     1912.948    1.1610133    30.985945    30.985945    30.985945    29750.497 
 5454000    289.04466     -1804.48     -23135.4   -24950.764    1815.3643    1.1610133    30.985945    30.985945    30.985945    29750.497 
 5455000    293.58918   -1954.9859   -23115.093   -24958.999    1843.9064    1.1610133    30.985945    30.985945    30.985945    29750.497 
 5456000    297.30547   -1602.4981   -23123.617   -24990.864    1867.2469    1.1610133    30.985945    30.985945    30.985945    29750.497 
 5457000    294.52293   -281.62222   -23115.236   -24965.007    1849.7709    1.1610133    30.985945    30.985945    30.985945    29750.497 
 5458000     300.0071   -1773.8401    -23201.65   -25085.865    1884.2146    1.1610133    30.985945    30.985945    30.985945    29750.497 
 5459000    302.80999   -1714.3617   -23089.129   -24990.947    1901.8184    1.1610133    30.985945    30.985945    30.985945    29750.497 
 5460000    297.29182   -2155.5216   -23079.828    -24946.99    1867.1611    1.1610133    30.985945    30.985945    30.985945    29750.497 
 5461000    288.55891   -2768.3915   -23095.366    -24907.68    1812.3135    1.1610133    30.985945    30.985945    30.985945    29750.497 
 5462000    297.45791   -1004.9537   -23094.145   -24962.349    1868.2043    1.1610133    30.985945    30.985945    30.985945    29750.497 
 5463000    292.91442   -1199.3833   -23163.245   -25002.914    1839.6686    1.1610133    30.985945    30.985945    30.985945    29750.497 
 5464000    293.82235   -1750.2427   -23104.147   -24949.518    1845.3709    1.1610133    30.985945    30.985945    30.985945    29750.497 
 5465000    297.34874   -1713.6788   -23113.335   -24980.854    1867.5186    1.1610133    30.985945    30.985945    30.985945    29750.497 
 5466000     302.2792   -1823.3485   -23067.418   -24965.903    1898.4847    1.1610133    30.985945    30.985945    30.985945    29750.497 
 5467000    297.60447   -771.18962   -23054.278   -24923.403    1869.1247    1.1610133    30.985945    30.985945    30.985945    29750.497 
 5468000    304.00985   -2045.5567   -23024.004   -24933.358    1909.3542    1.1610133    30.985945    30.985945    30.985945    29750.497 
 5469000    299.63038   -1137.9161   -22972.599   -24854.447    1881.8486    1.1610133    30.985945    30.985945    30.985945    29750.497 
 5470000    301.99228    -2232.917   -22980.781   -24877.463    1896.6827    1.1610133    30.985945    30.985945    30.985945    29750.497 
 5471000    304.80556   -961.98239   -22920.948     -24835.3    1914.3517    1.1610133    30.985945    30.985945    30.985945    29750.497 
 5472000       298.57    -1391.505   -22968.406   -24843.595    1875.1888    1.1610133    30.985945    30.985945    30.985945    29750.497 
 5473000    296.84338   -1106.5439   -23017.838   -24882.183    1864.3447    1.1610133    30.985945    30.985945    30.985945    29750.497 
 5474000    295.44934   -1701.4869   -23125.207   -24980.796    1855.5893    1.1610133    30.985945    30.985945    30.985945    29750.497 
 5475000    300.59989   -1124.1891   -23119.905   -25007.843    1887.9377    1.1610133    30.985945    30.985945    30.985945    29750.497 
 5476000    299.07488   -2149.4669    -23049.68    -24928.04    1878.3597    1.1610133    30.985945    30.985945    30.985945    29750.497 
 5477000    305.92605   -59.997078   -22986.359   -24907.748     1921.389    1.1610133    30.985945    30.985945    30.985945    29750.497 
 5478000     301.3969   -2008.7221   -23072.154   -24965.098    1892.9434    1.1610133    30.985945    30.985945    30.985945    29750.497 
 5479000    293.55649   -1230.9519   -23061.081   -24904.782    1843.7011    1.1610133    30.985945    30.985945    30.985945    29750.497 
 5480000    291.83704    -772.8462   -23049.588    -24882.49     1832.902    1.1610133    30.985945    30.985945    30.985945    29750.497 
 5481000    304.07556   -1442.9236   -23044.793    -24954.56    1909.7669    1.1610133    30.985945    30.985945    30.985945    29750.497 
 5482000    299.55015   -1985.3525   -23038.854   -24920.198    1881.3447    1.1610133    30.985945    30.985945    30.985945    29750.497 
 5483000    285.57493    -1779.536   -23130.153   -24923.725    1793.5724    1.1610133    30.985945    30.985945    30.985945    29750.497 
 5484000    306.57929   -977.98318   -23039.625   -24965.116    1925.4917    1.1610133    30.985945    30.985945    30.985945    29750.497 
 5485000     298.7778   -1197.4127   -23039.626    -24916.12    1876.4939    1.1610133    30.985945    30.985945    30.985945    29750.497 
 5486000    303.88507   -1713.6724   -23059.371   -24967.941    1908.5705    1.1610133    30.985945    30.985945    30.985945    29750.497 
 5487000    295.20813   -1863.2134   -23104.082   -24958.156    1854.0744    1.1610133    30.985945    30.985945    30.985945    29750.497 
 5488000    299.62759   -1557.0594   -23047.985   -24929.816    1881.8311    1.1610133    30.985945    30.985945    30.985945    29750.497 
 5489000    293.57604   -1053.2865   -23125.576     -24969.4    1843.8239    1.1610133    30.985945    30.985945    30.985945    29750.497 
 5490000    297.77587   -1348.2902   -23093.039   -24963.241    1870.2012    1.1610133    30.985945    30.985945    30.985945    29750.497 
 5491000    295.34109   -547.16314   -23069.093   -24924.002    1854.9095    1.1610133    30.985945    30.985945    30.985945    29750.497 
 5492000     295.7695    -1897.913   -23097.175   -24954.775    1857.6001    1.1610133    30.985945    30.985945    30.985945    29750.497 
 5493000    299.05626   -1091.6901   -22975.677    -24853.92    1878.2428    1.1610133    30.985945    30.985945    30.985945    29750.497 
 5494000    303.99957   -1068.8228   -23178.821   -25088.111    1909.2896    1.1610133    30.985945    30.985945    30.985945    29750.497 
 5495000    292.19009   -1876.6652   -23124.939   -24960.058    1835.1193    1.1610133    30.985945    30.985945    30.985945    29750.497 
 5496000    304.54855   -1954.8738   -23116.936   -25029.673    1912.7375    1.1610133    30.985945    30.985945    30.985945    29750.497 
 5497000    299.16914   -1783.2569   -23121.566   -25000.518    1878.9518    1.1610133    30.985945    30.985945    30.985945    29750.497 
 5498000    301.92831   -2008.9374    -23149.16   -25045.441    1896.2809    1.1610133    30.985945    30.985945    30.985945    29750.497 
 5499000    295.38977   -1449.2054   -23119.589   -24974.805    1855.2152    1.1610133    30.985945    30.985945    30.985945    29750.497 
 5500000    298.14208    -1509.736   -23062.094   -24934.595    1872.5012    1.1610133    30.985945    30.985945    30.985945    29750.497 
 5501000    295.85136   -915.01687   -23087.727   -24945.842    1858.1142    1.1610133    30.985945    30.985945    30.985945    29750.497 
 5502000    305.36179    -533.1569   -23038.004   -24955.849    1917.8451    1.1610133    30.985945    30.985945    30.985945    29750.497 
 5503000    301.68452   -2147.8128    -23072.69   -24967.439    1894.7498    1.1610133    30.985945    30.985945    30.985945    29750.497 
 5504000    299.88949   -1478.2199   -23029.189   -24912.665     1883.476    1.1610133    30.985945    30.985945    30.985945    29750.497 
 5505000    294.52864   -2467.7687   -23052.748   -24902.555    1849.8068    1.1610133    30.985945    30.985945    30.985945    29750.497 
 5506000    300.48577   -1196.1821   -23043.229    -24930.45    1887.2209    1.1610133    30.985945    30.985945    30.985945    29750.497 
 5507000     291.4298   -373.93659   -23121.335   -24951.679    1830.3443    1.1610133    30.985945    30.985945    30.985945    29750.497 
 5508000    300.10648   -1292.9848   -23037.698   -24922.537    1884.8388    1.1610133    30.985945    30.985945    30.985945    29750.497 
 5509000    301.50659   -1171.8187    -23117.25   -25010.882    1893.6323    1.1610133    30.985945    30.985945    30.985945    29750.497 
 5510000    295.25741   -1655.7561   -23091.335   -24945.719    1854.3839    1.1610133    30.985945    30.985945    30.985945    29750.497 
 5511000    296.46964   -1425.9907   -23103.693    -24965.69    1861.9974    1.1610133    30.985945    30.985945    30.985945    29750.497 
 5512000    297.58665    -1187.325   -23101.385   -24970.398    1869.0128    1.1610133    30.985945    30.985945    30.985945    29750.497 
 5513000    298.01188   -1344.2717     -23106.7   -24978.383    1871.6835    1.1610133    30.985945    30.985945    30.985945    29750.497 
 5514000    297.10681    -825.5658   -23113.099   -24979.098    1865.9992    1.1610133    30.985945    30.985945    30.985945    29750.497 
 5515000    293.89502   -1908.0773   -23082.852    -24928.68    1845.8273    1.1610133    30.985945    30.985945    30.985945    29750.497 
 5516000    293.90158   -814.91923    -23067.88   -24913.748    1845.8685    1.1610133    30.985945    30.985945    30.985945    29750.497 
 5517000    303.10361   -1607.7834    -23031.83   -24935.492    1903.6624    1.1610133    30.985945    30.985945    30.985945    29750.497 
 5518000    292.17744   -1263.9002    -23137.99    -24973.03    1835.0399    1.1610133    30.985945    30.985945    30.985945    29750.497 
 5519000    307.83167   -2343.9967   -23070.243   -25003.601    1933.3574    1.1610133    30.985945    30.985945    30.985945    29750.497 
 5520000    287.87837   -1541.3163   -23046.375   -24854.414    1808.0393    1.1610133    30.985945    30.985945    30.985945    29750.497 
 5521000    287.82712   -1305.9335   -23146.313    -24954.03    1807.7174    1.1610133    30.985945    30.985945    30.985945    29750.497 
 5522000     300.3067   -1517.9696   -23004.624    -24890.72    1886.0963    1.1610133    30.985945    30.985945    30.985945    29750.497 
 5523000    294.79975   -1663.3723   -23034.036   -24885.545    1851.5095    1.1610133    30.985945    30.985945    30.985945    29750.497 
 5524000    297.62563   -1946.1008   -23082.807   -24952.065    1869.2577    1.1610133    30.985945    30.985945    30.985945    29750.497 
 5525000    304.36903   -1977.4577   -23113.924   -25025.534      1911.61    1.1610133    30.985945    30.985945    30.985945    29750.497 
 5526000    294.57827   -1487.1263   -23059.232   -24909.351    1850.1185    1.1610133    30.985945    30.985945    30.985945    29750.497 
 5527000    309.67201   -2108.0257    -23051.57   -24996.486    1944.9157    1.1610133    30.985945    30.985945    30.985945    29750.497 
 5528000    301.34101   -975.41469    -23080.54   -24973.133    1892.5923    1.1610133    30.985945    30.985945    30.985945    29750.497 
 5529000    295.11768   -1141.4676    -23135.04   -24988.546    1853.5063    1.1610133    30.985945    30.985945    30.985945    29750.497 
 5530000    300.70914    -2454.676   -23097.449   -24986.073    1888.6238    1.1610133    30.985945    30.985945    30.985945    29750.497 
 5531000    303.73456    -1721.573   -22998.821   -24906.446    1907.6252    1.1610133    30.985945    30.985945    30.985945    29750.497 
 5532000    310.37982   -1707.9165   -23083.686   -25033.047    1949.3612    1.1610133    30.985945    30.985945    30.985945    29750.497 
 5533000    284.65147   -1629.6924   -23164.542   -24952.314    1787.7726    1.1610133    30.985945    30.985945    30.985945    29750.497 
 5534000    294.39874   -2175.4953   -23171.787   -25020.778     1848.991    1.1610133    30.985945    30.985945    30.985945    29750.497 
 5535000    293.74844   -2002.9177   -23133.928   -24978.835    1844.9067    1.1610133    30.985945    30.985945    30.985945    29750.497 
 5536000    299.42445   -1116.0416   -23161.538   -25042.093    1880.5553    1.1610133    30.985945    30.985945    30.985945    29750.497 
 5537000    295.02381   -1186.7362   -23091.004   -24943.921    1852.9168    1.1610133    30.985945    30.985945    30.985945    29750.497 
 5538000    297.37869   -2183.8823   -23169.977   -25037.684    1867.7067    1.1610133    30.985945    30.985945    30.985945    29750.497 
 5539000    298.70372   -901.50016   -23138.145   -25014.174    1876.0287    1.1610133    30.985945    30.985945    30.985945    29750.497 
 5540000    297.70752    -1728.927   -23102.129   -24971.901     1869.772    1.1610133    30.985945    30.985945    30.985945    29750.497 
 5541000    299.98466   -1419.8495   -23147.279   -25031.353    1884.0737    1.1610133    30.985945    30.985945    30.985945    29750.497 
 5542000    282.20707   -2164.8294   -23241.286   -25013.707    1772.4204    1.1610133    30.985945    30.985945    30.985945    29750.497 
 5543000    295.89696   -1569.7243   -23155.695   -25014.096    1858.4006    1.1610133    30.985945    30.985945    30.985945    29750.497 
 5544000    301.30679   -591.74439   -23126.515   -25018.892    1892.3774    1.1610133    30.985945    30.985945    30.985945    29750.497 
 5545000     301.6788   -1841.2235   -23084.143   -24978.857    1894.7139    1.1610133    30.985945    30.985945    30.985945    29750.497 
 5546000    301.45221   -1409.6514   -23077.312   -24970.603    1893.2908    1.1610133    30.985945    30.985945    30.985945    29750.497 
 5547000    299.73016   -1609.6761   -23071.327   -24953.802    1882.4753    1.1610133    30.985945    30.985945    30.985945    29750.497 
 5548000    284.13496   -1697.1337   -23051.614   -24836.143    1784.5286    1.1610133    30.985945    30.985945    30.985945    29750.497 
 5549000    294.82285   -1078.3213   -23047.373   -24899.028    1851.6546    1.1610133    30.985945    30.985945    30.985945    29750.497 
 5550000     307.3285   -1265.8326   -23199.546   -25129.743    1930.1971    1.1610133    30.985945    30.985945    30.985945    29750.497 
 5551000    306.25831   -457.83863    -23091.07   -25014.546    1923.4758    1.1610133    30.985945    30.985945    30.985945    29750.497 
 5552000    306.02556   -1882.0272   -23019.892   -24941.906     1922.014    1.1610133    30.985945    30.985945    30.985945    29750.497 
 5553000    300.94018   -746.86074    -23090.77   -24980.845    1890.0749    1.1610133    30.985945    30.985945    30.985945    29750.497 
 5554000    300.79606   -2045.1728   -23156.835   -25046.005    1889.1698    1.1610133    30.985945    30.985945    30.985945    29750.497 
 5555000    294.28905   -2040.7053   -23039.302   -24887.604     1848.302    1.1610133    30.985945    30.985945    30.985945    29750.497 
 5556000     302.6979   -1901.4194    -22959.11   -24860.224    1901.1144    1.1610133    30.985945    30.985945    30.985945    29750.497 
 5557000    305.75989   -1288.9558   -23000.773   -24921.118    1920.3454    1.1610133    30.985945    30.985945    30.985945    29750.497 
 5558000     297.3099   -1639.1296   -23116.743   -24984.017    1867.2747    1.1610133    30.985945    30.985945    30.985945    29750.497 
 5559000    297.03856   -2146.8461   -23084.378   -24949.948    1865.5705    1.1610133    30.985945    30.985945    30.985945    29750.497 
 5560000    297.96382   -1922.9319   -23156.803   -25028.184    1871.3816    1.1610133    30.985945    30.985945    30.985945    29750.497 
 5561000    299.84982   -2230.3829   -22994.702   -24877.929    1883.2268    1.1610133    30.985945    30.985945    30.985945    29750.497 
 5562000    297.82173   -1229.4065   -23088.025   -24958.515    1870.4893    1.1610133    30.985945    30.985945    30.985945    29750.497 
 5563000    296.13353   -1338.9644   -22994.961   -24854.847    1859.8864    1.1610133    30.985945    30.985945    30.985945    29750.497 
 5564000    303.30548   -655.84534   -23039.055   -24943.985    1904.9303    1.1610133    30.985945    30.985945    30.985945    29750.497 
 5565000     306.0686   -1424.2474   -23057.194   -24979.479    1922.2843    1.1610133    30.985945    30.985945    30.985945    29750.497 
 5566000    300.03396      -1286.2   -23062.616   -24946.999    1884.3833    1.1610133    30.985945    30.985945    30.985945    29750.497 
 5567000    301.14099   -1490.0896   -23023.812   -24915.149    1891.3361    1.1610133    30.985945    30.985945    30.985945    29750.497 
 5568000    293.01906   -1922.5183   -23088.386   -24928.711    1840.3258    1.1610133    30.985945    30.985945    30.985945    29750.497 
 5569000    301.62218    -449.6607   -23003.957   -24898.316    1894.3582    1.1610133    30.985945    30.985945    30.985945    29750.497 
 5570000    296.01886   -1079.5431    -23047.89   -24907.056    1859.1662    1.1610133    30.985945    30.985945    30.985945    29750.497 
 5571000    292.34756   -805.22945   -23139.357   -24975.465    1836.1084    1.1610133    30.985945    30.985945    30.985945    29750.497 
 5572000    292.04375   -605.89512   -23113.569   -24947.769    1834.2003    1.1610133    30.985945    30.985945    30.985945    29750.497 
 5573000    304.50815   -1322.0576   -22947.038   -24859.522    1912.4838    1.1610133    30.985945    30.985945    30.985945    29750.497 
 5574000    301.93977   -1386.3816    -22974.33   -24870.683    1896.3529    1.1610133    30.985945    30.985945    30.985945    29750.497 
 5575000      297.522   -1202.3774   -23054.414   -24923.021    1868.6068    1.1610133    30.985945    30.985945    30.985945    29750.497 
 5576000     298.8368   -2023.6177   -22984.657   -24861.521    1876.8645    1.1610133    30.985945    30.985945    30.985945    29750.497 
 5577000    294.10377   -483.97939   -22990.112    -24837.25    1847.1384    1.1610133    30.985945    30.985945    30.985945    29750.497 
 5578000    298.75761   -1010.8483   -23103.963    -24980.33    1876.3671    1.1610133    30.985945    30.985945    30.985945    29750.497 
 5579000    289.60542   -1458.4792   -23076.724    -24895.61    1818.8862    1.1610133    30.985945    30.985945    30.985945    29750.497 
 5580000    305.72772   -1429.7804   -22988.301   -24908.444    1920.1434    1.1610133    30.985945    30.985945    30.985945    29750.497 
 5581000    308.95483   -971.69226    -23042.05   -24982.461    1940.4114    1.1610133    30.985945    30.985945    30.985945    29750.497 
 5582000    295.53157   -1278.1582   -23105.629   -24961.735    1856.1057    1.1610133    30.985945    30.985945    30.985945    29750.497 
 5583000    294.41553   -1566.5542   -23122.791   -24971.888    1849.0964    1.1610133    30.985945    30.985945    30.985945    29750.497 
 5584000    293.66145   -1328.4814   -23064.592   -24908.952    1844.3603    1.1610133    30.985945    30.985945    30.985945    29750.497 
 5585000    297.59017   -1339.9313   -22991.774   -24860.809    1869.0349    1.1610133    30.985945    30.985945    30.985945    29750.497 
 5586000    297.29479   -2365.1603   -23087.942   -24955.122    1867.1798    1.1610133    30.985945    30.985945    30.985945    29750.497 
 5587000    297.15032   -1028.6676   -23076.466   -24942.739    1866.2724    1.1610133    30.985945    30.985945    30.985945    29750.497 
 5588000    296.36915   -1572.3461   -23085.072   -24946.438    1861.3662    1.1610133    30.985945    30.985945    30.985945    29750.497 
 5589000    304.82459   -717.94503   -23115.485   -25029.956    1914.4712    1.1610133    30.985945    30.985945    30.985945    29750.497 
 5590000    293.46491   -1909.6274   -23184.557   -25027.683    1843.1259    1.1610133    30.985945    30.985945    30.985945    29750.497 
 5591000    303.13783   -1983.3124   -23019.753    -24923.63    1903.8774    1.1610133    30.985945    30.985945    30.985945    29750.497 
 5592000    284.34479   -1916.4538   -23230.902   -25016.749    1785.8465    1.1610133    30.985945    30.985945    30.985945    29750.497 
 5593000    300.41808   -2102.6801   -23078.277   -24965.073    1886.7958    1.1610133    30.985945    30.985945    30.985945    29750.497 
 5594000    293.62243   -1256.2036   -23145.108   -24989.224    1844.1153    1.1610133    30.985945    30.985945    30.985945    29750.497 
 5595000    299.60479   -1429.8666   -23037.705   -24919.393    1881.6879    1.1610133    30.985945    30.985945    30.985945    29750.497 
 5596000    303.45688   -2197.5933   -23072.159    -24978.04    1905.8812    1.1610133    30.985945    30.985945    30.985945    29750.497 
 5597000    303.06649   -1597.1301    -23042.57       -24946    1903.4293    1.1610133    30.985945    30.985945    30.985945    29750.497 
 5598000    293.49432   -638.17622   -23125.279    -24968.59    1843.3107    1.1610133    30.985945    30.985945    30.985945    29750.497 
 5599000    303.56454   -705.14926   -23016.666   -24923.224    1906.5573    1.1610133    30.985945    30.985945    30.985945    29750.497 
 5600000    291.53395   -1493.0602   -23092.069   -24923.067    1830.9984    1.1610133    30.985945    30.985945    30.985945    29750.497 
 5601000    305.65651   -1882.9863   -23040.136   -24959.832    1919.6961    1.1610133    30.985945    30.985945    30.985945    29750.497 
 5602000    299.01587    -1545.114   -23082.099   -24960.088    1877.9891    1.1610133    30.985945    30.985945    30.985945    29750.497 
 5603000    296.16651   -1588.6302   -23094.168   -24954.262    1860.0935    1.1610133    30.985945    30.985945    30.985945    29750.497 
 5604000    295.17807   -2530.2724   -23161.174    -25015.06    1853.8856    1.1610133    30.985945    30.985945    30.985945    29750.497 
 5605000    296.86398   -2008.4851   -23108.677   -24973.151     1864.474    1.1610133    30.985945    30.985945    30.985945    29750.497 
 5606000    298.59693   -1398.6968   -23145.903   -25021.261     1875.358    1.1610133    30.985945    30.985945    30.985945    29750.497 
 5607000    297.53876   -2359.2998   -23119.497   -24988.209     1868.712    1.1610133    30.985945    30.985945    30.985945    29750.497 
 5608000    294.47041   -1678.4916   -23191.483   -25040.924    1849.4411    1.1610133    30.985945    30.985945    30.985945    29750.497 
 5609000    302.77371   -1573.8777   -23100.972   -25002.563    1901.5905    1.1610133    30.985945    30.985945    30.985945    29750.497 
 5610000    298.31739   -1616.9815   -23149.546   -25023.148    1873.6023    1.1610133    30.985945    30.985945    30.985945    29750.497 
 5611000     294.3412   -2142.5751   -23169.492   -25018.122    1848.6296    1.1610133    30.985945    30.985945    30.985945    29750.497 
 5612000    300.09098   -2154.4685   -23034.048   -24918.789    1884.7415    1.1610133    30.985945    30.985945    30.985945    29750.497 
 5613000    299.17605   -1731.4842   -23123.202   -25002.197    1878.9951    1.1610133    30.985945    30.985945    30.985945    29750.497 
 5614000    308.21339   -2340.5548   -23076.384   -25012.139    1935.7548    1.1610133    30.985945    30.985945    30.985945    29750.497 
 5615000    292.06863   -1134.4103   -23124.284    -24958.64    1834.3565    1.1610133    30.985945    30.985945    30.985945    29750.497 
 5616000    299.22064   -2020.6082   -23159.154   -25038.429    1879.2752    1.1610133    30.985945    30.985945    30.985945    29750.497 
 5617000    298.83636   -1588.0881   -23154.832   -25031.694    1876.8617    1.1610133    30.985945    30.985945    30.985945    29750.497 
 5618000    314.50729   -1639.6496   -23000.557   -24975.841     1975.284    1.1610133    30.985945    30.985945    30.985945    29750.497 
 5619000    294.23407   -1896.1633   -23076.274   -24924.231    1847.9567    1.1610133    30.985945    30.985945    30.985945    29750.497 
 5620000    300.36567   -1320.0845   -23106.911   -24993.378    1886.4666    1.1610133    30.985945    30.985945    30.985945    29750.497 
 5621000    290.69833   -1939.3609   -23201.064   -25026.814    1825.7503    1.1610133    30.985945    30.985945    30.985945    29750.497 
 5622000    306.65986   -1772.8112   -23041.182    -24967.18    1925.9977    1.1610133    30.985945    30.985945    30.985945    29750.497 
 5623000    289.91064   -1286.0059   -23028.667    -24849.47    1820.8031    1.1610133    30.985945    30.985945    30.985945    29750.497 
 5624000     309.8025   -2496.2198     -22987.4   -24933.135    1945.7353    1.1610133    30.985945    30.985945    30.985945    29750.497 
 5625000    299.81531   -2080.2573   -23098.013   -24981.023    1883.0101    1.1610133    30.985945    30.985945    30.985945    29750.497 
 5626000    291.06976   -2221.4203   -23255.216     -25083.3    1828.0831    1.1610133    30.985945    30.985945    30.985945    29750.497 
 5627000    307.26157   -1999.7655   -23039.472   -24969.249    1929.7768    1.1610133    30.985945    30.985945    30.985945    29750.497 
 5628000     298.8677   -1873.1761   -23074.578   -24951.636    1877.0585    1.1610133    30.985945    30.985945    30.985945    29750.497 
 5629000     296.0345   -1717.1696   -23162.229   -25021.494    1859.2645    1.1610133    30.985945    30.985945    30.985945    29750.497 
 5630000    292.71648   -2440.5864   -23116.961   -24955.387    1838.4254    1.1610133    30.985945    30.985945    30.985945    29750.497 
 5631000    300.82956   -577.75432   -23093.097   -24982.478    1889.3802    1.1610133    30.985945    30.985945    30.985945    29750.497 
 5632000    301.25512   -1469.1243   -23129.431   -25021.484    1892.0529    1.1610133    30.985945    30.985945    30.985945    29750.497 
 5633000    305.94281   -558.61802   -23109.014   -25030.508    1921.4943    1.1610133    30.985945    30.985945    30.985945    29750.497 
 5634000    292.59289   -1851.1999   -23126.297   -24963.946    1837.6492    1.1610133    30.985945    30.985945    30.985945    29750.497 
 5635000    297.17668   -1616.9907   -23027.846   -24894.284     1866.438    1.1610133    30.985945    30.985945    30.985945    29750.497 
 5636000     301.9425   -1792.2305    -23013.79    -24910.16      1896.37    1.1610133    30.985945    30.985945    30.985945    29750.497 
 5637000    307.61991   -1597.6261   -23073.034   -25005.061    1932.0274    1.1610133    30.985945    30.985945    30.985945    29750.497 
 5638000    294.75174   -1652.1213   -23119.613   -24970.821     1851.208    1.1610133    30.985945    30.985945    30.985945    29750.497 
 5639000    292.09868   -1673.5119   -23143.175    -24977.72    1834.5453    1.1610133    30.985945    30.985945    30.985945    29750.497 
 5640000    294.83299   -2295.1615   -23203.662   -25055.381    1851.7183    1.1610133    30.985945    30.985945    30.985945    29750.497 
 5641000     292.4863   -756.31429   -23135.893   -24972.873    1836.9797    1.1610133    30.985945    30.985945    30.985945    29750.497 
 5642000    292.55591    -1640.014    -23084.21   -24921.627    1837.4169    1.1610133    30.985945    30.985945    30.985945    29750.497 
 5643000    297.89271   -1714.6085   -23200.243   -25071.178     1870.935    1.1610133    30.985945    30.985945    30.985945    29750.497 
 5644000     294.2805   -1439.9103   -23097.816   -24946.064    1848.2483    1.1610133    30.985945    30.985945    30.985945    29750.497 
 5645000    294.53222   -1335.9888   -23099.676   -24949.506    1849.8293    1.1610133    30.985945    30.985945    30.985945    29750.497 
 5646000    305.46586    -1774.829   -23057.973   -24976.471    1918.4987    1.1610133    30.985945    30.985945    30.985945    29750.497 
 5647000    297.69823   -1152.1176   -23069.613   -24939.327    1869.7136    1.1610133    30.985945    30.985945    30.985945    29750.497 
 5648000    302.17922   -846.58353   -23006.861   -24904.718    1897.8568    1.1610133    30.985945    30.985945    30.985945    29750.497 
 5649000    292.64133    -1238.277   -23250.166    -25088.12    1837.9534    1.1610133    30.985945    30.985945    30.985945    29750.497 
 5650000    306.02683    -2155.511   -23055.442   -24977.464    1922.0219    1.1610133    30.985945    30.985945    30.985945    29750.497 
 5651000     289.2976   -1405.5172   -23088.154   -24905.107    1816.9529    1.1610133    30.985945    30.985945    30.985945    29750.497 
 5652000    302.00284   -1590.4506   -23029.821    -24926.57     1896.749    1.1610133    30.985945    30.985945    30.985945    29750.497 
 5653000    302.08114   -1952.2958   -23119.818   -25017.059    1897.2408    1.1610133    30.985945    30.985945    30.985945    29750.497 
 5654000    296.91605   -785.72271   -22968.102   -24832.903    1864.8011    1.1610133    30.985945    30.985945    30.985945    29750.497 
 5655000    302.85537   -1452.1919   -23002.544   -24904.647    1902.1034    1.1610133    30.985945    30.985945    30.985945    29750.497 
 5656000    300.66356   -855.02747    -23108.29   -24996.628    1888.3376    1.1610133    30.985945    30.985945    30.985945    29750.497 
 5657000    302.92525    -2004.133   -23113.491   -25016.033    1902.5422    1.1610133    30.985945    30.985945    30.985945    29750.497 
 5658000    293.18316   -1294.5206   -23124.983    -24966.34    1841.3564    1.1610133    30.985945    30.985945    30.985945    29750.497 
 5659000      286.804    -2347.105   -23216.636   -25017.928    1801.2917    1.1610133    30.985945    30.985945    30.985945    29750.497 
 5660000    285.00099   -1991.6103   -23267.286   -25057.254    1789.9678    1.1610133    30.985945    30.985945    30.985945    29750.497 
 5661000    297.42946   -2126.3895   -23120.695   -24988.721    1868.0256    1.1610133    30.985945    30.985945    30.985945    29750.497 
 5662000    302.87233   -1455.3828   -23147.433   -25049.642    1902.2099    1.1610133    30.985945    30.985945    30.985945    29750.497 
 5663000    299.93585   -1887.5289    -23172.45   -25056.217    1883.7671    1.1610133    30.985945    30.985945    30.985945    29750.497 
 5664000    293.64474   -1829.7189   -23224.871   -25069.126    1844.2554    1.1610133    30.985945    30.985945    30.985945    29750.497 
 5665000    287.51867   -1847.6978   -23160.854   -24966.634    1805.7802    1.1610133    30.985945    30.985945    30.985945    29750.497 
 5666000    300.70247    141.54787   -23036.991   -24925.573    1888.5819    1.1610133    30.985945    30.985945    30.985945    29750.497 
 5667000    298.10997   -913.01492   -23064.234   -24936.534    1872.2996    1.1610133    30.985945    30.985945    30.985945    29750.497 
 5668000    303.67775   -1843.1046   -23032.694   -24939.962    1907.2684    1.1610133    30.985945    30.985945    30.985945    29750.497 
 5669000     290.3749   -1923.3494   -23117.491    -24941.21     1823.719    1.1610133    30.985945    30.985945    30.985945    29750.497 
 5670000    309.80058   -1908.2214   -22946.081   -24891.804    1945.7233    1.1610133    30.985945    30.985945    30.985945    29750.497 
 5671000    290.82235    -1511.427   -23163.324   -24989.854    1826.5292    1.1610133    30.985945    30.985945    30.985945    29750.497 
 5672000    300.33404   -1494.1418    -23091.21   -24977.478     1886.268    1.1610133    30.985945    30.985945    30.985945    29750.497 
 5673000    296.43239   -824.73372   -23089.643   -24951.406    1861.7634    1.1610133    30.985945    30.985945    30.985945    29750.497 
 5674000    304.90769   -1051.2004   -23064.732   -24979.725    1914.9931    1.1610133    30.985945    30.985945    30.985945    29750.497 
 5675000    294.02812   -2487.2485   -23082.239   -24928.902    1846.6633    1.1610133    30.985945    30.985945    30.985945    29750.497 
 5676000    303.19984   -1572.3032   -23134.203   -25038.469    1904.2668    1.1610133    30.985945    30.985945    30.985945    29750.497 
 5677000    294.99792   -1858.9381    -23055.21   -24907.964    1852.7541    1.1610133    30.985945    30.985945    30.985945    29750.497 
 5678000    298.21742    -997.0424    -23078.13   -24951.105    1872.9744    1.1610133    30.985945    30.985945    30.985945    29750.497 
 5679000    297.73323   -1345.4008   -23128.846    -24998.78    1869.9334    1.1610133    30.985945    30.985945    30.985945    29750.497 
 5680000    306.57328   -1579.9063   -23053.997   -24979.451     1925.454    1.1610133    30.985945    30.985945    30.985945    29750.497 
 5681000    300.34898   -1725.1225   -23084.321   -24970.683    1886.3618    1.1610133    30.985945    30.985945    30.985945    29750.497 
 5682000    302.12416   -2313.9543   -23088.012   -24985.523    1897.5109    1.1610133    30.985945    30.985945    30.985945    29750.497 
 5683000     297.2633   -1173.7293   -23115.186   -24982.168     1866.982    1.1610133    30.985945    30.985945    30.985945    29750.497 
 5684000    304.99228   -1250.9947   -23097.184   -25012.708    1915.5244    1.1610133    30.985945    30.985945    30.985945    29750.497 
 5685000    295.72569   -2017.1171   -23128.025    -24985.35     1857.325    1.1610133    30.985945    30.985945    30.985945    29750.497 
 5686000    303.30065   -741.95515   -22998.273   -24903.173       1904.9    1.1610133    30.985945    30.985945    30.985945    29750.497 
 5687000    301.58281    -1145.427   -23032.773   -24926.884     1894.111    1.1610133    30.985945    30.985945    30.985945    29750.497 
 5688000    304.66947   -842.05795   -23029.718   -24943.215    1913.4969    1.1610133    30.985945    30.985945    30.985945    29750.497 
 5689000     301.8693   -790.80917   -23021.886   -24917.796    1895.9103    1.1610133    30.985945    30.985945    30.985945    29750.497 
 5690000    295.23708   -954.53689   -23150.435   -25004.691    1854.2562    1.1610133    30.985945    30.985945    30.985945    29750.497 
 5691000    298.05447   -836.66436   -23158.195   -25030.146     1871.951    1.1610133    30.985945    30.985945    30.985945    29750.497 
 5692000    299.53153     -1857.71   -23050.085   -24931.313    1881.2278    1.1610133    30.985945    30.985945    30.985945    29750.497 
 5693000    306.97064   -2001.2185   -23102.375   -25030.325    1927.9496    1.1610133    30.985945    30.985945    30.985945    29750.497 
 5694000     298.6684   -1188.1419   -23114.698   -24990.505    1875.8068    1.1610133    30.985945    30.985945    30.985945    29750.497 
 5695000    296.54763   -2048.4028   -23062.224   -24924.711    1862.4872    1.1610133    30.985945    30.985945    30.985945    29750.497 
 5696000    297.64736   -1937.9304   -23057.418   -24926.812    1869.3941    1.1610133    30.985945    30.985945    30.985945    29750.497 
 5697000    293.69946   -1821.3017   -23089.683   -24934.282     1844.599    1.1610133    30.985945    30.985945    30.985945    29750.497 
 5698000    311.28805   -1167.8108   -22955.503   -24910.568    1955.0654    1.1610133    30.985945    30.985945    30.985945    29750.497 
 5699000    295.53716   -1680.4876   -23117.719    -24973.86    1856.1409    1.1610133    30.985945    30.985945    30.985945    29750.497 
 5700000    298.97635   -2054.6482   -23129.633   -25007.374    1877.7409    1.1610133    30.985945    30.985945    30.985945    29750.497 
 5701000    299.52018   -2524.3458   -23112.546   -24993.702    1881.1565    1.1610133    30.985945    30.985945    30.985945    29750.497 
 5702000    302.67811   -1924.8031   -23097.056   -24998.046    1900.9901    1.1610133    30.985945    30.985945    30.985945    29750.497 
 5703000    298.02785   -1601.4675   -23096.747   -24968.531    1871.7838    1.1610133    30.985945    30.985945    30.985945    29750.497 
 5704000    304.62216   -1105.3708   -23093.902   -25007.102    1913.1998    1.1610133    30.985945    30.985945    30.985945    29750.497 
 5705000    297.54922   -1938.9953   -23098.878   -24967.656    1868.7777    1.1610133    30.985945    30.985945    30.985945    29750.497 
 5706000    297.48502   -1025.3607   -23080.694   -24949.069    1868.3745    1.1610133    30.985945    30.985945    30.985945    29750.497 
 5707000    299.09417    -2098.758   -23105.766   -24984.247    1878.4809    1.1610133    30.985945    30.985945    30.985945    29750.497 
 5708000    305.73144   -1314.0805   -22969.118   -24889.285    1920.1667    1.1610133    30.985945    30.985945    30.985945    29750.497 
 5709000    297.65037   -1446.9305   -23072.358   -24941.771     1869.413    1.1610133    30.985945    30.985945    30.985945    29750.497 
 5710000    296.45363   -2262.3866   -23119.576   -24981.473    1861.8968    1.1610133    30.985945    30.985945    30.985945    29750.497 
 5711000    303.25328   -2195.7279   -23154.364   -25058.967    1904.6025    1.1610133    30.985945    30.985945    30.985945    29750.497 
 5712000    305.68285    -1801.502   -23129.656   -25049.518    1919.8615    1.1610133    30.985945    30.985945    30.985945    29750.497 
 5713000    302.64334   -2502.3327   -23159.502   -25060.274    1900.7717    1.1610133    30.985945    30.985945    30.985945    29750.497 
 5714000    302.19964   -2152.1689   -23077.168   -24975.153     1897.985    1.1610133    30.985945    30.985945    30.985945    29750.497 
 5715000    294.92371   -1964.0752   -23184.298   -25036.586     1852.288    1.1610133    30.985945    30.985945    30.985945    29750.497 
 5716000    290.82446   -1647.5293   -23244.531   -25071.073    1826.5424    1.1610133    30.985945    30.985945    30.985945    29750.497 
 5717000    306.27877    -1083.812   -23071.384   -24994.988    1923.6043    1.1610133    30.985945    30.985945    30.985945    29750.497 
 5718000    298.94066   -1287.4664   -23095.261   -24972.778    1877.5168    1.1610133    30.985945    30.985945    30.985945    29750.497 
 5719000     305.5155   -712.35906   -23091.071   -25009.882    1918.8105    1.1610133    30.985945    30.985945    30.985945    29750.497 
 5720000    303.33142   -1209.1983   -22963.904   -24868.997    1905.0933    1.1610133    30.985945    30.985945    30.985945    29750.497 
 5721000    305.32107   -1144.3482   -22993.542   -24911.131    1917.5894    1.1610133    30.985945    30.985945    30.985945    29750.497 
 5722000    300.01615    -1907.934   -23123.131   -25007.402    1884.2715    1.1610133    30.985945    30.985945    30.985945    29750.497 
 5723000    291.54837   -2039.7713   -23081.258   -24912.347     1831.089    1.1610133    30.985945    30.985945    30.985945    29750.497 
 5724000    300.13279   -2180.6109   -23058.901   -24943.905     1885.004    1.1610133    30.985945    30.985945    30.985945    29750.497 
 5725000     296.7877   -1863.5833   -23106.103   -24970.098     1863.995    1.1610133    30.985945    30.985945    30.985945    29750.497 
 5726000    292.15685    -1448.275   -23044.499    -24879.41    1834.9106    1.1610133    30.985945    30.985945    30.985945    29750.497 
 5727000    301.58842   -1976.8626   -23099.013   -24993.159    1894.1462    1.1610133    30.985945    30.985945    30.985945    29750.497 
 5728000    295.56973   -2201.9299    -23182.54   -25038.885    1856.3454    1.1610133    30.985945    30.985945    30.985945    29750.497 
 5729000    300.79778    83.149065   -22984.717   -24873.897    1889.1805    1.1610133    30.985945    30.985945    30.985945    29750.497 
 5730000    298.76984   -2134.9862   -23091.792   -24968.236    1876.4439    1.1610133    30.985945    30.985945    30.985945    29750.497 
 5731000    294.76427   -1545.5203   -23139.425   -24990.711    1851.2867    1.1610133    30.985945    30.985945    30.985945    29750.497 
 5732000    296.66202    -1926.444   -23114.156   -24977.361    1863.2056    1.1610133    30.985945    30.985945    30.985945    29750.497 
 5733000    292.23375   -2113.1615   -23150.771   -24986.165    1835.3936    1.1610133    30.985945    30.985945    30.985945    29750.497 
 5734000    298.92444   -1258.0094   -23045.297   -24922.712    1877.4149    1.1610133    30.985945    30.985945    30.985945    29750.497 
 5735000    307.90101   -1068.4263   -23008.539   -24942.332    1933.7928    1.1610133    30.985945    30.985945    30.985945    29750.497 
 5736000    300.27489   -2392.5523   -23078.047   -24963.944    1885.8965    1.1610133    30.985945    30.985945    30.985945    29750.497 
 5737000    293.37669   -1965.9748   -23099.327   -24941.899    1842.5719    1.1610133    30.985945    30.985945    30.985945    29750.497 
 5738000    304.18431    -803.1294   -23064.428   -24974.878    1910.4499    1.1610133    30.985945    30.985945    30.985945    29750.497 
 5739000    308.26065    -588.4037   -22969.774   -24905.825    1936.0516    1.1610133    30.985945    30.985945    30.985945    29750.497 
 5740000    296.97279   -1418.6275   -23121.336   -24986.493    1865.1574    1.1610133    30.985945    30.985945    30.985945    29750.497 
 5741000    294.59914   -1504.7561   -23123.342   -24973.592    1850.2496    1.1610133    30.985945    30.985945    30.985945    29750.497 
 5742000    302.11739   -1504.8354       -23091   -24988.469    1897.4685    1.1610133    30.985945    30.985945    30.985945    29750.497 
 5743000    312.22475   -1970.7445   -22952.698   -24913.647    1960.9484    1.1610133    30.985945    30.985945    30.985945    29750.497 
 5744000    290.37348   -2269.1751   -23103.927   -24927.637      1823.71    1.1610133    30.985945    30.985945    30.985945    29750.497 
 5745000    305.93434   -1533.3267   -22986.041   -24907.482     1921.441    1.1610133    30.985945    30.985945    30.985945    29750.497 
 5746000       291.02   -1742.9436   -23116.531   -24944.302    1827.7705    1.1610133    30.985945    30.985945    30.985945    29750.497 
 5747000    294.31039   -1756.0213   -23134.015   -24982.451     1848.436    1.1610133    30.985945    30.985945    30.985945    29750.497 
 5748000    299.46303   -1742.7654   -23209.552    -25090.35    1880.7976    1.1610133    30.985945    30.985945    30.985945    29750.497 
 5749000    299.38126   -1846.6017   -23151.557   -25031.841     1880.284    1.1610133    30.985945    30.985945    30.985945    29750.497 
 5750000    301.50245   -1513.1094   -23172.563   -25066.169    1893.6063    1.1610133    30.985945    30.985945    30.985945    29750.497 
 5751000    310.93266   -1659.3212   -23068.574   -25021.407    1952.8333    1.1610133    30.985945    30.985945    30.985945    29750.497 
 5752000    298.14265   -1868.0099   -23151.541   -25024.045    1872.5048    1.1610133    30.985945    30.985945    30.985945    29750.497 
 5753000    294.32271   -1606.1092   -23180.563   -25029.076    1848.5135    1.1610133    30.985945    30.985945    30.985945    29750.497 
 5754000    304.72401   -1724.2523   -22998.817   -24912.657    1913.8395    1.1610133    30.985945    30.985945    30.985945    29750.497 
 5755000    300.21748   -1812.1445   -23095.493   -24981.029    1885.5359    1.1610133    30.985945    30.985945    30.985945    29750.497 
 5756000    305.64025   -2111.8022   -23049.027   -24968.621     1919.594    1.1610133    30.985945    30.985945    30.985945    29750.497 
 5757000    298.37064   -1770.2067   -23131.049   -25004.986    1873.9368    1.1610133    30.985945    30.985945    30.985945    29750.497 
 5758000    295.88779   -937.51028   -23170.899   -25029.242     1858.343    1.1610133    30.985945    30.985945    30.985945    29750.497 
 5759000     301.4473   -1634.5011   -23113.921   -25007.181    1893.2599    1.1610133    30.985945    30.985945    30.985945    29750.497 
 5760000    301.51298   -1843.6883   -23167.395   -25061.068    1893.6724    1.1610133    30.985945    30.985945    30.985945    29750.497 
 5761000    302.24564   -1705.0499   -23133.151   -25031.425    1898.2739    1.1610133    30.985945    30.985945    30.985945    29750.497 
 5762000    301.27442    -798.5142   -23149.999   -25042.173    1892.1741    1.1610133    30.985945    30.985945    30.985945    29750.497 
 5763000    296.05285   -1744.9536   -23113.003   -24972.382    1859.3797    1.1610133    30.985945    30.985945    30.985945    29750.497 
 5764000    295.27734   -1888.0804   -23199.259   -25053.768     1854.509    1.1610133    30.985945    30.985945    30.985945    29750.497 
 5765000    299.92644   -1783.1708   -23092.716   -24976.424     1883.708    1.1610133    30.985945    30.985945    30.985945    29750.497 
 5766000    290.75711   -2060.2552   -23221.654   -25047.773    1826.1194    1.1610133    30.985945    30.985945    30.985945    29750.497 
 5767000    301.94896   -453.07919   -23128.947   -25025.358    1896.4106    1.1610133    30.985945    30.985945    30.985945    29750.497 
 5768000    294.81982   -1712.6597   -23152.351   -25003.986    1851.6356    1.1610133    30.985945    30.985945    30.985945    29750.497 
 5769000     306.2396   -1154.5175    -23042.88   -24966.238    1923.3583    1.1610133    30.985945    30.985945    30.985945    29750.497 
 5770000    299.26762   -1763.7929   -22990.611   -24870.181    1879.5703    1.1610133    30.985945    30.985945    30.985945    29750.497 
 5771000    293.32052   -2145.1297   -23056.563   -24898.782    1842.2191    1.1610133    30.985945    30.985945    30.985945    29750.497 
 5772000    297.70066   -1696.0096   -23101.761   -24971.489    1869.7289    1.1610133    30.985945    30.985945    30.985945    29750.497 
 5773000    304.48822   -3008.0396    -23029.49   -24941.848    1912.3586    1.1610133    30.985945    30.985945    30.985945    29750.497 
 5774000    292.88863   -1518.2536   -23114.143   -24953.649    1839.5066    1.1610133    30.985945    30.985945    30.985945    29750.497 
 5775000    298.92555   -1382.0649   -23136.874   -25014.295    1877.4219    1.1610133    30.985945    30.985945    30.985945    29750.497 
 5776000    298.41623   -1464.5454    -23245.72   -25119.943     1874.223    1.1610133    30.985945    30.985945    30.985945    29750.497 
 5777000    294.52939   -1363.8945    -23197.62   -25047.432    1849.8115    1.1610133    30.985945    30.985945    30.985945    29750.497 
 5778000    295.67083   -1759.3879    -23195.67   -25052.651    1856.9804    1.1610133    30.985945    30.985945    30.985945    29750.497 
 5779000    296.82834   -2282.5282   -23031.661   -24895.912    1864.2502    1.1610133    30.985945    30.985945    30.985945    29750.497 
 5780000    292.59928   -1794.0479   -23146.372   -24984.061    1837.6893    1.1610133    30.985945    30.985945    30.985945    29750.497 
 5781000    298.48724   -1116.9524    -23124.16   -24998.829     1874.669    1.1610133    30.985945    30.985945    30.985945    29750.497 
 5782000    298.40656   -818.10679   -23174.154   -25048.316    1874.1624    1.1610133    30.985945    30.985945    30.985945    29750.497 
 5783000    297.35183   -1960.8913   -23187.425   -25054.963     1867.538    1.1610133    30.985945    30.985945    30.985945    29750.497 
 5784000    297.88372    -1564.116   -23080.655   -24951.534    1870.8786    1.1610133    30.985945    30.985945    30.985945    29750.497 
 5785000    299.49945   -1032.9188   -23157.785   -25038.811    1881.0263    1.1610133    30.985945    30.985945    30.985945    29750.497 
 5786000    295.80337   -2220.5524   -23184.518   -25042.331    1857.8128    1.1610133    30.985945    30.985945    30.985945    29750.497 
 5787000    303.38454   -2253.5931   -23086.758   -24992.185    1905.4269    1.1610133    30.985945    30.985945    30.985945    29750.497 
 5788000    291.60457   -1900.2236   -23211.428    -25042.87     1831.442    1.1610133    30.985945    30.985945    30.985945    29750.497 
 5789000     295.8824   -1400.4076   -23086.259   -24944.568    1858.3092    1.1610133    30.985945    30.985945    30.985945    29750.497 
 5790000    300.32308   -1107.9751   -23148.016   -25034.216    1886.1992    1.1610133    30.985945    30.985945    30.985945    29750.497 
 5791000    304.35425   -1244.3477   -23161.176   -25072.693    1911.5172    1.1610133    30.985945    30.985945    30.985945    29750.497 
 5792000    294.23194   -1852.0897   -23200.801   -25048.744    1847.9434    1.1610133    30.985945    30.985945    30.985945    29750.497 
 5793000    298.53829    -1096.743   -23019.333   -24894.323    1874.9897    1.1610133    30.985945    30.985945    30.985945    29750.497 
 5794000    301.72195   -2273.0738   -23053.686   -24948.671    1894.9848    1.1610133    30.985945    30.985945    30.985945    29750.497 
 5795000    293.35846   -2319.0124   -23101.835   -24944.292    1842.4574    1.1610133    30.985945    30.985945    30.985945    29750.497 
 5796000    301.13839   -2271.0023    -23082.72    -24974.04    1891.3198    1.1610133    30.985945    30.985945    30.985945    29750.497 
 5797000    298.57321   -2134.8557   -23016.609   -24891.818     1875.209    1.1610133    30.985945    30.985945    30.985945    29750.497 
 5798000    302.63483   -1385.8468   -22968.014   -24868.732    1900.7182    1.1610133    30.985945    30.985945    30.985945    29750.497 
 5799000    300.89916   -992.04259   -23056.259   -24946.076    1889.8172    1.1610133    30.985945    30.985945    30.985945    29750.497 
 5800000    294.86902   -1766.1848   -23158.494   -25010.438    1851.9446    1.1610133    30.985945    30.985945    30.985945    29750.497 
 5801000    293.63701   -1410.3833   -23085.189   -24929.396    1844.2069    1.1610133    30.985945    30.985945    30.985945    29750.497 
 5802000     301.6696   -2330.4981   -23050.565   -24945.221    1894.6561    1.1610133    30.985945    30.985945    30.985945    29750.497 
 5803000    293.12058   -2298.2293   -23096.169   -24937.132    1840.9634    1.1610133    30.985945    30.985945    30.985945    29750.497 
 5804000    296.57337   -1419.9568   -23123.206   -24985.855    1862.6488    1.1610133    30.985945    30.985945    30.985945    29750.497 
 5805000    294.14009   -1281.4852   -23139.429   -24986.796    1847.3665    1.1610133    30.985945    30.985945    30.985945    29750.497 
 5806000    298.65278   -1752.9047   -23117.978   -24993.687    1875.7087    1.1610133    30.985945    30.985945    30.985945    29750.497 
 5807000    304.41502   -1413.6796   -23106.066   -25017.964    1911.8988    1.1610133    30.985945    30.985945    30.985945    29750.497 
 5808000    299.74215   -1148.8422   -23066.548   -24949.099    1882.5506    1.1610133    30.985945    30.985945    30.985945    29750.497 
 5809000    303.91528    -379.7686   -23074.995   -24983.756    1908.7602    1.1610133    30.985945    30.985945    30.985945    29750.497 
 5810000    296.57586   -989.89663   -23118.971   -24981.635    1862.6645    1.1610133    30.985945    30.985945    30.985945    29750.497 
 5811000    293.35636   -867.67482   -23075.717   -24918.161    1842.4442    1.1610133    30.985945    30.985945    30.985945    29750.497 
 5812000    294.58654   -1789.9915   -23098.901   -24949.071    1850.1704    1.1610133    30.985945    30.985945    30.985945    29750.497 
 5813000    310.18949   -1291.7076    -23040.03   -24988.196    1948.1658    1.1610133    30.985945    30.985945    30.985945    29750.497 
 5814000    295.50568   -875.97571   -23062.342   -24918.285    1855.9431    1.1610133    30.985945    30.985945    30.985945    29750.497 
 5815000    299.27581   -1900.9835   -23016.396   -24896.018    1879.6217    1.1610133    30.985945    30.985945    30.985945    29750.497 
 5816000    299.59861   -1645.7447   -23034.917   -24916.566    1881.6491    1.1610133    30.985945    30.985945    30.985945    29750.497 
 5817000    300.85165   -1603.3292   -23037.157   -24926.676    1889.5189    1.1610133    30.985945    30.985945    30.985945    29750.497 
 5818000    301.53045   -2002.5721    -23108.35   -25002.132    1893.7821    1.1610133    30.985945    30.985945    30.985945    29750.497 
 5819000    296.94745   -1556.9014    -23061.88   -24926.878    1864.9983    1.1610133    30.985945    30.985945    30.985945    29750.497 
 5820000    289.09286   -1662.6154   -23058.761   -24874.428     1815.667    1.1610133    30.985945    30.985945    30.985945    29750.497 
 5821000     301.5658   -1325.8094   -23005.796     -24899.8    1894.0041    1.1610133    30.985945    30.985945    30.985945    29750.497 
 5822000    310.99737   -1398.8068   -22961.134   -24914.374    1953.2398    1.1610133    30.985945    30.985945    30.985945    29750.497 
 5823000    304.59337   -1427.1088   -23063.387   -24976.406     1913.019    1.1610133    30.985945    30.985945    30.985945    29750.497 
 5824000    298.88751   -1283.7061   -23037.748   -24914.931    1877.1829    1.1610133    30.985945    30.985945    30.985945    29750.497 
 5825000    296.76751   -908.27537   -23073.162    -24937.03    1863.8682    1.1610133    30.985945    30.985945    30.985945    29750.497 
 5826000    286.08781   -1203.6673   -23052.036    -24848.83    1796.7936    1.1610133    30.985945    30.985945    30.985945    29750.497 
 5827000    295.87027     -1007.36   -23109.834   -24968.067     1858.233    1.1610133    30.985945    30.985945    30.985945    29750.497 
 5828000    299.05082   -1431.1963   -23118.852   -24997.061    1878.2086    1.1610133    30.985945    30.985945    30.985945    29750.497 
 5829000    295.19659   -1813.9516   -23109.227   -24963.229    1854.0019    1.1610133    30.985945    30.985945    30.985945    29750.497 
 5830000    299.56215   -1500.6031   -23091.766   -24973.186    1881.4201    1.1610133    30.985945    30.985945    30.985945    29750.497 
 5831000    305.25543   -1096.0477   -23003.182   -24920.359    1917.1771    1.1610133    30.985945    30.985945    30.985945    29750.497 
 5832000    299.30384   -871.34527    -23009.57   -24889.367    1879.7978    1.1610133    30.985945    30.985945    30.985945    29750.497 
 5833000    298.35366   -1376.6771   -23083.749   -24957.579    1873.8301    1.1610133    30.985945    30.985945    30.985945    29750.497 
 5834000    297.79731   -960.50955   -23040.533   -24910.869    1870.3359    1.1610133    30.985945    30.985945    30.985945    29750.497 
 5835000    295.61851   -384.31238   -23055.164   -24911.816    1856.6518    1.1610133    30.985945    30.985945    30.985945    29750.497 
 5836000    300.10528   -1769.2439   -22984.769     -24869.6    1884.8313    1.1610133    30.985945    30.985945    30.985945    29750.497 
 5837000    306.82612   -266.16101   -23019.377   -24946.419    1927.0419    1.1610133    30.985945    30.985945    30.985945    29750.497 
 5838000    298.09595   -1186.5122   -23087.498    -24959.71    1872.2115    1.1610133    30.985945    30.985945    30.985945    29750.497 
 5839000    301.74755   -1652.4753    -23037.63   -24932.775    1895.1456    1.1610133    30.985945    30.985945    30.985945    29750.497 
 5840000    292.37433   -735.54386   -23103.442   -24939.719    1836.2765    1.1610133    30.985945    30.985945    30.985945    29750.497 
 5841000    292.05522   -818.53796   -23065.558    -24899.83    1834.2723    1.1610133    30.985945    30.985945    30.985945    29750.497 
 5842000    295.91338    -943.4379   -23039.188   -24897.692    1858.5037    1.1610133    30.985945    30.985945    30.985945    29750.497 
 5843000     303.7203   -1043.3333   -23037.232   -24944.768    1907.5356    1.1610133    30.985945    30.985945    30.985945    29750.497 
 5844000    294.30413   -798.44362   -23101.838   -24950.234    1848.3967    1.1610133    30.985945    30.985945    30.985945    29750.497 
 5845000    300.60485   -1233.3615   -23105.106   -24993.075    1887.9689    1.1610133    30.985945    30.985945    30.985945    29750.497 
 5846000    302.30443    -2123.226    -23065.56   -24964.203    1898.6432    1.1610133    30.985945    30.985945    30.985945    29750.497 
 5847000    295.34711   -2095.2408   -23090.488   -24945.435    1854.9472    1.1610133    30.985945    30.985945    30.985945    29750.497 
 5848000    293.11161   -1296.3554   -23209.712   -25050.619    1840.9071    1.1610133    30.985945    30.985945    30.985945    29750.497 
 5849000    295.81504   -1339.8782   -23049.649   -24907.535    1857.8861    1.1610133    30.985945    30.985945    30.985945    29750.497 
 5850000     299.7096   -1078.0598   -23007.108   -24889.454    1882.3462    1.1610133    30.985945    30.985945    30.985945    29750.497 
 5851000    296.48591   -1497.5118   -23073.852   -24935.951    1862.0995    1.1610133    30.985945    30.985945    30.985945    29750.497 
 5852000    294.54178   -1446.6969   -23091.037   -24940.927    1849.8893    1.1610133    30.985945    30.985945    30.985945    29750.497 
 5853000     301.8383    -2085.408   -22923.373   -24819.089    1895.7156    1.1610133    30.985945    30.985945    30.985945    29750.497 
 5854000     293.3832   -1319.8074   -23111.172   -24953.785    1842.6128    1.1610133    30.985945    30.985945    30.985945    29750.497 
 5855000    293.60654   -1572.1744    -23093.98   -24937.995    1844.0155    1.1610133    30.985945    30.985945    30.985945    29750.497 
 5856000    295.21976   -1342.2774   -23148.867   -25003.015    1854.1474    1.1610133    30.985945    30.985945    30.985945    29750.497 
 5857000    296.26061   -1502.7285   -23097.432   -24958.116    1860.6846    1.1610133    30.985945    30.985945    30.985945    29750.497 
 5858000    299.16546   -345.85621   -23032.257   -24911.186    1878.9287    1.1610133    30.985945    30.985945    30.985945    29750.497 
 5859000    291.19745   -1336.7354   -23136.738   -24965.623     1828.885    1.1610133    30.985945    30.985945    30.985945    29750.497 
 5860000    301.68882   -644.23731   -22997.979   -24892.756    1894.7768    1.1610133    30.985945    30.985945    30.985945    29750.497 
 5861000    299.43333   -1097.3778   -23004.499    -24885.11    1880.6111    1.1610133    30.985945    30.985945    30.985945    29750.497 
 5862000    300.64397   -830.69212   -23088.545   -24976.759    1888.2145    1.1610133    30.985945    30.985945    30.985945    29750.497 
 5863000    293.88252   -1204.3666    -23076.39   -24922.139    1845.7488    1.1610133    30.985945    30.985945    30.985945    29750.497 
 5864000    297.90835   -1999.3365   -23063.439   -24934.472    1871.0333    1.1610133    30.985945    30.985945    30.985945    29750.497 
 5865000    288.65511   -1547.4639   -23126.449   -24939.367    1812.9177    1.1610133    30.985945    30.985945    30.985945    29750.497 
 5866000    298.65126    -1285.725   -22950.082   -24825.781    1875.6992    1.1610133    30.985945    30.985945    30.985945    29750.497 
 5867000    306.54489   -1777.3898   -22978.479   -24903.755    1925.2756    1.1610133    30.985945    30.985945    30.985945    29750.497 
 5868000    303.47388   -1981.4039   -23018.555   -24924.543     1905.988    1.1610133    30.985945    30.985945    30.985945    29750.497 
 5869000    309.32419   -1110.2353   -22937.203   -24879.934    1942.7312    1.1610133    30.985945    30.985945    30.985945    29750.497 
 5870000    301.38712   -1150.5231   -23060.056   -24952.938    1892.8819    1.1610133    30.985945    30.985945    30.985945    29750.497 
 5871000     297.3387   -1376.9587   -23046.594    -24914.05    1867.4555    1.1610133    30.985945    30.985945    30.985945    29750.497 
 5872000    300.80106   -989.02633   -23096.488   -24985.689    1889.2011    1.1610133    30.985945    30.985945    30.985945    29750.497 
 5873000    298.89947   -1239.3099   -23088.569   -24965.827    1877.2581    1.1610133    30.985945    30.985945    30.985945    29750.497 
 5874000    305.42841   -1014.4512   -23046.473   -24964.736    1918.2635    1.1610133    30.985945    30.985945    30.985945    29750.497 
 5875000    308.37683   -1406.8803   -23005.068   -24941.849    1936.7812    1.1610133    30.985945    30.985945    30.985945    29750.497 
 5876000    298.50434   -1007.4991   -23081.788   -24956.564    1874.7764    1.1610133    30.985945    30.985945    30.985945    29750.497 
 5877000    311.35479   -960.86338   -23008.071   -24963.555    1955.4846    1.1610133    30.985945    30.985945    30.985945    29750.497 
 5878000    302.66815   -1226.9826   -22991.559   -24892.486    1900.9275    1.1610133    30.985945    30.985945    30.985945    29750.497 
 5879000    301.57769   -812.56314   -23092.281    -24986.36    1894.0788    1.1610133    30.985945    30.985945    30.985945    29750.497 
 5880000    307.17003   -1367.5843    -22985.35   -24914.552    1929.2019    1.1610133    30.985945    30.985945    30.985945    29750.497 
 5881000    296.72655   -2257.5717   -23122.783   -24986.394    1863.6109    1.1610133    30.985945    30.985945    30.985945    29750.497 
 5882000    296.00381   -2131.6371   -23085.327   -24944.399    1859.0717    1.1610133    30.985945    30.985945    30.985945    29750.497 
 5883000    302.69529   -1315.6169   -23094.383   -24995.481     1901.098    1.1610133    30.985945    30.985945    30.985945    29750.497 
 5884000    296.58894   -707.26547   -23152.791   -25015.538    1862.7466    1.1610133    30.985945    30.985945    30.985945    29750.497 
 5885000    295.30108   -2123.5418   -23131.048   -24985.706    1854.6581    1.1610133    30.985945    30.985945    30.985945    29750.497 
 5886000    299.20788   -1569.8879   -23177.964   -25057.159    1879.1951    1.1610133    30.985945    30.985945    30.985945    29750.497 
 5887000    304.25906   -1351.6952   -23028.618   -24939.537    1910.9193    1.1610133    30.985945    30.985945    30.985945    29750.497 
 5888000     303.7376   -998.32666   -23143.984   -25051.628    1907.6443    1.1610133    30.985945    30.985945    30.985945    29750.497 
 5889000    290.78289   -732.55212   -23178.858   -25005.139    1826.2813    1.1610133    30.985945    30.985945    30.985945    29750.497 
 5890000    295.68729   -1581.0901   -23241.962   -25099.046    1857.0838    1.1610133    30.985945    30.985945    30.985945    29750.497 
 5891000    302.65996   -862.13771   -23167.703   -25068.579    1900.8761    1.1610133    30.985945    30.985945    30.985945    29750.497 
 5892000     306.2288   -571.22386   -23032.827   -24956.117    1923.2904    1.1610133    30.985945    30.985945    30.985945    29750.497 
 5893000    299.99241   -1638.2696   -23139.364   -25023.486    1884.1224    1.1610133    30.985945    30.985945    30.985945    29750.497 
 5894000    296.59732   -1169.6543   -23050.485   -24913.284    1862.7992    1.1610133    30.985945    30.985945    30.985945    29750.497 
 5895000    301.34837    -1367.718   -23112.981    -25005.62    1892.6385    1.1610133    30.985945    30.985945    30.985945    29750.497 
 5896000    297.35499    -2032.479   -23135.065   -25002.623    1867.5579    1.1610133    30.985945    30.985945    30.985945    29750.497 
 5897000    292.94363   -1911.1753   -23111.433   -24951.285     1839.852    1.1610133    30.985945    30.985945    30.985945    29750.497 
 5898000    303.40661   -2161.4779   -23048.269   -24953.835    1905.5655    1.1610133    30.985945    30.985945    30.985945    29750.497 
 5899000    296.55562   -1565.2576   -23075.472   -24938.009    1862.5373    1.1610133    30.985945    30.985945    30.985945    29750.497 
 5900000    307.45536   -1551.3788   -22983.706     -24914.7    1930.9939    1.1610133    30.985945    30.985945    30.985945    29750.497 
 5901000    299.83241   -1924.1291   -23156.212    -25039.33    1883.1175    1.1610133    30.985945    30.985945    30.985945    29750.497 
 5902000    301.51922   -1560.2082   -22993.605   -24887.317    1893.7116    1.1610133    30.985945    30.985945    30.985945    29750.497 
 5903000    298.42222   -2367.0931   -23073.921   -24948.182    1874.2607    1.1610133    30.985945    30.985945    30.985945    29750.497 
 5904000    290.97151   -1939.6931   -23149.738   -24977.204     1827.466    1.1610133    30.985945    30.985945    30.985945    29750.497 
 5905000    296.80926   -2046.9052   -23049.409    -24913.54    1864.1304    1.1610133    30.985945    30.985945    30.985945    29750.497 
 5906000    304.88151   -1686.2623   -23081.418   -24996.246    1914.8287    1.1610133    30.985945    30.985945    30.985945    29750.497 
 5907000    295.05466   -1914.3174   -23155.357   -25008.467    1853.1105    1.1610133    30.985945    30.985945    30.985945    29750.497 
 5908000    301.18798   -1509.8603   -23069.983   -24961.614    1891.6312    1.1610133    30.985945    30.985945    30.985945    29750.497 
 5909000    296.05262   -1036.3025   -23066.577   -24925.955    1859.3782    1.1610133    30.985945    30.985945    30.985945    29750.497 
 5910000    293.45356   -1159.3793   -23208.864   -25051.919    1843.0547    1.1610133    30.985945    30.985945    30.985945    29750.497 
 5911000    296.12679    -2597.917   -23052.566    -24912.41    1859.8441    1.1610133    30.985945    30.985945    30.985945    29750.497 
 5912000    290.24825   -1918.6294    -23119.43   -24942.354    1822.9235    1.1610133    30.985945    30.985945    30.985945    29750.497 
 5913000    302.87639   -944.86663   -23061.084   -24963.319    1902.2354    1.1610133    30.985945    30.985945    30.985945    29750.497 
 5914000    296.89628   -1595.6612     -23141.4   -25006.077    1864.6769    1.1610133    30.985945    30.985945    30.985945    29750.497 
 5915000    290.39769   -2335.9686    -23144.24   -24968.102    1823.8621    1.1610133    30.985945    30.985945    30.985945    29750.497 
 5916000    307.95802   -985.00143   -23083.011   -25017.162    1934.1509    1.1610133    30.985945    30.985945    30.985945    29750.497 
 5917000    294.19495   -2191.9808   -23143.868    -24991.58     1847.711    1.1610133    30.985945    30.985945    30.985945    29750.497 
 5918000    300.71122   -1822.7581   -23051.937   -24940.574    1888.6369    1.1610133    30.985945    30.985945    30.985945    29750.497 
 5919000    300.99819    -1727.451   -23017.298   -24907.737    1890.4392    1.1610133    30.985945    30.985945    30.985945    29750.497 
 5920000    296.25066   -1829.8043    -23119.17   -24979.792     1860.622    1.1610133    30.985945    30.985945    30.985945    29750.497 
 5921000    294.98479   -2083.7868   -23163.745   -25016.417    1852.6717    1.1610133    30.985945    30.985945    30.985945    29750.497 
 5922000    298.77295   -2047.6497    -23186.37   -25062.833    1876.4635    1.1610133    30.985945    30.985945    30.985945    29750.497 
 5923000    298.38896   -2227.5208   -23162.376   -25036.428    1874.0518    1.1610133    30.985945    30.985945    30.985945    29750.497 
 5924000     296.2236   -1680.4961   -23139.764   -25000.217    1860.4521    1.1610133    30.985945    30.985945    30.985945    29750.497 
 5925000    304.10575   -2093.8031   -23094.845   -25004.801    1909.9564    1.1610133    30.985945    30.985945    30.985945    29750.497 
 5926000    293.54686   -1629.1656   -23133.923   -24977.564    1843.6407    1.1610133    30.985945    30.985945    30.985945    29750.497 
 5927000    306.29849   -2090.0662   -23059.345   -24983.073    1923.7281    1.1610133    30.985945    30.985945    30.985945    29750.497 
 5928000    293.68442   -2716.5963   -23112.044   -24956.548    1844.5046    1.1610133    30.985945    30.985945    30.985945    29750.497 
 5929000    291.11698   -2206.2577    -23198.36   -25026.739    1828.3796    1.1610133    30.985945    30.985945    30.985945    29750.497 
 5930000    299.48119   -961.32645   -23082.391   -24963.302    1880.9116    1.1610133    30.985945    30.985945    30.985945    29750.497 
 5931000    297.30987   -1769.1541   -23159.018   -25026.293    1867.2745    1.1610133    30.985945    30.985945    30.985945    29750.497 
 5932000    295.04775   -1603.4509    -23044.18   -24897.247    1853.0671    1.1610133    30.985945    30.985945    30.985945    29750.497 
 5933000    304.27594   -1381.7109   -22985.564    -24896.59    1911.0254    1.1610133    30.985945    30.985945    30.985945    29750.497 
 5934000    291.12245   -2194.0733   -23172.002   -25000.416     1828.414    1.1610133    30.985945    30.985945    30.985945    29750.497 
 5935000    315.75185   -1796.5187   -23040.612   -25023.712    1983.1006    1.1610133    30.985945    30.985945    30.985945    29750.497 
 5936000    303.64723   -1325.5039   -23102.286   -25009.363    1907.0767    1.1610133    30.985945    30.985945    30.985945    29750.497 
 5937000    291.33111    -2138.649   -23078.369   -24908.094    1829.7245    1.1610133    30.985945    30.985945    30.985945    29750.497 
 5938000    300.62933    -1672.488   -23081.828    -24969.95    1888.1226    1.1610133    30.985945    30.985945    30.985945    29750.497 
 5939000    302.89534   -1670.3693   -22984.088   -24886.442    1902.3544    1.1610133    30.985945    30.985945    30.985945    29750.497 
 5940000    301.24052   -1647.0598   -23016.078    -24908.04    1891.9612    1.1610133    30.985945    30.985945    30.985945    29750.497 
 5941000    298.13412   -1381.2635   -23015.058   -24887.509    1872.4513    1.1610133    30.985945    30.985945    30.985945    29750.497 
 5942000    303.27871   -2551.7516   -23154.002   -25058.764    1904.7622    1.1610133    30.985945    30.985945    30.985945    29750.497 
 5943000    296.48511   -2160.6017   -23053.128   -24915.223    1862.0945    1.1610133    30.985945    30.985945    30.985945    29750.497 
 5944000    300.94942   -1682.2455   -23048.474   -24938.607    1890.1329    1.1610133    30.985945    30.985945    30.985945    29750.497 
 5945000    300.38559   -1169.3837   -23073.386   -24959.978    1886.5917    1.1610133    30.985945    30.985945    30.985945    29750.497 
 5946000    303.10722   -2301.5137   -23077.305    -24980.99    1903.6852    1.1610133    30.985945    30.985945    30.985945    29750.497 
 5947000    297.77153   -2100.7443   -23059.391   -24929.565     1870.174    1.1610133    30.985945    30.985945    30.985945    29750.497 
 5948000    295.60647   -1665.5542   -23191.605   -25048.181    1856.5762    1.1610133    30.985945    30.985945    30.985945    29750.497 
 5949000    297.10483   -2216.2408   -23018.344    -24884.33    1865.9867    1.1610133    30.985945    30.985945    30.985945    29750.497 
 5950000    291.27123   -1600.8681   -23109.301   -24938.649    1829.3484    1.1610133    30.985945    30.985945    30.985945    29750.497 
 5951000    294.62007   -1853.7354   -23215.575   -25065.956     1850.381    1.1610133    30.985945    30.985945    30.985945    29750.497 
 5952000    297.56887    -2140.378   -23167.152   -25036.054    1868.9011    1.1610133    30.985945    30.985945    30.985945    29750.497 
 5953000    301.32826   -1570.4915   -23121.869   -25014.381    1892.5123    1.1610133    30.985945    30.985945    30.985945    29750.497 
 5954000    291.21035    -2319.351   -23142.915   -24971.881     1828.966    1.1610133    30.985945    30.985945    30.985945    29750.497 
 5955000    298.98492   -1180.7908   -23048.827   -24926.621    1877.7947    1.1610133    30.985945    30.985945    30.985945    29750.497 
 5956000    302.18782   -1548.2627   -23130.739   -25028.649    1897.9108    1.1610133    30.985945    30.985945    30.985945    29750.497 
 5957000    300.50898   -1606.4458   -23108.121   -24995.488    1887.3667    1.1610133    30.985945    30.985945    30.985945    29750.497 
 5958000    306.05181   -1325.7453   -23083.019   -25005.198    1922.1788    1.1610133    30.985945    30.985945    30.985945    29750.497 
 5959000    296.87266   -1677.9569   -23088.648   -24953.176    1864.5286    1.1610133    30.985945    30.985945    30.985945    29750.497 
 5960000    296.76042   -946.86857   -23105.749   -24969.573    1863.8237    1.1610133    30.985945    30.985945    30.985945    29750.497 
 5961000    298.48094    -1519.982   -23121.345   -24995.975    1874.6295    1.1610133    30.985945    30.985945    30.985945    29750.497 
 5962000    292.65949   -1704.5901   -23210.747   -25048.814    1838.0675    1.1610133    30.985945    30.985945    30.985945    29750.497 
 5963000    310.23383   -1066.1387   -22964.799   -24913.243    1948.4443    1.1610133    30.985945    30.985945    30.985945    29750.497 
 5964000    303.96638   -1606.0446   -23044.569    -24953.65    1909.0811    1.1610133    30.985945    30.985945    30.985945    29750.497 
 5965000    298.06194   -1208.4561   -23151.643   -25023.641    1871.9979    1.1610133    30.985945    30.985945    30.985945    29750.497 
 5966000    297.22486   -2590.0108   -23126.422   -24993.162    1866.7406    1.1610133    30.985945    30.985945    30.985945    29750.497 
 5967000    298.18525   -943.74163   -23120.123   -24992.895    1872.7724    1.1610133    30.985945    30.985945    30.985945    29750.497 
 5968000    298.57837   -2585.4067   -23075.119    -24950.36    1875.2414    1.1610133    30.985945    30.985945    30.985945    29750.497 
 5969000    304.80823   -1486.2761   -23016.351    -24930.72    1914.3685    1.1610133    30.985945    30.985945    30.985945    29750.497 
 5970000    305.19793   -1825.2209   -23061.682   -24978.498     1916.816    1.1610133    30.985945    30.985945    30.985945    29750.497 
 5971000    296.71586   -1804.4773   -23128.867    -24992.41    1863.5438    1.1610133    30.985945    30.985945    30.985945    29750.497 
 5972000      293.314   -1626.4854   -23106.159   -24948.337    1842.1782    1.1610133    30.985945    30.985945    30.985945    29750.497 
 5973000    307.38181   -1188.9748   -23080.866   -25011.398     1930.532    1.1610133    30.985945    30.985945    30.985945    29750.497 
 5974000    295.70044   -1440.0535   -23158.078   -25015.244    1857.1664    1.1610133    30.985945    30.985945    30.985945    29750.497 
 5975000    305.28378   -603.78622   -23051.406   -24968.761    1917.3551    1.1610133    30.985945    30.985945    30.985945    29750.497 
 5976000    301.21524    -2097.325   -23050.064   -24941.866    1891.8025    1.1610133    30.985945    30.985945    30.985945    29750.497 
 5977000    304.51009   -1292.0295   -23004.204     -24916.7    1912.4959    1.1610133    30.985945    30.985945    30.985945    29750.497 
 5978000    296.06474   -1354.0029   -23063.143   -24922.598    1859.4544    1.1610133    30.985945    30.985945    30.985945    29750.497 
 5979000    297.63636   -1209.3562   -23116.855    -24986.18     1869.325    1.1610133    30.985945    30.985945    30.985945    29750.497 
 5980000    294.69723   -1614.4627   -23094.399   -24945.264    1850.8656    1.1610133    30.985945    30.985945    30.985945    29750.497 
 5981000    305.98847   -1658.9868   -23025.093   -24946.874     1921.781    1.1610133    30.985945    30.985945    30.985945    29750.497 
 5982000    300.82306   -1142.9568   -23044.395   -24933.734    1889.3393    1.1610133    30.985945    30.985945    30.985945    29750.497 
 5983000    294.50544   -2338.2848   -23102.365   -24952.026    1849.6611    1.1610133    30.985945    30.985945    30.985945    29750.497 
 5984000    294.09861   -1103.4665   -23114.061   -24961.167     1847.106    1.1610133    30.985945    30.985945    30.985945    29750.497 
 5985000    290.54648   -1926.9898   -23131.399   -24956.195    1824.7966    1.1610133    30.985945    30.985945    30.985945    29750.497 
 5986000    300.59984   -1990.3639   -23084.447   -24972.384    1887.9374    1.1610133    30.985945    30.985945    30.985945    29750.497 
 5987000    301.18835   -1751.7956   -23106.649   -24998.283    1891.6336    1.1610133    30.985945    30.985945    30.985945    29750.497 
 5988000    291.76442   -817.19694   -23087.132   -24919.578    1832.4459    1.1610133    30.985945    30.985945    30.985945    29750.497 
 5989000    299.00977   -1493.9198   -23090.256   -24968.207    1877.9508    1.1610133    30.985945    30.985945    30.985945    29750.497 
 5990000    294.38659   -1533.5756   -23072.934   -24921.849    1848.9146    1.1610133    30.985945    30.985945    30.985945    29750.497 
 5991000    299.49141   -2239.6018    -23125.12   -25006.096    1880.9758    1.1610133    30.985945    30.985945    30.985945    29750.497 
 5992000    297.22854   -1968.3471   -23170.597   -25037.361    1866.7637    1.1610133    30.985945    30.985945    30.985945    29750.497 
 5993000    303.66865   -1159.6391   -23152.216   -25059.427    1907.2112    1.1610133    30.985945    30.985945    30.985945    29750.497 
 5994000    294.94823   -711.19715   -23144.698    -24997.14     1852.442    1.1610133    30.985945    30.985945    30.985945    29750.497 
 5995000    301.17169   -1658.3263   -23133.176   -25024.704    1891.5289    1.1610133    30.985945    30.985945    30.985945    29750.497 
 5996000    306.72478   -2610.3761   -23030.297   -24956.702    1926.4055    1.1610133    30.985945    30.985945    30.985945    29750.497 
 5997000    296.12262   -1841.7401   -23143.433   -25003.251    1859.8179    1.1610133    30.985945    30.985945    30.985945    29750.497 
 5998000    300.60121    -1433.379   -23162.276   -25050.222     1887.946    1.1610133    30.985945    30.985945    30.985945    29750.497 
 5999000     291.9529   -1503.0419   -23132.447   -24966.077    1833.6297    1.1610133    30.985945    30.985945    30.985945    29750.497 
 6000000    290.30845   -2008.4454   -23114.268   -24937.569    1823.3016    1.1610133    30.985945    30.985945    30.985945    29750.497 
 6000588    299.12593   -1861.7404   -23136.919   -25015.599    1878.6804    1.1610133    30.985945    30.985945    30.985945    29750.497 
Loop time of 25385.7 on 16 procs for 6000000 steps with 3108 atoms

Performance: 20.421 ns/day, 1.175 hours/ns, 236.354 timesteps/s
1583.7% CPU use with 1 MPI tasks x 16 OpenMP threads

MPI task timing breakdown:
Section |  min time  |  avg time  |  max time  |%varavg| %total
---------------------------------------------------------------
Pair    | 8585       | 8585       | 8585       |   0.0 | 33.82
Bond    | 68.823     | 68.823     | 68.823     |   0.0 |  0.27
Kspace  | 11862      | 11862      | 11862      |   0.0 | 46.73
Neigh   | 842.68     | 842.68     | 842.68     |   0.0 |  3.32
Comm    | 1070.3     | 1070.3     | 1070.3     |   0.0 |  4.22
Output  | 52.931     | 52.931     | 52.931     |   0.0 |  0.21
Modify  | 2851.2     | 2851.2     | 2851.2     |   0.0 | 11.23
Other   |            | 52.47      |            |       |  0.21

Nlocal:        3108.00 ave        3108 max        3108 min
Histogram: 1 0 0 0 0 0 0 0 0 0
Nghost:        14354.0 ave       14354 max       14354 min
Histogram: 1 0 0 0 0 0 0 0 0 0
Neighs:    1.17415e+06 ave 1.17415e+06 max 1.17415e+06 min
Histogram: 1 0 0 0 0 0 0 0 0 0

Total # of neighbors = 1174146
Ave neighs/atom = 377.78185
Ave special neighs/atom = 2.0463320
Neighbor list builds = 269117
Dangerous builds = 0

write_data equil.data
System init for write_data ...
PPPM initialization ...
  using 12-bit tables for long-range coulomb (src/kspace.cpp:340)
  G vector (1/distance) = 0.27356808
  grid = 18 18 18
  stencil order = 5
  estimated absolute RMS force accuracy = 0.022456967
  estimated relative force accuracy = 6.762849e-05
  using double precision KISS FFT
  3d grid and FFT values/proc = 15625 5832
Last active /omp style is kspace_style pppm/omp

write_restart   equil.restart
System init for write_restart ...
PPPM initialization ...
  using 12-bit tables for long-range coulomb (src/kspace.cpp:340)
  G vector (1/distance) = 0.27356808
  grid = 18 18 18
  stencil order = 5
  estimated absolute RMS force accuracy = 0.022456967
  estimated relative force accuracy = 6.762849e-05
  using double precision KISS FFT
  3d grid and FFT values/proc = 15625 5832
Last active /omp style is kspace_style pppm/omp


Total wall time: 7:03:12
