3
Coordinates from ORCA-job input E -76.331725425517
  O      -2.817790      2.934153      0.000000
  H      -2.466181      3.786607     -0.228458
  H      -3.701333      3.035226      0.334119
3
Coordinates from ORCA-job input E -76.332698133644
  O      -2.809217      2.918797     -0.001704
  H      -2.472944      3.792776     -0.226478
  H      -3.703144      3.044413      0.333843
3
Coordinates from ORCA-job input E -76.333061003948
  O      -2.800730      2.903597     -0.003391
  H      -2.489322      3.792991     -0.220107
  H      -3.695253      3.059398      0.329159
3
Coordinates from ORCA-job input E -76.333072795280
  O      -2.799792      2.901900     -0.003576
  H      -2.492769      3.792031     -0.218658
  H      -3.692743      3.062054      0.327895
3
Coordinates from ORCA-job input E -76.333073186951
  O      -2.799872      2.902040     -0.003560
  H      -2.492979      3.791810     -0.218553
  H      -3.692453      3.062135      0.327773
3
Coordinates from ORCA-job input E -76.333073201559
  O      -2.799889      2.902070     -0.003556
  H      -2.492965      3.791799     -0.218557
  H      -3.692450      3.062117      0.327774
