
# Read simulation box and atom positions
read_data       nickel.data
Reading data file ...
  orthogonal box = (0.0040776171 0.0040776171 0.0040776171) to (30.990022 30.990022 30.990022)
  1 by 1 by 1 MPI processor grid
  reading atoms ...
  3108 atoms
  reading velocities ...
  3108 velocities
  scanning bonds ...
  4 = max bonds/atom
  scanning angles ...
  6 = max angles/atom
  reading bonds ...
  2072 bonds
  reading angles ...
  1108 angles
Finding 1-2 1-3 1-4 neighbors ...
  special bond factors lj:    0        0        0       
  special bond factors coul:  0        0        0       
     4 = max # of 1-2 neighbors
     3 = max # of 1-3 neighbors
     3 = max # of 1-4 neighbors
     4 = max # of special neighbors
  special bonds CPU = 0.001 seconds
  read_data CPU = 0.016 seconds

# Mass of each atom type
mass            1 15.9994   # Oxygen
mass            2 1.008   # Hydrogen
mass            3 58.693    #Ni
mass            4 32.06      #S
mass            5 15.9994   # Oxygen in SO4

# Neighbor list settings
neighbor        2.0 bin
neigh_modify    delay 0 every 1 check yes

pair_style   lj/cut/coul/long 10.0 10.0
kspace_style pppm  1e-4
pair_modify     tail yes
pair_modify     mix arithmetic  # Lorentz–Berthelot mixing rule
bond_style      harmonic
angle_style     harmonic

# parameters for lennard jones potential
pair_coeff      1 1 0.1553        3.166   # water O-O SPC/E
pair_coeff      2 2 0.0000        0.000      # H-H
pair_coeff      3 3 0.0366       1.9495      #Ni J. Phys. Chem. A 2006, 110, 691-699
pair_coeff      4 4 0.25         3.55  #S
pair_coeff      5 5 0.20         3.15  # O in SO4

bond_coeff      1 1000.0   1.00  # O-H (water)
bond_coeff      2 250.0   1.49    # S-O
angle_coeff     1 100.0  109.47   # H-O-H (water)
angle_coeff     2 100.0  109.47   # O-S-O


# Initial velocity distribution
velocity        all create ${temp} 4839201 dist gaussian
velocity        all create 298.15 4839201 dist gaussian

min_style       cg
minimize        1e-6 1e-8 2000 20000
PPPM initialization ...
  using 12-bit tables for long-range coulomb (src/kspace.cpp:340)
  G vector (1/distance) = 0.27356808
  grid = 18 18 18
  stencil order = 5
  estimated absolute RMS force accuracy = 0.022456967
  estimated relative force accuracy = 6.762849e-05
  using double precision KISS FFT
  3d grid and FFT values/proc = 15625 5832
Last active /omp style is kspace_style pppm/omp
Neighbor list info ...
  update every 1 steps, delay 0 steps, check yes
  max neighbors/atom: 2000, page size: 100000
  master list distance cutoff = 12
  ghost atom cutoff = 12
  binsize = 6, bins = 6 6 6
  1 neighbor lists, perpetual/occasional/extra = 1 0 0
  (1) pair lj/cut/coul/long/omp, perpetual
      attributes: half, newton on, omp
      pair build: half/bin/newton/omp
      stencil: half/bin/3d
      bin: standard
Per MPI rank memory allocation (min/avg/max) = 41.41 | 41.41 | 41.41 Mbytes
Step Temp E_pair E_mol TotEng Press 
       0       298.15   -25237.883    114.21442   -22362.389    34429.186 
     573       298.15   -28595.654    589.79218   -25244.582   -1457.4904 
Loop time of 5.52052 on 16 procs for 573 steps with 3108 atoms

1589.2% CPU use with 1 MPI tasks x 16 OpenMP threads

Minimization stats:
  Stopping criterion = energy tolerance
  Energy initial, next-to-last, final = 
      -25123.668900701  -28005.8356722539  -28005.8615158941
  Force two-norm initial, final = 1701.7849 12.639158
  Force max component initial, final = 73.128112 2.5598801
  Final line search alpha, max atom move = 0.011420947 0.029236256
  Iterations, force evaluations = 573 1145

MPI task timing breakdown:
Section |  min time  |  avg time  |  max time  |%varavg| %total
---------------------------------------------------------------
Pair    | 1.8187     | 1.8187     | 1.8187     |   0.0 | 32.94
Bond    | 0.066722   | 0.066722   | 0.066722   |   0.0 |  1.21
Kspace  | 2.5065     | 2.5065     | 2.5065     |   0.0 | 45.40
Neigh   | 0.033537   | 0.033537   | 0.033537   |   0.0 |  0.61
Comm    | 0.2855     | 0.2855     | 0.2855     |   0.0 |  5.17
Output  | 0          | 0          | 0          |   0.0 |  0.00
Modify  | 0.7307     | 0.7307     | 0.7307     |   0.0 | 13.24
Other   |            | 0.07887    |            |       |  1.43

Nlocal:        3108.00 ave        3108 max        3108 min
Histogram: 1 0 0 0 0 0 0 0 0 0
Nghost:        14178.0 ave       14178 max       14178 min
Histogram: 1 0 0 0 0 0 0 0 0 0
Neighs:    1.17468e+06 ave 1.17468e+06 max 1.17468e+06 min
Histogram: 1 0 0 0 0 0 0 0 0 0

Total # of neighbors = 1174681
Ave neighs/atom = 377.95399
Ave special neighs/atom = 2.0463320
Neighbor list builds = 12
Dangerous builds = 0

fix   1 all shake 0.0001 20 0 b 1 a 1
       0 = # of size 2 clusters
       0 = # of size 3 clusters
       0 = # of size 4 clusters
    1000 = # of frozen angles
  find clusters CPU = 0.003 seconds
fix   2 all nvt temp ${temp} ${temp} 100.0
fix   2 all nvt temp 298.15 ${temp} 100.0
fix   2 all nvt temp 298.15 298.15 100.0
fix   3 all efield  0.05 0.00 0.00   #apply electric field in the x-direction
fix   4 all momentum 100 linear 1 1 1  #remove center of mass motion

timestep	${dt}
timestep	1
thermo_style    custom step temp press etotal pe ke density lx ly lz vol
thermo          ${thermo_freq}
thermo          1000
thermo_modify   flush yes

# dumps for analysis
#First dump file with wrapped coordinates (x y z)
dump            1 all custom 1000 wrapped.lammpstrj id type x y z
dump_modify     1 sort id

# Second dump file with unwrapped coordinates and velocities
dump            2 all custom 1000 unwrapped.lammpstrj id type xu yu zu
dump_modify     2 sort id

run             ${nsteps}
run             6000000
PPPM initialization ...
  using 12-bit tables for long-range coulomb (src/kspace.cpp:340)
  G vector (1/distance) = 0.27356808
  grid = 18 18 18
  stencil order = 5
  estimated absolute RMS force accuracy = 0.022456967
  estimated relative force accuracy = 6.762849e-05
  using double precision KISS FFT
  3d grid and FFT values/proc = 15625 5832
Last active /omp style is kspace_style pppm/omp
Per MPI rank memory allocation (min/avg/max) = 40.91 | 40.91 | 40.91 Mbytes
Step Temp Press TotEng PotEng KinEng Density Lx Ly Lz Volume 
     573    439.65451   -4321.2309   -25782.475   -28543.754    2761.2795    1.1610133    30.985945    30.985945    30.985945    29750.497 
    1000     235.2015    108.93149   -24427.951    -25905.15    1477.1987    1.1610133    30.985945    30.985945    30.985945    29750.497 
    2000    300.01379    699.49976    -23303.45   -25187.707    1884.2567    1.1610133    30.985945    30.985945    30.985945    29750.497 
    3000    300.16152    -703.9282   -23137.601   -25022.785    1885.1845    1.1610133    30.985945    30.985945    30.985945    29750.497 
    4000    302.33368    43.236559   -23126.793    -25025.62    1898.8269    1.1610133    30.985945    30.985945    30.985945    29750.497 
    5000    288.87281    346.93937   -23241.984   -25056.269     1814.285    1.1610133    30.985945    30.985945    30.985945    29750.497 
    6000    297.74417    362.19289   -23177.351   -25047.353    1870.0021    1.1610133    30.985945    30.985945    30.985945    29750.497 
    7000    293.94723    528.91284    -23245.04   -25091.195    1846.1552    1.1610133    30.985945    30.985945    30.985945    29750.497 
    8000     308.0665   -214.30957   -23120.825   -25055.657    1934.8322    1.1610133    30.985945    30.985945    30.985945    29750.497 
    9000    293.06237   -226.60876   -23210.966   -25051.564    1840.5978    1.1610133    30.985945    30.985945    30.985945    29750.497 
   10000    297.64571    713.74184   -23245.434   -25114.818    1869.3837    1.1610133    30.985945    30.985945    30.985945    29750.497 
   11000    303.79116   -80.336545   -23171.633   -25079.614    1907.9806    1.1610133    30.985945    30.985945    30.985945    29750.497 
   12000    295.73541     859.9942   -23203.855   -25061.241     1857.386    1.1610133    30.985945    30.985945    30.985945    29750.497 
   13000    297.47844    22.665678   -23188.094   -25056.427    1868.3332    1.1610133    30.985945    30.985945    30.985945    29750.497 
   14000    294.80203    322.82057   -23177.651   -25029.175    1851.5238    1.1610133    30.985945    30.985945    30.985945    29750.497 
   15000    293.60414   -295.38844   -23186.422   -25030.423    1844.0004    1.1610133    30.985945    30.985945    30.985945    29750.497 
   16000    301.92273    484.01873   -23159.325   -25055.571    1896.2459    1.1610133    30.985945    30.985945    30.985945    29750.497 
   17000    294.25736   -683.03398   -23245.792   -25093.895     1848.103    1.1610133    30.985945    30.985945    30.985945    29750.497 
   18000    301.35443    465.51359    -23208.01   -25100.687    1892.6766    1.1610133    30.985945    30.985945    30.985945    29750.497 
   19000    297.84518   -1286.8412   -23206.917   -25077.553    1870.6365    1.1610133    30.985945    30.985945    30.985945    29750.497 
   20000    300.34394   -530.61089   -23227.642   -25113.972    1886.3302    1.1610133    30.985945    30.985945    30.985945    29750.497 
   21000    294.77387   -542.94614    -23246.42   -25097.767     1851.347    1.1610133    30.985945    30.985945    30.985945    29750.497 
   22000    307.84003   -108.08887   -23218.161   -25151.571    1933.4099    1.1610133    30.985945    30.985945    30.985945    29750.497 
   23000    299.54617   -59.297425   -23253.816   -25135.136    1881.3197    1.1610133    30.985945    30.985945    30.985945    29750.497 
   24000    302.66576    337.80841   -23203.255   -25104.167    1900.9125    1.1610133    30.985945    30.985945    30.985945    29750.497 
   25000    299.61841    416.18558   -23150.955   -25032.729    1881.7734    1.1610133    30.985945    30.985945    30.985945    29750.497 
   26000    302.17125   -80.079371   -23209.787   -25107.594    1897.8067    1.1610133    30.985945    30.985945    30.985945    29750.497 
   27000    302.84961   -304.37136   -23286.153    -25188.22    1902.0672    1.1610133    30.985945    30.985945    30.985945    29750.497 
   28000    302.93768   -41.487357   -23253.588   -25156.209    1902.6203    1.1610133    30.985945    30.985945    30.985945    29750.497 
   29000    300.33496   -477.56006   -23155.691   -25041.965    1886.2738    1.1610133    30.985945    30.985945    30.985945    29750.497 
   30000    294.26312   -647.65055   -23282.103   -25130.242    1848.1392    1.1610133    30.985945    30.985945    30.985945    29750.497 
   31000    289.43881   -900.14938     -23319.6    -25137.44    1817.8398    1.1610133    30.985945    30.985945    30.985945    29750.497 
   32000    301.70155    1014.8238   -23187.016   -25081.873    1894.8567    1.1610133    30.985945    30.985945    30.985945    29750.497 
   33000    297.23782   -700.49908   -23137.048    -25003.87     1866.822    1.1610133    30.985945    30.985945    30.985945    29750.497 
   34000    294.60697    51.509588   -23210.726   -25061.025    1850.2988    1.1610133    30.985945    30.985945    30.985945    29750.497 
   35000    303.85549   -124.90952   -23171.706   -25080.091    1908.3847    1.1610133    30.985945    30.985945    30.985945    29750.497 
   36000      298.791   -76.896106   -23238.744   -25115.321    1876.5768    1.1610133    30.985945    30.985945    30.985945    29750.497 
   37000    301.35875   -333.54434   -23181.453   -25074.157    1892.7038    1.1610133    30.985945    30.985945    30.985945    29750.497 
   38000    297.77061    328.91094   -23235.259   -25105.427    1870.1682    1.1610133    30.985945    30.985945    30.985945    29750.497 
   39000    299.61124    994.28829   -23253.284   -25135.012    1881.7284    1.1610133    30.985945    30.985945    30.985945    29750.497 
   40000    298.45885   -435.18884   -23220.193   -25094.684    1874.4907    1.1610133    30.985945    30.985945    30.985945    29750.497 
   41000    304.03437   -465.69395    -23193.18   -25102.688    1909.5082    1.1610133    30.985945    30.985945    30.985945    29750.497 
   42000    294.87356   -580.22305   -23284.748   -25136.721    1851.9731    1.1610133    30.985945    30.985945    30.985945    29750.497 
   43000    294.48966   -612.82495   -23280.156   -25129.718     1849.562    1.1610133    30.985945    30.985945    30.985945    29750.497 
   44000    301.27062    195.17323   -23211.945   -25104.095    1892.1502    1.1610133    30.985945    30.985945    30.985945    29750.497 
   45000    305.74163   -248.26359   -23176.367   -25096.597    1920.2307    1.1610133    30.985945    30.985945    30.985945    29750.497 
   46000    298.03574   -121.25557   -23296.379   -25168.212    1871.8333    1.1610133    30.985945    30.985945    30.985945    29750.497 
   47000     299.8913   -596.56744     -23218.3   -25101.788    1883.4873    1.1610133    30.985945    30.985945    30.985945    29750.497 
   48000    309.65644   -653.65644   -23183.256   -25128.074    1944.8179    1.1610133    30.985945    30.985945    30.985945    29750.497 
   49000    299.08292    130.59153   -23300.107   -25178.517    1878.4103    1.1610133    30.985945    30.985945    30.985945    29750.497 
   50000    303.26873   -1032.5227    -23212.46   -25117.159    1904.6995    1.1610133    30.985945    30.985945    30.985945    29750.497 
   51000    297.11819   -437.08977   -23271.135   -25137.206    1866.0706    1.1610133    30.985945    30.985945    30.985945    29750.497 
   52000    291.54325     1000.978   -23278.544   -25109.601    1831.0569    1.1610133    30.985945    30.985945    30.985945    29750.497 
   53000    293.41269     728.9738   -23256.791   -25099.589     1842.798    1.1610133    30.985945    30.985945    30.985945    29750.497 
   54000    294.93366    114.56099   -23270.657   -25123.007    1852.3505    1.1610133    30.985945    30.985945    30.985945    29750.497 
   55000    299.71448   -988.09018    -23166.76   -25049.137    1882.3768    1.1610133    30.985945    30.985945    30.985945    29750.497 
   56000    300.41565    281.95849   -23225.129   -25111.909    1886.7805    1.1610133    30.985945    30.985945    30.985945    29750.497 
   57000    299.62618   -769.49617   -23197.506   -25079.328    1881.8222    1.1610133    30.985945    30.985945    30.985945    29750.497 
   58000    296.14711   -568.54913   -23232.637   -25092.609    1859.9717    1.1610133    30.985945    30.985945    30.985945    29750.497 
   59000     288.6092   -93.717764    -23276.61    -25089.24    1812.6293    1.1610133    30.985945    30.985945    30.985945    29750.497 
   60000    297.27007   -847.31942   -23258.572   -25125.597    1867.0245    1.1610133    30.985945    30.985945    30.985945    29750.497 
   61000    301.73524   -266.42101   -23298.632   -25193.701    1895.0683    1.1610133    30.985945    30.985945    30.985945    29750.497 
   62000    305.64948    292.59522   -23156.232   -25075.884     1919.652    1.1610133    30.985945    30.985945    30.985945    29750.497 
   63000    305.47581   -1643.9268   -23134.604   -25053.165    1918.5612    1.1610133    30.985945    30.985945    30.985945    29750.497 
   64000    308.77757   -719.03681   -23113.613   -25052.911    1939.2982    1.1610133    30.985945    30.985945    30.985945    29750.497 
   65000    297.30964   -17.934368   -23222.084   -25089.357    1867.2731    1.1610133    30.985945    30.985945    30.985945    29750.497 
   66000    285.55779    536.15197   -23315.893   -25109.357    1793.4648    1.1610133    30.985945    30.985945    30.985945    29750.497 
   67000    292.20006   -77.386524   -23261.254   -25096.436     1835.182    1.1610133    30.985945    30.985945    30.985945    29750.497 
   68000    300.23921   -579.35961   -23228.472   -25114.145    1885.6724    1.1610133    30.985945    30.985945    30.985945    29750.497 
   69000    293.60211   -755.22775   -23237.643   -25081.631    1843.9876    1.1610133    30.985945    30.985945    30.985945    29750.497 
   70000    298.62958   -566.65803   -23104.641   -24980.204     1875.563    1.1610133    30.985945    30.985945    30.985945    29750.497 
   71000    292.64403   -24.663642   -23242.372   -25080.342    1837.9704    1.1610133    30.985945    30.985945    30.985945    29750.497 
   72000    300.72523   -15.973199    -23221.84   -25110.565    1888.7249    1.1610133    30.985945    30.985945    30.985945    29750.497 
   73000    295.17165    -739.5674   -23379.673   -25233.518    1853.8452    1.1610133    30.985945    30.985945    30.985945    29750.497 
   74000    297.12466    -123.9943   -23217.198   -25083.309    1866.1113    1.1610133    30.985945    30.985945    30.985945    29750.497 
   75000    296.19798   -938.65258   -23256.644   -25116.935    1860.2912    1.1610133    30.985945    30.985945    30.985945    29750.497 
   76000    298.83942   -317.97788   -23287.496   -25164.377     1876.881    1.1610133    30.985945    30.985945    30.985945    29750.497 
   77000    295.91142    78.984874   -23170.508   -25028.999    1858.4914    1.1610133    30.985945    30.985945    30.985945    29750.497 
   78000    308.16706    34.452891   -23141.704   -25077.168    1935.4638    1.1610133    30.985945    30.985945    30.985945    29750.497 
   79000    290.88263    91.880788   -23240.017   -25066.924    1826.9078    1.1610133    30.985945    30.985945    30.985945    29750.497 
   80000    300.96262   -89.169932   -23161.315   -25051.531    1890.2158    1.1610133    30.985945    30.985945    30.985945    29750.497 
   81000    306.16581   -238.71583   -23107.679   -25030.574    1922.8948    1.1610133    30.985945    30.985945    30.985945    29750.497 
   82000    292.72991   -887.44635   -23191.837   -25030.346    1838.5097    1.1610133    30.985945    30.985945    30.985945    29750.497 
   83000    304.05242   -1097.0811   -23119.384   -25029.005    1909.6215    1.1610133    30.985945    30.985945    30.985945    29750.497 
   84000    300.50197   -742.24507   -23210.552   -25097.875    1887.3227    1.1610133    30.985945    30.985945    30.985945    29750.497 
   85000    304.41164   -714.72268   -23238.639   -25150.516    1911.8776    1.1610133    30.985945    30.985945    30.985945    29750.497 
   86000    298.42108    648.72449   -23180.296   -25054.549    1874.2535    1.1610133    30.985945    30.985945    30.985945    29750.497 
   87000     294.4862   -1180.1167   -23252.065   -25101.605    1849.5402    1.1610133    30.985945    30.985945    30.985945    29750.497 
   88000     295.2523    79.585714    -23159.64   -25013.991    1854.3518    1.1610133    30.985945    30.985945    30.985945    29750.497 
   89000    298.20961    1190.0887   -23213.047   -25085.972    1872.9254    1.1610133    30.985945    30.985945    30.985945    29750.497 
   90000     302.8775   -336.23978   -23186.266   -25088.508    1902.2424    1.1610133    30.985945    30.985945    30.985945    29750.497 
   91000    295.44568   -698.92308   -23285.302   -25140.868    1855.5664    1.1610133    30.985945    30.985945    30.985945    29750.497 
   92000    306.42607   -1007.8001   -23176.805   -25101.335    1924.5294    1.1610133    30.985945    30.985945    30.985945    29750.497 
   93000    297.63472   -564.11485   -23138.521   -25007.835    1869.3147    1.1610133    30.985945    30.985945    30.985945    29750.497 
   94000    295.55344    544.58883   -23208.486   -25064.729    1856.2431    1.1610133    30.985945    30.985945    30.985945    29750.497 
   95000    303.31177   -461.91944   -23089.108   -24994.078    1904.9698    1.1610133    30.985945    30.985945    30.985945    29750.497 
   96000    294.88366   -703.32382   -23249.463   -25101.499    1852.0365    1.1610133    30.985945    30.985945    30.985945    29750.497 
   97000    294.16977    96.455714   -23151.224   -24998.777    1847.5529    1.1610133    30.985945    30.985945    30.985945    29750.497 
   98000    301.52829   -73.418179    -23061.64   -24955.408    1893.7686    1.1610133    30.985945    30.985945    30.985945    29750.497 
   99000    297.36034   -1161.0618   -23212.309   -25079.901    1867.5914    1.1610133    30.985945    30.985945    30.985945    29750.497 
  100000    296.90486   -77.490683   -23205.159    -25069.89    1864.7308    1.1610133    30.985945    30.985945    30.985945    29750.497 
  101000    290.36102   -468.03978   -23332.892   -25156.524    1823.6318    1.1610133    30.985945    30.985945    30.985945    29750.497 
  102000    306.71347   -517.90047   -23152.744   -25079.079    1926.3344    1.1610133    30.985945    30.985945    30.985945    29750.497 
  103000    299.67077   -1097.9288   -23198.967   -25081.069    1882.1023    1.1610133    30.985945    30.985945    30.985945    29750.497 
  104000    289.28351   -1020.4883   -23207.133   -25023.998    1816.8644    1.1610133    30.985945    30.985945    30.985945    29750.497 
  105000     299.0737    413.18264   -23219.009   -25097.362    1878.3523    1.1610133    30.985945    30.985945    30.985945    29750.497 
  106000    295.85154   -159.33823   -23267.004   -25125.119    1858.1154    1.1610133    30.985945    30.985945    30.985945    29750.497 
  107000    286.68365   -857.84263   -23349.521   -25150.057    1800.5358    1.1610133    30.985945    30.985945    30.985945    29750.497 
  108000    306.15775   -1019.1351   -23183.281   -25106.125    1922.8442    1.1610133    30.985945    30.985945    30.985945    29750.497 
  109000    303.19184   -429.83944   -23201.474    -25105.69    1904.2166    1.1610133    30.985945    30.985945    30.985945    29750.497 
  110000    301.94041   -52.878337   -23165.648   -25062.005    1896.3569    1.1610133    30.985945    30.985945    30.985945    29750.497 
  111000    300.85537   -7.6307267   -23141.314   -25030.857    1889.5422    1.1610133    30.985945    30.985945    30.985945    29750.497 
  112000    298.42851   -711.46557   -23203.251   -25077.551    1874.3002    1.1610133    30.985945    30.985945    30.985945    29750.497 
  113000    292.67033   -679.60685    -23293.94   -25132.075    1838.1356    1.1610133    30.985945    30.985945    30.985945    29750.497 
  114000      296.887     -237.382    -23238.79   -25103.409    1864.6186    1.1610133    30.985945    30.985945    30.985945    29750.497 
  115000    293.62347   -328.28241   -23263.613   -25107.735    1844.1218    1.1610133    30.985945    30.985945    30.985945    29750.497 
  116000    294.74931    331.04338   -23303.181   -25154.373    1851.1927    1.1610133    30.985945    30.985945    30.985945    29750.497 
  117000    298.97178    407.27197   -23173.643   -25051.355    1877.7122    1.1610133    30.985945    30.985945    30.985945    29750.497 
  118000    308.27365    366.81415   -23129.111   -25065.244    1936.1332    1.1610133    30.985945    30.985945    30.985945    29750.497 
  119000    300.49565    289.21485   -23209.037    -25096.32     1887.283    1.1610133    30.985945    30.985945    30.985945    29750.497 
  120000    304.04714    661.43598    -23168.95   -25078.538    1909.5883    1.1610133    30.985945    30.985945    30.985945    29750.497 
  121000    297.22442   -108.99957   -23205.639   -25072.377    1866.7378    1.1610133    30.985945    30.985945    30.985945    29750.497 
  122000    289.92454    233.50138    -23246.95   -25067.841    1820.8905    1.1610133    30.985945    30.985945    30.985945    29750.497 
  123000     307.9242   -445.07009   -23177.072   -25111.011    1933.9385    1.1610133    30.985945    30.985945    30.985945    29750.497 
  124000    300.39902   -402.23998   -23284.186   -25170.862    1886.6761    1.1610133    30.985945    30.985945    30.985945    29750.497 
  125000    301.90131     745.9034   -23197.374   -25093.485    1896.1114    1.1610133    30.985945    30.985945    30.985945    29750.497 
  126000    291.78702   -193.70507   -23226.908   -25059.496    1832.5879    1.1610133    30.985945    30.985945    30.985945    29750.497 
  127000    300.89086   -857.61752   -23240.504   -25130.269    1889.7652    1.1610133    30.985945    30.985945    30.985945    29750.497 
  128000    303.31417   -684.59869   -23212.182   -25117.167    1904.9849    1.1610133    30.985945    30.985945    30.985945    29750.497 
  129000    299.73396   -22.031014   -23253.662   -25136.161    1882.4992    1.1610133    30.985945    30.985945    30.985945    29750.497 
  130000    299.93013    677.59484   -23281.353   -25165.084    1883.7312    1.1610133    30.985945    30.985945    30.985945    29750.497 
  131000    297.87878   -1038.1114   -23151.156   -25022.003    1870.8476    1.1610133    30.985945    30.985945    30.985945    29750.497 
  132000      298.106   -361.93644   -23245.342   -25117.616    1872.2747    1.1610133    30.985945    30.985945    30.985945    29750.497 
  133000    292.48057    1242.6872   -23324.542   -25161.486    1836.9438    1.1610133    30.985945    30.985945    30.985945    29750.497 
  134000    300.57035    300.61989   -23138.608    -25026.36    1887.7522    1.1610133    30.985945    30.985945    30.985945    29750.497 
  135000     293.5236   -415.63682   -23289.428   -25132.922    1843.4946    1.1610133    30.985945    30.985945    30.985945    29750.497 
  136000    294.44462    -83.94952   -23197.404   -25046.683    1849.2791    1.1610133    30.985945    30.985945    30.985945    29750.497 
  137000    297.78092    312.90943   -23275.474   -25145.707    1870.2329    1.1610133    30.985945    30.985945    30.985945    29750.497 
  138000    305.00449   -717.83211   -23251.996   -25167.597     1915.601    1.1610133    30.985945    30.985945    30.985945    29750.497 
  139000    298.06594   -1398.9855    -23348.26   -25220.283    1872.0231    1.1610133    30.985945    30.985945    30.985945    29750.497 
  140000    297.32984    588.97329   -23200.317   -25067.717    1867.3999    1.1610133    30.985945    30.985945    30.985945    29750.497 
  141000    294.51927   -139.94435   -23140.068   -24989.816     1849.748    1.1610133    30.985945    30.985945    30.985945    29750.497 
  142000    288.77545    27.888782    -23269.55   -25083.224    1813.6735    1.1610133    30.985945    30.985945    30.985945    29750.497 
  143000    295.37532    -201.7329    -23293.11   -25148.234    1855.1244    1.1610133    30.985945    30.985945    30.985945    29750.497 
  144000    303.40195   -119.04924   -23185.094    -25090.63    1905.5362    1.1610133    30.985945    30.985945    30.985945    29750.497 
  145000    296.57775   -1479.3492   -23250.638   -25113.314    1862.6764    1.1610133    30.985945    30.985945    30.985945    29750.497 
  146000    297.67707    483.12303   -23193.431   -25063.011    1869.5807    1.1610133    30.985945    30.985945    30.985945    29750.497 
  147000    298.39172    -407.1162   -23249.601    -25123.67    1874.0691    1.1610133    30.985945    30.985945    30.985945    29750.497 
  148000    294.12005    -481.8643   -23219.068   -25066.308    1847.2406    1.1610133    30.985945    30.985945    30.985945    29750.497 
  149000    304.40883   -38.120092   -23222.589   -25134.449      1911.86    1.1610133    30.985945    30.985945    30.985945    29750.497 
  150000    306.12571    548.68862   -23172.854   -25095.497    1922.6429    1.1610133    30.985945    30.985945    30.985945    29750.497 
  151000    307.49027   -381.82067   -23277.568   -25208.781    1931.2132    1.1610133    30.985945    30.985945    30.985945    29750.497 
  152000    292.88378   -625.02064   -23212.722   -25052.199    1839.4761    1.1610133    30.985945    30.985945    30.985945    29750.497 
  153000    304.41411    -324.0962   -23157.527    -25069.42    1911.8931    1.1610133    30.985945    30.985945    30.985945    29750.497 
  154000    297.07421     -653.004   -23296.713   -25162.507    1865.7944    1.1610133    30.985945    30.985945    30.985945    29750.497 
  155000    297.80033   -639.64093   -23157.409   -25027.764    1870.3549    1.1610133    30.985945    30.985945    30.985945    29750.497 
  156000    303.66592   -439.18216   -23213.465    -25120.66    1907.1941    1.1610133    30.985945    30.985945    30.985945    29750.497 
  157000    300.69378   -290.16119       -23266   -25154.527    1888.5274    1.1610133    30.985945    30.985945    30.985945    29750.497 
  158000    297.57053   -776.10434   -23201.281   -25070.193    1868.9116    1.1610133    30.985945    30.985945    30.985945    29750.497 
  159000    300.44834   -613.47489   -23229.619   -25116.605    1886.9858    1.1610133    30.985945    30.985945    30.985945    29750.497 
  160000    285.95528    171.38022   -23248.391   -25044.353    1795.9612    1.1610133    30.985945    30.985945    30.985945    29750.497 
  161000    304.91672     148.7103   -23136.565   -25051.615    1915.0498    1.1610133    30.985945    30.985945    30.985945    29750.497 
  162000     288.8347   -987.50999    -23317.45   -25131.496    1814.0456    1.1610133    30.985945    30.985945    30.985945    29750.497 
  163000    297.56992    87.327827   -23274.072    -25142.98    1868.9078    1.1610133    30.985945    30.985945    30.985945    29750.497 
  164000    296.84524    413.01784   -23212.908   -25077.265    1864.3564    1.1610133    30.985945    30.985945    30.985945    29750.497 
  165000    305.54532     -699.798   -23142.628   -25061.626    1918.9978    1.1610133    30.985945    30.985945    30.985945    29750.497 
  166000    292.31436    252.09136   -23292.732   -25128.632    1835.8998    1.1610133    30.985945    30.985945    30.985945    29750.497 
  167000     295.9817   -457.46866   -23349.354   -25208.287    1858.9328    1.1610133    30.985945    30.985945    30.985945    29750.497 
  168000     299.1015    231.88167   -23290.873     -25169.4     1878.527    1.1610133    30.985945    30.985945    30.985945    29750.497 
  169000    292.98088   -463.39303   -23315.725   -25155.811     1840.086    1.1610133    30.985945    30.985945    30.985945    29750.497 
  170000    292.63179   -476.43805   -23266.924   -25104.818    1837.8935    1.1610133    30.985945    30.985945    30.985945    29750.497 
  171000    296.86237   -686.06425   -23220.253   -25084.717    1864.4639    1.1610133    30.985945    30.985945    30.985945    29750.497 
  172000    294.63078   -450.82161   -23279.432    -25129.88    1850.4483    1.1610133    30.985945    30.985945    30.985945    29750.497 
  173000    302.10074   -223.01208   -23277.866   -25175.229    1897.3638    1.1610133    30.985945    30.985945    30.985945    29750.497 
  174000    292.84832    553.40879   -23228.775   -25068.029    1839.2534    1.1610133    30.985945    30.985945    30.985945    29750.497 
  175000    303.73063   -37.230592   -23126.502   -25034.102    1907.6005    1.1610133    30.985945    30.985945    30.985945    29750.497 
  176000    284.29338    469.78918   -23269.392   -25054.915    1785.5236    1.1610133    30.985945    30.985945    30.985945    29750.497 
  177000    298.12272   -554.74035   -23237.659   -25110.039    1872.3796    1.1610133    30.985945    30.985945    30.985945    29750.497 
  178000    291.88994   -338.68358   -23178.664   -25011.898    1833.2343    1.1610133    30.985945    30.985945    30.985945    29750.497 
  179000    298.15763   -753.26142   -23131.665   -25004.264    1872.5989    1.1610133    30.985945    30.985945    30.985945    29750.497 
  180000    300.08183   -826.90689   -23174.241   -25058.925     1884.684    1.1610133    30.985945    30.985945    30.985945    29750.497 
  181000    298.47523   -578.51542   -23229.152   -25103.745    1874.5936    1.1610133    30.985945    30.985945    30.985945    29750.497 
  182000    302.36127    423.06606   -23227.306   -25126.306    1899.0002    1.1610133    30.985945    30.985945    30.985945    29750.497 
  183000     297.5429   -28.635118   -23194.821   -25063.559    1868.7381    1.1610133    30.985945    30.985945    30.985945    29750.497 
  184000    305.58347    10.106756    -23162.85   -25082.087    1919.2374    1.1610133    30.985945    30.985945    30.985945    29750.497 
  185000    306.28641   -511.37688    -23194.74   -25118.392    1923.6522    1.1610133    30.985945    30.985945    30.985945    29750.497 
  186000    306.20893   -855.68116   -23212.778   -25135.944    1923.1656    1.1610133    30.985945    30.985945    30.985945    29750.497 
  187000    292.38207   -576.73496   -23219.756   -25056.081    1836.3251    1.1610133    30.985945    30.985945    30.985945    29750.497 
  188000    294.32774    104.38097   -23250.953   -25099.498    1848.5451    1.1610133    30.985945    30.985945    30.985945    29750.497 
  189000    306.42022     -421.804     -23244.8   -25169.292    1924.4926    1.1610133    30.985945    30.985945    30.985945    29750.497 
  190000    302.93304    73.077018   -23188.619    -25091.21    1902.5912    1.1610133    30.985945    30.985945    30.985945    29750.497 
  191000    294.75484   -52.426897   -23144.516   -24995.743    1851.2275    1.1610133    30.985945    30.985945    30.985945    29750.497 
  192000    290.83435   -635.77095   -23211.527   -25038.131    1826.6045    1.1610133    30.985945    30.985945    30.985945    29750.497 
  193000    299.73624   -309.98389   -23163.539   -25046.052    1882.5134    1.1610133    30.985945    30.985945    30.985945    29750.497 
  194000    299.49959   -501.41772   -23091.274   -24972.301    1881.0272    1.1610133    30.985945    30.985945    30.985945    29750.497 
  195000    288.84298   -356.58981   -23264.808   -25078.906    1814.0976    1.1610133    30.985945    30.985945    30.985945    29750.497 
  196000    293.27973    18.451861     -23201.8   -25043.763    1841.9629    1.1610133    30.985945    30.985945    30.985945    29750.497 
  197000    294.23467   -478.14588   -23284.977   -25132.937    1847.9605    1.1610133    30.985945    30.985945    30.985945    29750.497 
  198000    295.39086   -452.73227   -23221.589   -25076.811     1855.222    1.1610133    30.985945    30.985945    30.985945    29750.497 
  199000     304.1664    -1638.997   -23035.867   -24946.204    1910.3374    1.1610133    30.985945    30.985945    30.985945    29750.497 
  200000    288.93667   -115.63364    -23236.93   -25051.617     1814.686    1.1610133    30.985945    30.985945    30.985945    29750.497 
  201000    306.31013    -932.6874   -23124.243   -25048.044    1923.8012    1.1610133    30.985945    30.985945    30.985945    29750.497 
  202000    296.47746   -713.63551   -23295.331   -25157.377    1862.0465    1.1610133    30.985945    30.985945    30.985945    29750.497 
  203000    294.42288   -1111.7206   -23184.887    -25034.03    1849.1425    1.1610133    30.985945    30.985945    30.985945    29750.497 
  204000    297.38742   -273.14701   -23319.592   -25187.354    1867.7616    1.1610133    30.985945    30.985945    30.985945    29750.497 
  205000    301.59021   -237.56198   -23140.911   -25035.069    1894.1575    1.1610133    30.985945    30.985945    30.985945    29750.497 
  206000    296.64149   -317.94884   -23201.188   -25064.265    1863.0767    1.1610133    30.985945    30.985945    30.985945    29750.497 
  207000    300.25871   -191.27375   -23173.398   -25059.193    1885.7949    1.1610133    30.985945    30.985945    30.985945    29750.497 
  208000    297.02773   -608.70625   -23280.626   -25146.129    1865.5025    1.1610133    30.985945    30.985945    30.985945    29750.497 
  209000    294.88431   -689.62381   -23318.391   -25170.431    1852.0406    1.1610133    30.985945    30.985945    30.985945    29750.497 
  210000    293.21214   -585.57406   -23212.617   -25054.155    1841.5384    1.1610133    30.985945    30.985945    30.985945    29750.497 
  211000    307.34635    -349.1451   -23169.488   -25099.797    1930.3093    1.1610133    30.985945    30.985945    30.985945    29750.497 
  212000    300.51351    -878.1544    -23199.19   -25086.585    1887.3952    1.1610133    30.985945    30.985945    30.985945    29750.497 
  213000    297.70004   -532.21327   -23220.793   -25090.518     1869.725    1.1610133    30.985945    30.985945    30.985945    29750.497 
  214000    301.40943   -932.94819   -23227.759   -25120.781     1893.022    1.1610133    30.985945    30.985945    30.985945    29750.497 
  215000    307.52398   -516.69615   -23133.762   -25065.187    1931.4249    1.1610133    30.985945    30.985945    30.985945    29750.497 
  216000    301.18279   -56.517657   -23148.078   -25039.677    1891.5986    1.1610133    30.985945    30.985945    30.985945    29750.497 
  217000    293.26042   -1035.1876   -23228.484   -25070.326    1841.8416    1.1610133    30.985945    30.985945    30.985945    29750.497 
  218000    295.19442   -622.11586   -23161.216   -25015.205    1853.9883    1.1610133    30.985945    30.985945    30.985945    29750.497 
  219000    294.62532   -1075.2572   -23216.925   -25067.339     1850.414    1.1610133    30.985945    30.985945    30.985945    29750.497 
  220000    296.93807   -489.93683   -23188.417   -25053.357    1864.9394    1.1610133    30.985945    30.985945    30.985945    29750.497 
  221000    293.49461    -317.3309   -23241.156   -25084.469    1843.3125    1.1610133    30.985945    30.985945    30.985945    29750.497 
  222000    306.28262    -1345.955   -23066.505   -24990.133    1923.6285    1.1610133    30.985945    30.985945    30.985945    29750.497 
  223000    296.47049   -1461.0956   -23203.141   -25065.143    1862.0027    1.1610133    30.985945    30.985945    30.985945    29750.497 
  224000    300.05325   -630.32703   -23165.637   -25050.141    1884.5045    1.1610133    30.985945    30.985945    30.985945    29750.497 
  225000    303.84784   -181.98672   -23193.911   -25102.248    1908.3367    1.1610133    30.985945    30.985945    30.985945    29750.497 
  226000    300.54921   -841.59972   -23203.582   -25091.201    1887.6194    1.1610133    30.985945    30.985945    30.985945    29750.497 
  227000    305.76145   -199.58373   -23228.759   -25149.114    1920.3552    1.1610133    30.985945    30.985945    30.985945    29750.497 
  228000     289.3618   -874.39516   -23323.197   -25140.553    1817.3561    1.1610133    30.985945    30.985945    30.985945    29750.497 
  229000    297.61406   -53.196122   -23216.039   -25085.224     1869.185    1.1610133    30.985945    30.985945    30.985945    29750.497 
  230000    293.38612   -1185.1135   -23225.994   -25068.625    1842.6311    1.1610133    30.985945    30.985945    30.985945    29750.497 
  231000    296.88472   -1182.9386   -23248.051   -25112.656    1864.6043    1.1610133    30.985945    30.985945    30.985945    29750.497 
  232000    289.03905    169.26561    -23142.41   -24957.739     1815.329    1.1610133    30.985945    30.985945    30.985945    29750.497 
  233000     295.9602    551.74412   -23162.736   -25021.534    1858.7978    1.1610133    30.985945    30.985945    30.985945    29750.497 
  234000    302.20576   -400.22623   -23136.006    -25034.03    1898.0235    1.1610133    30.985945    30.985945    30.985945    29750.497 
  235000    302.31691   -92.506274   -23186.205   -25084.927    1898.7216    1.1610133    30.985945    30.985945    30.985945    29750.497 
  236000    296.57509   -300.36651    -23115.43    -24978.09    1862.6597    1.1610133    30.985945    30.985945    30.985945    29750.497 
  237000     296.4236   -582.04171   -23189.246   -25050.955    1861.7082    1.1610133    30.985945    30.985945    30.985945    29750.497 
  238000    296.16665   -428.62795   -23179.151   -25039.245    1860.0944    1.1610133    30.985945    30.985945    30.985945    29750.497 
  239000    299.92051    183.90497   -23142.296   -25025.967    1883.6708    1.1610133    30.985945    30.985945    30.985945    29750.497 
  240000    296.34692   -299.99208   -23232.308   -25093.534    1861.2266    1.1610133    30.985945    30.985945    30.985945    29750.497 
  241000    301.94172    375.53359   -23221.826   -25118.191    1896.3651    1.1610133    30.985945    30.985945    30.985945    29750.497 
  242000    302.90124    613.84172   -23036.173   -24938.565    1902.3914    1.1610133    30.985945    30.985945    30.985945    29750.497 
  243000    298.87573    -558.6502   -23053.432   -24930.541     1877.109    1.1610133    30.985945    30.985945    30.985945    29750.497 
  244000    307.00725   -915.69793   -23130.835   -25059.014    1928.1796    1.1610133    30.985945    30.985945    30.985945    29750.497 
  245000    297.41043   -817.32128   -23309.156   -25177.063     1867.906    1.1610133    30.985945    30.985945    30.985945    29750.497 
  246000    294.62276   -789.01401   -23189.129   -25039.527    1850.3979    1.1610133    30.985945    30.985945    30.985945    29750.497 
  247000    296.36769   -200.25994   -23183.538   -25044.895    1861.3571    1.1610133    30.985945    30.985945    30.985945    29750.497 
  248000    298.29431    111.46359   -23197.034   -25070.491    1873.4573    1.1610133    30.985945    30.985945    30.985945    29750.497 
  249000    299.86446    900.42873   -23271.862   -25155.181    1883.3188    1.1610133    30.985945    30.985945    30.985945    29750.497 
  250000    296.01529    48.391616   -23179.247    -25038.39    1859.1438    1.1610133    30.985945    30.985945    30.985945    29750.497 
  251000    310.57334   -383.49844   -23115.481   -25066.057    1950.5766    1.1610133    30.985945    30.985945    30.985945    29750.497 
  252000    295.27227   -325.94057   -23306.557   -25161.034    1854.4772    1.1610133    30.985945    30.985945    30.985945    29750.497 
  253000    294.68279   -157.52869   -23227.212   -25077.987    1850.7749    1.1610133    30.985945    30.985945    30.985945    29750.497 
  254000    293.08187   -220.03092   -23192.458   -25033.178    1840.7202    1.1610133    30.985945    30.985945    30.985945    29750.497 
  255000    300.32232   -466.03868   -23213.815   -25100.009    1886.1944    1.1610133    30.985945    30.985945    30.985945    29750.497 
  256000    296.51704   -653.43266   -23275.816   -25138.111    1862.2951    1.1610133    30.985945    30.985945    30.985945    29750.497 
  257000    306.70645   -1399.0384    -23129.11     -25055.4    1926.2903    1.1610133    30.985945    30.985945    30.985945    29750.497 
  258000    302.36439   -21.415831   -23126.984   -25026.004    1899.0197    1.1610133    30.985945    30.985945    30.985945    29750.497 
  259000    305.48176   -409.91934   -23076.136   -24994.734    1918.5986    1.1610133    30.985945    30.985945    30.985945    29750.497 
  260000    304.52098   -238.62075    -23235.79   -25148.355    1912.5644    1.1610133    30.985945    30.985945    30.985945    29750.497 
  261000    291.80527   -415.22197   -23267.267   -25099.969    1832.7025    1.1610133    30.985945    30.985945    30.985945    29750.497 
  262000    295.98304   -934.64649   -23199.303   -25058.244    1858.9413    1.1610133    30.985945    30.985945    30.985945    29750.497 
  263000    285.79382    31.301849   -23365.884   -25160.831    1794.9472    1.1610133    30.985945    30.985945    30.985945    29750.497 
  264000    294.06594    236.44678   -23215.096   -25061.997    1846.9008    1.1610133    30.985945    30.985945    30.985945    29750.497 
  265000    306.24093   -428.32489   -23235.679   -25159.046    1923.3666    1.1610133    30.985945    30.985945    30.985945    29750.497 
  266000    292.24391   -498.42223   -23319.633    -25155.09    1835.4574    1.1610133    30.985945    30.985945    30.985945    29750.497 
  267000    300.20105   -581.05618   -23287.153   -25172.586    1885.4328    1.1610133    30.985945    30.985945    30.985945    29750.497 
  268000    294.43507   -342.83232   -23306.777   -25155.996    1849.2191    1.1610133    30.985945    30.985945    30.985945    29750.497 
  269000    296.52918   -442.56799   -23171.474   -25033.845    1862.3713    1.1610133    30.985945    30.985945    30.985945    29750.497 
  270000    302.59381   -448.50851   -23158.791   -25059.252    1900.4606    1.1610133    30.985945    30.985945    30.985945    29750.497 
  271000    303.91341   -1210.8688   -23157.926   -25066.674    1908.7485    1.1610133    30.985945    30.985945    30.985945    29750.497 
  272000    297.11884    343.41118   -23200.231   -25066.305    1866.0747    1.1610133    30.985945    30.985945    30.985945    29750.497 
  273000    297.56361   -372.71531   -23228.717   -25097.586    1868.8681    1.1610133    30.985945    30.985945    30.985945    29750.497 
  274000    296.60156    -788.1851   -23233.989   -25096.815    1862.8259    1.1610133    30.985945    30.985945    30.985945    29750.497 
  275000    297.86549    743.03911   -23155.921   -25026.685    1870.7641    1.1610133    30.985945    30.985945    30.985945    29750.497 
  276000    290.43957    409.05461    -23237.17   -25061.295    1824.1251    1.1610133    30.985945    30.985945    30.985945    29750.497 
  277000    307.31558    112.36552    -23222.09   -25152.206     1930.116    1.1610133    30.985945    30.985945    30.985945    29750.497 
  278000    293.55149     57.71318   -23318.623   -25162.293    1843.6697    1.1610133    30.985945    30.985945    30.985945    29750.497 
  279000    300.17863    303.39868   -23243.217   -25128.509     1885.292    1.1610133    30.985945    30.985945    30.985945    29750.497 
  280000    292.48731   -400.24338   -23199.412   -25036.398    1836.9861    1.1610133    30.985945    30.985945    30.985945    29750.497 
  281000    306.63792   -165.54679   -23153.576   -25079.436    1925.8599    1.1610133    30.985945    30.985945    30.985945    29750.497 
  282000    297.48833   -749.01066   -23321.386   -25189.781    1868.3953    1.1610133    30.985945    30.985945    30.985945    29750.497 
  283000    289.37475   -159.36736   -23278.072    -25095.51    1817.4374    1.1610133    30.985945    30.985945    30.985945    29750.497 
  284000    291.80412   -689.06616   -23255.076   -25087.771    1832.6953    1.1610133    30.985945    30.985945    30.985945    29750.497 
  285000    307.69137   -385.22745   -23156.121   -25088.597    1932.4762    1.1610133    30.985945    30.985945    30.985945    29750.497 
  286000    296.33503   -846.74473   -23250.404   -25111.556    1861.1519    1.1610133    30.985945    30.985945    30.985945    29750.497 
  287000    289.49534    26.289324   -23203.681   -25021.876    1818.1948    1.1610133    30.985945    30.985945    30.985945    29750.497 
  288000    293.69127    92.420209   -23247.271   -25091.818    1844.5476    1.1610133    30.985945    30.985945    30.985945    29750.497 
  289000    296.18763   -265.48324   -23258.602   -25118.828    1860.2262    1.1610133    30.985945    30.985945    30.985945    29750.497 
  290000    302.69456    556.91963   -23175.503   -25076.597    1901.0934    1.1610133    30.985945    30.985945    30.985945    29750.497 
  291000    293.33553   -1268.9832   -23274.956   -25117.269    1842.3134    1.1610133    30.985945    30.985945    30.985945    29750.497 
  292000    303.00454   -913.73758   -23150.078   -25053.118    1903.0402    1.1610133    30.985945    30.985945    30.985945    29750.497 
  293000    296.00417   -831.30889   -23193.799   -25052.873     1859.074    1.1610133    30.985945    30.985945    30.985945    29750.497 
  294000    293.05009   -502.44377    -23288.74    -25129.26    1840.5206    1.1610133    30.985945    30.985945    30.985945    29750.497 
  295000    299.87572   -175.00112   -23153.286   -25036.675    1883.3895    1.1610133    30.985945    30.985945    30.985945    29750.497 
  296000    297.48509   -397.20431   -23238.466    -25106.84    1868.3749    1.1610133    30.985945    30.985945    30.985945    29750.497 
  297000    299.97794   -556.53836    -23075.32   -24959.351    1884.0315    1.1610133    30.985945    30.985945    30.985945    29750.497 
  298000    293.35723    50.620646   -23181.844   -25024.293    1842.4497    1.1610133    30.985945    30.985945    30.985945    29750.497 
  299000    302.04111    198.97357   -23194.705   -25091.694    1896.9893    1.1610133    30.985945    30.985945    30.985945    29750.497 
  300000    303.68633    62.719453   -23152.952   -25060.274    1907.3222    1.1610133    30.985945    30.985945    30.985945    29750.497 
  301000    298.69865   -901.48376   -23220.286   -25096.283    1875.9968    1.1610133    30.985945    30.985945    30.985945    29750.497 
  302000    296.01712   -1448.1062   -23273.584    -25132.74    1859.1553    1.1610133    30.985945    30.985945    30.985945    29750.497 
  303000    299.06392   -342.85139   -23239.155   -25117.446    1878.2909    1.1610133    30.985945    30.985945    30.985945    29750.497 
  304000    288.15703   -267.60542   -23321.334   -25131.124    1809.7894    1.1610133    30.985945    30.985945    30.985945    29750.497 
  305000    294.55605    -271.1779    -23190.61   -25040.589     1849.979    1.1610133    30.985945    30.985945    30.985945    29750.497 
  306000    296.26493   -1120.3832   -23228.239   -25088.951    1860.7117    1.1610133    30.985945    30.985945    30.985945    29750.497 
  307000    301.83905   -123.37108   -23148.915   -25044.635    1895.7203    1.1610133    30.985945    30.985945    30.985945    29750.497 
  308000    299.54856    67.534032   -23172.576    -25053.91    1881.3347    1.1610133    30.985945    30.985945    30.985945    29750.497 
  309000    301.31955   -378.53992   -23129.922   -25022.379    1892.4576    1.1610133    30.985945    30.985945    30.985945    29750.497 
  310000    295.08315   -1399.5061   -23258.352   -25111.641    1853.2894    1.1610133    30.985945    30.985945    30.985945    29750.497 
  311000    286.77854     150.0617    -23282.77   -25083.901    1801.1318    1.1610133    30.985945    30.985945    30.985945    29750.497 
  312000    306.59721   -716.37934   -23129.898   -25055.502    1925.6042    1.1610133    30.985945    30.985945    30.985945    29750.497 
  313000    301.57629   -434.08453   -23180.808   -25074.878    1894.0701    1.1610133    30.985945    30.985945    30.985945    29750.497 
  314000    297.51831   -223.11113   -23181.846    -25050.43    1868.5836    1.1610133    30.985945    30.985945    30.985945    29750.497 
  315000    298.70313   -1132.7421   -23164.412   -25040.437    1876.0249    1.1610133    30.985945    30.985945    30.985945    29750.497 
  316000    299.21412   -336.39904   -23167.434   -25046.669    1879.2343    1.1610133    30.985945    30.985945    30.985945    29750.497 
  317000    303.78002    197.60532   -23222.284   -25130.195    1907.9107    1.1610133    30.985945    30.985945    30.985945    29750.497 
  318000    295.29003   -76.980566   -23248.188   -25102.776    1854.5887    1.1610133    30.985945    30.985945    30.985945    29750.497 
  319000    296.22944   -1241.8702   -23204.723   -25065.212    1860.4888    1.1610133    30.985945    30.985945    30.985945    29750.497 
  320000    299.68173   -393.78668   -23173.604   -25055.775    1882.1711    1.1610133    30.985945    30.985945    30.985945    29750.497 
  321000    292.29171   -739.03813   -23286.238   -25121.995    1835.7576    1.1610133    30.985945    30.985945    30.985945    29750.497 
  322000    300.83731   -57.212729   -23227.163   -25116.592    1889.4288    1.1610133    30.985945    30.985945    30.985945    29750.497 
  323000    300.72519   -657.61784   -23143.642   -25032.366    1888.7246    1.1610133    30.985945    30.985945    30.985945    29750.497 
  324000    299.69432   -22.874492    -23175.64    -25057.89    1882.2502    1.1610133    30.985945    30.985945    30.985945    29750.497 
  325000    301.76056    83.518853   -23177.762    -25072.99    1895.2273    1.1610133    30.985945    30.985945    30.985945    29750.497 
  326000    299.90352   -213.88666   -23189.351   -25072.915    1883.5641    1.1610133    30.985945    30.985945    30.985945    29750.497 
  327000     297.6682   -79.449163   -23139.131   -25008.656     1869.525    1.1610133    30.985945    30.985945    30.985945    29750.497 
  328000    299.55162   -1094.3884   -23175.102   -25056.456    1881.3539    1.1610133    30.985945    30.985945    30.985945    29750.497 
  329000    298.98707   -157.43348    -23192.21   -25070.019    1877.8083    1.1610133    30.985945    30.985945    30.985945    29750.497 
  330000    290.60397   -659.79178   -23168.057   -24993.215    1825.1576    1.1610133    30.985945    30.985945    30.985945    29750.497 
  331000    301.85045   -1369.7312   -23183.176   -25078.968    1895.7919    1.1610133    30.985945    30.985945    30.985945    29750.497 
  332000    303.35441   -863.14204   -23212.851   -25118.089    1905.2376    1.1610133    30.985945    30.985945    30.985945    29750.497 
  333000    307.71385    78.276791   -23144.788   -25077.406    1932.6174    1.1610133    30.985945    30.985945    30.985945    29750.497 
  334000    291.73967   -169.41081   -23269.383   -25101.673    1832.2905    1.1610133    30.985945    30.985945    30.985945    29750.497 
  335000    304.18517    3.1549112   -23124.021   -25034.476    1910.4552    1.1610133    30.985945    30.985945    30.985945    29750.497 
  336000    303.18785   -540.29057   -23249.024   -25153.216    1904.1916    1.1610133    30.985945    30.985945    30.985945    29750.497 
  337000    291.99138     -1264.44   -23301.048   -25134.919    1833.8714    1.1610133    30.985945    30.985945    30.985945    29750.497 
  338000    287.69025    543.34481    -23296.06   -25102.918    1806.8578    1.1610133    30.985945    30.985945    30.985945    29750.497 
  339000    297.52503   -758.05913   -23236.853   -25105.479    1868.6258    1.1610133    30.985945    30.985945    30.985945    29750.497 
  340000    293.80727   -1197.5825   -23240.052   -25085.328    1845.2761    1.1610133    30.985945    30.985945    30.985945    29750.497 
  341000    300.25739   -676.18243   -23254.063    -25139.85    1885.7866    1.1610133    30.985945    30.985945    30.985945    29750.497 
  342000    310.19135   -1054.8148   -23072.666   -25020.843    1948.1775    1.1610133    30.985945    30.985945    30.985945    29750.497 
  343000    296.75758   -841.53342   -23261.537   -25125.343    1863.8058    1.1610133    30.985945    30.985945    30.985945    29750.497 
  344000     304.0609   -157.22198   -23122.147   -25031.822    1909.6748    1.1610133    30.985945    30.985945    30.985945    29750.497 
  345000    295.41541   -891.46691   -23249.034    -25104.41    1855.3762    1.1610133    30.985945    30.985945    30.985945    29750.497 
  346000    296.79772    -946.7407   -23212.474   -25076.531    1864.0579    1.1610133    30.985945    30.985945    30.985945    29750.497 
  347000    290.22964   -528.38924   -23327.438   -25150.245    1822.8066    1.1610133    30.985945    30.985945    30.985945    29750.497 
  348000    300.35491    60.804418    -23208.15   -25094.549    1886.3991    1.1610133    30.985945    30.985945    30.985945    29750.497 
  349000    301.17498   -1132.1364   -23197.988   -25089.537    1891.5496    1.1610133    30.985945    30.985945    30.985945    29750.497 
  350000    305.06207   -699.16137   -23214.116   -25130.079    1915.9627    1.1610133    30.985945    30.985945    30.985945    29750.497 
  351000     296.6255   -1032.3985   -23201.515   -25064.491    1862.9762    1.1610133    30.985945    30.985945    30.985945    29750.497 
  352000    290.60989   -970.65949   -23201.525    -25026.72    1825.1948    1.1610133    30.985945    30.985945    30.985945    29750.497 
  353000    300.89417   -741.77823   -23167.378   -25057.164    1889.7859    1.1610133    30.985945    30.985945    30.985945    29750.497 
  354000    296.81238   -130.82209   -23235.491   -25099.641      1864.15    1.1610133    30.985945    30.985945    30.985945    29750.497 
  355000    293.69945   -465.68248   -23221.601     -25066.2     1844.599    1.1610133    30.985945    30.985945    30.985945    29750.497 
  356000    306.59783     39.19121   -23097.167   -25022.776    1925.6081    1.1610133    30.985945    30.985945    30.985945    29750.497 
  357000    299.29966   -437.14705   -23165.993   -25045.764    1879.7715    1.1610133    30.985945    30.985945    30.985945    29750.497 
  358000    305.52943   -657.03135   -23161.449   -25080.347     1918.898    1.1610133    30.985945    30.985945    30.985945    29750.497 
  359000    301.18546    389.79963   -23173.644   -25065.259    1891.6154    1.1610133    30.985945    30.985945    30.985945    29750.497 
  360000    296.92014   -616.82516   -23303.673     -25168.5    1864.8268    1.1610133    30.985945    30.985945    30.985945    29750.497 
  361000     302.3986    52.097903     -23227.1   -25126.334    1899.2346    1.1610133    30.985945    30.985945    30.985945    29750.497 
  362000    282.02669   -575.75441   -23341.088   -25112.375    1771.2874    1.1610133    30.985945    30.985945    30.985945    29750.497 
  363000    292.76053   -490.45603   -23184.424   -25023.126    1838.7021    1.1610133    30.985945    30.985945    30.985945    29750.497 
  364000    301.20018   -728.18959   -23236.571   -25128.279    1891.7079    1.1610133    30.985945    30.985945    30.985945    29750.497 
  365000    304.70924   -1032.4502   -23110.694    -25024.44    1913.7467    1.1610133    30.985945    30.985945    30.985945    29750.497 
  366000    309.60686   -868.08155   -23063.832   -25008.338    1944.5066    1.1610133    30.985945    30.985945    30.985945    29750.497 
  367000    292.83653    339.92422   -23158.681   -24997.861    1839.1794    1.1610133    30.985945    30.985945    30.985945    29750.497 
  368000    299.64718   -461.63386    -23189.52   -25071.474    1881.9541    1.1610133    30.985945    30.985945    30.985945    29750.497 
  369000     296.8832   -473.91513   -23232.822   -25097.417    1864.5947    1.1610133    30.985945    30.985945    30.985945    29750.497 
  370000    301.29902   -198.63756    -23139.07   -25031.398    1892.3286    1.1610133    30.985945    30.985945    30.985945    29750.497 
  371000     296.3061   -323.04216   -23241.671   -25102.641    1860.9703    1.1610133    30.985945    30.985945    30.985945    29750.497 
  372000    299.31459   -465.04531   -23150.525    -25030.39    1879.8652    1.1610133    30.985945    30.985945    30.985945    29750.497 
  373000    297.33373   -727.95517   -23238.944   -25106.368    1867.4244    1.1610133    30.985945    30.985945    30.985945    29750.497 
  374000    288.31825   -72.937736   -23345.774   -25156.576     1810.802    1.1610133    30.985945    30.985945    30.985945    29750.497 
  375000    307.57906    337.93039   -23158.482   -25090.253    1931.7708    1.1610133    30.985945    30.985945    30.985945    29750.497 
  376000    289.56729    -836.9426   -23222.861   -25041.508    1818.6467    1.1610133    30.985945    30.985945    30.985945    29750.497 
  377000     303.2542   -733.22966   -23162.154   -25066.762    1904.6083    1.1610133    30.985945    30.985945    30.985945    29750.497 
  378000    300.80045   -329.32436   -23264.281   -25153.478    1889.1973    1.1610133    30.985945    30.985945    30.985945    29750.497 
  379000    297.98564   -19.781678   -23249.951    -25121.47    1871.5187    1.1610133    30.985945    30.985945    30.985945    29750.497 
  380000    293.11821   -615.51716   -23220.206   -25061.155    1840.9485    1.1610133    30.985945    30.985945    30.985945    29750.497 
  381000    302.56518    817.60085   -23146.046   -25046.327    1900.2808    1.1610133    30.985945    30.985945    30.985945    29750.497 
  382000    298.47648    388.90111   -23216.993   -25091.595    1874.6015    1.1610133    30.985945    30.985945    30.985945    29750.497 
  383000    288.30961   -545.50305   -23203.108   -25013.855    1810.7477    1.1610133    30.985945    30.985945    30.985945    29750.497 
  384000    302.82485   -696.62559   -23131.316   -25033.228    1901.9117    1.1610133    30.985945    30.985945    30.985945    29750.497 
  385000    293.09777   -554.12759   -23324.428   -25165.248    1840.8201    1.1610133    30.985945    30.985945    30.985945    29750.497 
  386000    293.06552   -4.5769589   -23300.524   -25141.142    1840.6175    1.1610133    30.985945    30.985945    30.985945    29750.497 
  387000    296.38743   -983.97572   -23235.174   -25096.655     1861.481    1.1610133    30.985945    30.985945    30.985945    29750.497 
  388000    309.82631   -691.13453   -23064.525    -25010.41    1945.8848    1.1610133    30.985945    30.985945    30.985945    29750.497 
  389000    295.51525    -566.4478   -23140.499   -24996.503    1856.0033    1.1610133    30.985945    30.985945    30.985945    29750.497 
  390000    298.98215   -226.05101   -23233.232   -25111.009    1877.7773    1.1610133    30.985945    30.985945    30.985945    29750.497 
  391000    292.69593   -469.33403   -23269.065   -25107.362    1838.2963    1.1610133    30.985945    30.985945    30.985945    29750.497 
  392000    307.57503    652.96092   -23127.794    -25059.54    1931.7455    1.1610133    30.985945    30.985945    30.985945    29750.497 
  393000    295.05294   -532.96177   -23288.959   -25142.059    1853.0997    1.1610133    30.985945    30.985945    30.985945    29750.497 
  394000    299.73092    899.77781   -23154.569   -25037.049    1882.4801    1.1610133    30.985945    30.985945    30.985945    29750.497 
  395000    295.94271   -279.57545   -23216.921   -25075.609     1858.688    1.1610133    30.985945    30.985945    30.985945    29750.497 
  396000    306.37377    26.811903   -23118.265   -25042.466    1924.2009    1.1610133    30.985945    30.985945    30.985945    29750.497 
  397000     299.7624   -307.74677   -23202.492    -25085.17    1882.6778    1.1610133    30.985945    30.985945    30.985945    29750.497 
  398000    303.56967    683.99717   -23112.572   -25019.161    1906.5896    1.1610133    30.985945    30.985945    30.985945    29750.497 
  399000    302.66975   -137.96754   -23144.623   -25045.561    1900.9376    1.1610133    30.985945    30.985945    30.985945    29750.497 
  400000    294.39172   -877.95606   -23271.014   -25119.961    1848.9469    1.1610133    30.985945    30.985945    30.985945    29750.497 
  401000    303.91364   -604.82716   -23142.909   -25051.659    1908.7499    1.1610133    30.985945    30.985945    30.985945    29750.497 
  402000    295.08803    117.27866   -23227.449   -25080.769    1853.3201    1.1610133    30.985945    30.985945    30.985945    29750.497 
  403000    298.08975     435.3924    -23145.17   -25017.343    1872.1726    1.1610133    30.985945    30.985945    30.985945    29750.497 
  404000    299.98055    289.84581   -23091.986   -24976.033    1884.0479    1.1610133    30.985945    30.985945    30.985945    29750.497 
  405000    294.80913   -212.89671    -23200.37   -25051.939    1851.5685    1.1610133    30.985945    30.985945    30.985945    29750.497 
  406000    301.85711   -346.39615   -23192.709   -25088.543    1895.8337    1.1610133    30.985945    30.985945    30.985945    29750.497 
  407000    299.90765   -40.669503   -23202.728   -25086.318      1883.59    1.1610133    30.985945    30.985945    30.985945    29750.497 
  408000    294.94584   -391.63023   -23163.971   -25016.398     1852.427    1.1610133    30.985945    30.985945    30.985945    29750.497 
  409000    292.64067   -763.71765   -23269.884   -25107.834    1837.9493    1.1610133    30.985945    30.985945    30.985945    29750.497 
  410000    296.18591    805.96538   -23221.954   -25082.169    1860.2154    1.1610133    30.985945    30.985945    30.985945    29750.497 
  411000    303.42921   -261.59786   -23173.725   -25079.432    1905.7074    1.1610133    30.985945    30.985945    30.985945    29750.497 
  412000    295.43191    772.89661   -23230.843   -25086.323    1855.4799    1.1610133    30.985945    30.985945    30.985945    29750.497 
  413000    296.49093    100.10666   -23248.054   -25110.185    1862.1311    1.1610133    30.985945    30.985945    30.985945    29750.497 
  414000    287.93582    752.51533   -23225.783   -25034.183    1808.4001    1.1610133    30.985945    30.985945    30.985945    29750.497 
  415000    300.34864   -113.11248   -23106.112   -24992.472    1886.3597    1.1610133    30.985945    30.985945    30.985945    29750.497 
  416000    289.05566   -709.57442   -23295.963   -25111.396    1815.4334    1.1610133    30.985945    30.985945    30.985945    29750.497 
  417000    287.71052    241.26994   -23283.178   -25090.163    1806.9852    1.1610133    30.985945    30.985945    30.985945    29750.497 
  418000    300.25092   -557.19072   -23242.753   -25128.499    1885.7459    1.1610133    30.985945    30.985945    30.985945    29750.497 
  419000    297.09946   -303.18314   -23142.397    -25008.35     1865.953    1.1610133    30.985945    30.985945    30.985945    29750.497 
  420000    300.77241    518.82915   -23169.642   -25058.663    1889.0212    1.1610133    30.985945    30.985945    30.985945    29750.497 
  421000    296.92358   -1290.6104   -23297.733   -25162.581    1864.8484    1.1610133    30.985945    30.985945    30.985945    29750.497 
  422000     302.8128   -1393.8961   -23130.672   -25032.508     1901.836    1.1610133    30.985945    30.985945    30.985945    29750.497 
  423000    296.33435   -552.99472   -23205.493    -25066.64    1861.1477    1.1610133    30.985945    30.985945    30.985945    29750.497 
  424000    295.94691   -215.76113   -23267.597   -25126.311    1858.7143    1.1610133    30.985945    30.985945    30.985945    29750.497 
  425000    297.85124    -101.7202   -23181.087   -25051.761    1870.6746    1.1610133    30.985945    30.985945    30.985945    29750.497 
  426000    294.26151   -416.30787   -23299.545   -25147.674    1848.1291    1.1610133    30.985945    30.985945    30.985945    29750.497 
  427000    288.80746    302.22172   -23294.477   -25108.352    1813.8745    1.1610133    30.985945    30.985945    30.985945    29750.497 
  428000    294.25268    371.12441   -23273.175   -25121.248    1848.0736    1.1610133    30.985945    30.985945    30.985945    29750.497 
  429000     299.1939   -884.05032    -23253.09   -25132.197    1879.1073    1.1610133    30.985945    30.985945    30.985945    29750.497 
  430000    295.33827    55.694716   -23259.046   -25113.938    1854.8917    1.1610133    30.985945    30.985945    30.985945    29750.497 
  431000    299.22501   -601.42332   -23263.155   -25142.458    1879.3026    1.1610133    30.985945    30.985945    30.985945    29750.497 
  432000    296.88022   -374.87335   -23227.428   -25092.004    1864.5761    1.1610133    30.985945    30.985945    30.985945    29750.497 
  433000    297.87323   -1448.3434   -23264.714   -25135.527    1870.8127    1.1610133    30.985945    30.985945    30.985945    29750.497 
  434000    304.54372   -594.99903   -23111.571   -25024.279    1912.7072    1.1610133    30.985945    30.985945    30.985945    29750.497 
  435000    302.94397   -625.02034   -23200.486   -25103.146    1902.6598    1.1610133    30.985945    30.985945    30.985945    29750.497 
  436000    306.76354   -857.70607    -23194.94   -25121.589    1926.6489    1.1610133    30.985945    30.985945    30.985945    29750.497 
  437000    297.01524      1014.96   -23220.446    -25085.87    1865.4241    1.1610133    30.985945    30.985945    30.985945    29750.497 
  438000    294.65293    1041.9498    -23295.58   -25146.167    1850.5874    1.1610133    30.985945    30.985945    30.985945    29750.497 
  439000    299.99207   -233.79351    -23298.41    -25182.53    1884.1202    1.1610133    30.985945    30.985945    30.985945    29750.497 
  440000    297.43808   -630.46891   -23167.836   -25035.915    1868.0797    1.1610133    30.985945    30.985945    30.985945    29750.497 
  441000    303.62649    70.344387   -23181.118   -25088.064    1906.9464    1.1610133    30.985945    30.985945    30.985945    29750.497 
  442000    287.45408    226.24114   -23302.934   -25108.308    1805.3746    1.1610133    30.985945    30.985945    30.985945    29750.497 
  443000    295.05557   -687.31858   -23278.282   -25131.398    1853.1162    1.1610133    30.985945    30.985945    30.985945    29750.497 
  444000    291.78552   -639.58254   -23240.487   -25073.065    1832.5784    1.1610133    30.985945    30.985945    30.985945    29750.497 
  445000    298.36435   -228.82384   -23152.833    -25026.73    1873.8972    1.1610133    30.985945    30.985945    30.985945    29750.497 
  446000     302.4908    99.868659   -23203.409   -25103.222    1899.8137    1.1610133    30.985945    30.985945    30.985945    29750.497 
  447000    295.44526   -811.41175   -23159.697   -25015.261    1855.5637    1.1610133    30.985945    30.985945    30.985945    29750.497 
  448000    300.87873    204.18469   -23243.531    -25133.22    1889.6889    1.1610133    30.985945    30.985945    30.985945    29750.497 
  449000    284.46132     -991.326   -23316.672    -25103.25    1786.5783    1.1610133    30.985945    30.985945    30.985945    29750.497 
  450000    299.90088   -291.54566   -23231.205   -25114.752    1883.5475    1.1610133    30.985945    30.985945    30.985945    29750.497 
  451000    309.91123   -723.85838   -23104.052    -25050.47    1946.4182    1.1610133    30.985945    30.985945    30.985945    29750.497 
  452000    293.90798   -1393.1437   -23191.453   -25037.361    1845.9087    1.1610133    30.985945    30.985945    30.985945    29750.497 
  453000    294.84934    -196.3986   -23188.048   -25039.869     1851.821    1.1610133    30.985945    30.985945    30.985945    29750.497 
  454000     304.6843    278.66672   -23160.604   -25074.194    1913.5901    1.1610133    30.985945    30.985945    30.985945    29750.497 
  455000    294.77979   -668.86479   -23236.731   -25088.115    1851.3841    1.1610133    30.985945    30.985945    30.985945    29750.497 
  456000    305.57589    436.38497   -23136.017   -25055.207    1919.1898    1.1610133    30.985945    30.985945    30.985945    29750.497 
  457000    311.18565    268.57308   -23157.891   -25112.314    1954.4222    1.1610133    30.985945    30.985945    30.985945    29750.497 
  458000    292.17967   -584.89074   -23218.773   -25053.827     1835.054    1.1610133    30.985945    30.985945    30.985945    29750.497 
  459000    296.24998   -823.56131   -23252.518   -25113.136    1860.6178    1.1610133    30.985945    30.985945    30.985945    29750.497 
  460000    305.77927    -1221.906   -23116.522   -25036.989    1920.4671    1.1610133    30.985945    30.985945    30.985945    29750.497 
  461000    299.47423    566.05853   -23235.099   -25115.967    1880.8679    1.1610133    30.985945    30.985945    30.985945    29750.497 
  462000    301.81074   -612.82256   -23217.948    -25113.49    1895.5425    1.1610133    30.985945    30.985945    30.985945    29750.497 
  463000    291.78589   -406.08135     -23286.4    -25118.98    1832.5807    1.1610133    30.985945    30.985945    30.985945    29750.497 
  464000    301.82076   -577.63033   -23237.811   -25133.417    1895.6054    1.1610133    30.985945    30.985945    30.985945    29750.497 
  465000    299.44904   -1231.3094   -23301.402   -25182.111    1880.7097    1.1610133    30.985945    30.985945    30.985945    29750.497 
  466000    304.50658    136.87818   -23235.915   -25148.389    1912.4739    1.1610133    30.985945    30.985945    30.985945    29750.497 
  467000    296.19475    859.30709   -23276.472   -25136.743    1860.2709    1.1610133    30.985945    30.985945    30.985945    29750.497 
  468000    294.39813   -643.77454    -23263.78   -25112.767    1848.9871    1.1610133    30.985945    30.985945    30.985945    29750.497 
  469000    297.35822   -1496.7117    -23273.15   -25140.728    1867.5781    1.1610133    30.985945    30.985945    30.985945    29750.497 
  470000     306.5139    471.59199    -23177.52   -25102.601     1925.081    1.1610133    30.985945    30.985945    30.985945    29750.497 
  471000    293.40431    -54.32907   -23289.784    -25132.53    1842.7454    1.1610133    30.985945    30.985945    30.985945    29750.497 
  472000     297.3833   -411.45319   -23284.348   -25152.084    1867.7357    1.1610133    30.985945    30.985945    30.985945    29750.497 
  473000     292.5503    119.29956   -23282.304   -25119.686    1837.3817    1.1610133    30.985945    30.985945    30.985945    29750.497 
  474000    293.45612   -606.89743   -23260.169    -25103.24    1843.0708    1.1610133    30.985945    30.985945    30.985945    29750.497 
  475000    299.91167   -610.21685   -23199.532   -25083.148    1883.6153    1.1610133    30.985945    30.985945    30.985945    29750.497 
  476000    298.45279   -367.70761   -23171.655   -25046.108    1874.4526    1.1610133    30.985945    30.985945    30.985945    29750.497 
  477000    304.54293   -443.89682   -23195.989   -25108.691    1912.7022    1.1610133    30.985945    30.985945    30.985945    29750.497 
  478000    307.38479   -359.29937   -23127.988   -25058.538    1930.5507    1.1610133    30.985945    30.985945    30.985945    29750.497 
  479000    300.60239   -811.50419    -23171.27   -25059.223    1887.9534    1.1610133    30.985945    30.985945    30.985945    29750.497 
  480000    296.21999    398.01221   -23192.263   -25052.693    1860.4294    1.1610133    30.985945    30.985945    30.985945    29750.497 
  481000    302.61314    267.87703   -23186.769   -25087.351    1900.5821    1.1610133    30.985945    30.985945    30.985945    29750.497 
  482000    302.13935    89.956401   -23141.556   -25039.162    1897.6064    1.1610133    30.985945    30.985945    30.985945    29750.497 
  483000    295.32418   -202.12397   -23265.744   -25120.548    1854.8032    1.1610133    30.985945    30.985945    30.985945    29750.497 
  484000    299.55293   -92.104643   -23142.542   -25023.904    1881.3622    1.1610133    30.985945    30.985945    30.985945    29750.497 
  485000    302.45103    126.99552   -23189.663   -25089.227    1899.5639    1.1610133    30.985945    30.985945    30.985945    29750.497 
  486000     290.8724    -185.2551   -23155.673   -24982.517    1826.8435    1.1610133    30.985945    30.985945    30.985945    29750.497 
  487000    297.05265   -379.09497   -23152.964   -25018.623     1865.659    1.1610133    30.985945    30.985945    30.985945    29750.497 
  488000    299.29169    467.31086   -23194.187   -25073.908    1879.7214    1.1610133    30.985945    30.985945    30.985945    29750.497 
  489000    302.80403    -196.6772   -23113.184   -25014.965    1901.7809    1.1610133    30.985945    30.985945    30.985945    29750.497 
  490000    301.93056   -167.95289   -23248.939   -25145.234     1896.295    1.1610133    30.985945    30.985945    30.985945    29750.497 
  491000    305.47647   -848.22061   -23117.638   -25036.203    1918.5653    1.1610133    30.985945    30.985945    30.985945    29750.497 
  492000    294.55756   -45.045952   -23147.141   -24997.129    1849.9884    1.1610133    30.985945    30.985945    30.985945    29750.497 
  493000    296.38133    -620.7535   -23310.316   -25171.759    1861.4427    1.1610133    30.985945    30.985945    30.985945    29750.497 
  494000    296.80931    -96.68689   -23260.803   -25124.934    1864.1307    1.1610133    30.985945    30.985945    30.985945    29750.497 
  495000    310.03605   -976.74796   -23159.743   -25106.945    1947.2021    1.1610133    30.985945    30.985945    30.985945    29750.497 
  496000    291.94217   -1541.0215   -23256.691   -25090.254    1833.5623    1.1610133    30.985945    30.985945    30.985945    29750.497 
  497000    301.31843   -173.90461   -23148.241   -25040.692    1892.4505    1.1610133    30.985945    30.985945    30.985945    29750.497 
  498000    301.80675   -903.69079   -23232.918   -25128.435    1895.5174    1.1610133    30.985945    30.985945    30.985945    29750.497 
  499000    309.71858   -1051.2609   -23183.731   -25128.939    1945.2083    1.1610133    30.985945    30.985945    30.985945    29750.497 
  500000    305.65438   -292.36564   -23100.521   -25020.204    1919.6827    1.1610133    30.985945    30.985945    30.985945    29750.497 
  501000    292.07963   -684.04064   -23123.562   -24957.988    1834.4256    1.1610133    30.985945    30.985945    30.985945    29750.497 
  502000    298.46518    433.25282   -23159.385   -25033.915    1874.5305    1.1610133    30.985945    30.985945    30.985945    29750.497 
  503000    296.31837   -219.01677   -23130.639   -24991.687    1861.0473    1.1610133    30.985945    30.985945    30.985945    29750.497 
  504000    300.48939   -530.43369   -23202.478   -25089.721    1887.2436    1.1610133    30.985945    30.985945    30.985945    29750.497 
  505000    291.49893    60.047689   -23306.119   -25136.897    1830.7785    1.1610133    30.985945    30.985945    30.985945    29750.497 
  506000     299.6073    237.41239   -23274.518   -25156.222    1881.7037    1.1610133    30.985945    30.985945    30.985945    29750.497 
  507000    299.22661    188.62691   -23059.392   -24938.705    1879.3127    1.1610133    30.985945    30.985945    30.985945    29750.497 
  508000    292.12422   -336.05982   -23306.491   -25141.196    1834.7057    1.1610133    30.985945    30.985945    30.985945    29750.497 
  509000    295.41492    170.22071   -23279.507    -25134.88    1855.3731    1.1610133    30.985945    30.985945    30.985945    29750.497 
  510000    296.84755   -1059.7373   -23319.501   -25183.872    1864.3709    1.1610133    30.985945    30.985945    30.985945    29750.497 
  511000    298.09705   -1147.7885   -23244.257   -25116.475    1872.2184    1.1610133    30.985945    30.985945    30.985945    29750.497 
  512000    304.48457   -414.13385   -23153.802   -25066.137    1912.3357    1.1610133    30.985945    30.985945    30.985945    29750.497 
  513000    297.01812   -999.84418   -23263.002   -25128.444    1865.4421    1.1610133    30.985945    30.985945    30.985945    29750.497 
  514000    299.49339    674.99105   -23266.292    -25147.28    1880.9882    1.1610133    30.985945    30.985945    30.985945    29750.497 
  515000    308.02724    -398.5476   -23252.381   -25186.967    1934.5857    1.1610133    30.985945    30.985945    30.985945    29750.497 
  516000    293.67364   -391.92454   -23296.446   -25140.883    1844.4369    1.1610133    30.985945    30.985945    30.985945    29750.497 
  517000     294.4762   -313.66518   -23154.463    -25003.94    1849.4775    1.1610133    30.985945    30.985945    30.985945    29750.497 
  518000    300.89303    100.13205   -23186.581    -25076.36    1889.7787    1.1610133    30.985945    30.985945    30.985945    29750.497 
  519000    293.87887   -252.08778   -23274.958   -25120.684    1845.7259    1.1610133    30.985945    30.985945    30.985945    29750.497 
  520000    292.19185   -639.34935   -23273.504   -25108.634    1835.1304    1.1610133    30.985945    30.985945    30.985945    29750.497 
  521000    291.96992   -274.45678    -23188.96   -25022.696    1833.7366    1.1610133    30.985945    30.985945    30.985945    29750.497 
  522000    303.92021   -507.42081   -23250.493   -25159.284    1908.7912    1.1610133    30.985945    30.985945    30.985945    29750.497 
  523000    300.91072    -748.4301   -23161.691    -25051.58    1889.8899    1.1610133    30.985945    30.985945    30.985945    29750.497 
  524000    296.60358    -215.9709   -23174.674   -25037.512    1862.8386    1.1610133    30.985945    30.985945    30.985945    29750.497 
  525000    303.52362   -1247.3848   -23155.606   -25061.906    1906.3004    1.1610133    30.985945    30.985945    30.985945    29750.497 
  526000    300.16534   -320.25221   -23165.023   -25050.232    1885.2084    1.1610133    30.985945    30.985945    30.985945    29750.497 
  527000     301.2272   -971.66504   -23257.351   -25149.229    1891.8775    1.1610133    30.985945    30.985945    30.985945    29750.497 
  528000    291.39774   -710.60551   -23275.344   -25105.487     1830.143    1.1610133    30.985945    30.985945    30.985945    29750.497 
  529000    293.23134    381.97109   -23294.101    -25135.76     1841.659    1.1610133    30.985945    30.985945    30.985945    29750.497 
  530000    289.79411   -847.76433   -23268.734   -25088.805    1820.0712    1.1610133    30.985945    30.985945    30.985945    29750.497 
  531000    302.62273    223.67653   -23198.125   -25098.767    1900.6423    1.1610133    30.985945    30.985945    30.985945    29750.497 
  532000    296.97028   -1454.6421   -23169.901   -25035.042    1865.1417    1.1610133    30.985945    30.985945    30.985945    29750.497 
  533000    304.57047    -772.7154   -23076.849   -24989.724    1912.8752    1.1610133    30.985945    30.985945    30.985945    29750.497 
  534000    298.68996    -457.3354   -23215.722   -25091.664    1875.9422    1.1610133    30.985945    30.985945    30.985945    29750.497 
  535000    296.42383   -972.70822   -23239.177   -25100.886    1861.7096    1.1610133    30.985945    30.985945    30.985945    29750.497 
  536000    304.56211   -678.85206   -23193.382   -25106.205    1912.8227    1.1610133    30.985945    30.985945    30.985945    29750.497 
  537000    302.63341   -437.17057   -23217.801   -25118.511    1900.7093    1.1610133    30.985945    30.985945    30.985945    29750.497 
  538000    296.45309   -499.55487   -23214.226    -25076.12    1861.8934    1.1610133    30.985945    30.985945    30.985945    29750.497 
  539000    299.73354    -1002.434   -23186.328   -25068.824    1882.4965    1.1610133    30.985945    30.985945    30.985945    29750.497 
  540000    296.29492    -189.0217   -23273.837   -25134.737       1860.9    1.1610133    30.985945    30.985945    30.985945    29750.497 
  541000    304.31216   -140.14729    -23167.71   -25078.963    1911.2528    1.1610133    30.985945    30.985945    30.985945    29750.497 
  542000    292.84796    657.77839   -23343.127   -25182.378    1839.2511    1.1610133    30.985945    30.985945    30.985945    29750.497 
  543000    297.23084    71.447998   -23243.411   -25110.189    1866.7781    1.1610133    30.985945    30.985945    30.985945    29750.497 
  544000    296.17153    142.48603   -23193.986   -25054.112    1860.1251    1.1610133    30.985945    30.985945    30.985945    29750.497 
  545000    305.66759    863.52087   -23163.092   -25082.858    1919.7657    1.1610133    30.985945    30.985945    30.985945    29750.497 
  546000    303.81847   -314.08984   -23245.234   -25153.386    1908.1522    1.1610133    30.985945    30.985945    30.985945    29750.497 
  547000    297.12451    292.09856   -23217.697   -25083.807    1866.1103    1.1610133    30.985945    30.985945    30.985945    29750.497 
  548000    296.39565   -158.83557   -23261.331   -25122.863    1861.5327    1.1610133    30.985945    30.985945    30.985945    29750.497 
  549000    298.49397    111.25684   -23204.283   -25078.995    1874.7113    1.1610133    30.985945    30.985945    30.985945    29750.497 
  550000    297.50621    353.34297   -23172.912    -25041.42    1868.5076    1.1610133    30.985945    30.985945    30.985945    29750.497 
  551000    292.85039    340.38068   -23317.847   -25157.114    1839.2665    1.1610133    30.985945    30.985945    30.985945    29750.497 
  552000    299.13488    -785.6026   -23130.443    -25009.18    1878.7366    1.1610133    30.985945    30.985945    30.985945    29750.497 
  553000    294.73246   -358.20918   -23248.505   -25099.591    1851.0869    1.1610133    30.985945    30.985945    30.985945    29750.497 
  554000    293.64415    560.58603   -23191.777   -25036.028    1844.2517    1.1610133    30.985945    30.985945    30.985945    29750.497 
  555000    298.65961   -450.00015   -23118.785   -24994.536    1875.7516    1.1610133    30.985945    30.985945    30.985945    29750.497 
  556000    292.44498    43.907536   -23329.533   -25166.253    1836.7202    1.1610133    30.985945    30.985945    30.985945    29750.497 
  557000    297.73283    203.92981   -23246.939    -25116.87    1869.9309    1.1610133    30.985945    30.985945    30.985945    29750.497 
  558000    302.10982    372.24578   -23285.432   -25182.853    1897.4209    1.1610133    30.985945    30.985945    30.985945    29750.497 
  559000    309.96523   -949.10177    -23105.97   -25052.728    1946.7573    1.1610133    30.985945    30.985945    30.985945    29750.497 
  560000    294.23497   -3.5552546   -23274.665   -25122.627    1847.9624    1.1610133    30.985945    30.985945    30.985945    29750.497 
  561000     296.2134    296.22984   -23219.427   -25079.815     1860.388    1.1610133    30.985945    30.985945    30.985945    29750.497 
  562000    299.81696   -225.42565   -23206.583   -25089.603    1883.0204    1.1610133    30.985945    30.985945    30.985945    29750.497 
  563000    302.65489   -295.32107   -23167.746   -25068.591    1900.8443    1.1610133    30.985945    30.985945    30.985945    29750.497 
  564000    302.38041   -236.27212    -23250.76    -25149.88    1899.1203    1.1610133    30.985945    30.985945    30.985945    29750.497 
  565000    299.00229   -451.48769   -23094.765   -24972.669    1877.9039    1.1610133    30.985945    30.985945    30.985945    29750.497 
  566000    294.80427   -100.14938   -23215.476   -25067.014    1851.5379    1.1610133    30.985945    30.985945    30.985945    29750.497 
  567000    301.34369   -320.34178   -23131.442   -25024.052    1892.6092    1.1610133    30.985945    30.985945    30.985945    29750.497 
  568000      303.755   -106.00193   -23241.904   -25149.658    1907.7535    1.1610133    30.985945    30.985945    30.985945    29750.497 
  569000    296.37537   -909.79425   -23284.393   -25145.798    1861.4053    1.1610133    30.985945    30.985945    30.985945    29750.497 
  570000    296.18159   -476.67996   -23166.937   -25027.125    1860.1882    1.1610133    30.985945    30.985945    30.985945    29750.497 
  571000    298.53967    434.14483   -23201.424   -25076.422    1874.9983    1.1610133    30.985945    30.985945    30.985945    29750.497 
  572000    300.54741   -224.27709   -23187.244   -25074.853    1887.6081    1.1610133    30.985945    30.985945    30.985945    29750.497 
  573000    305.44316   -62.989275   -23215.894    -25134.25    1918.3562    1.1610133    30.985945    30.985945    30.985945    29750.497 
  574000    302.73803    893.30154    -23165.81   -25067.176    1901.3664    1.1610133    30.985945    30.985945    30.985945    29750.497 
  575000    296.21497   -1141.5295   -23177.055   -25037.453    1860.3979    1.1610133    30.985945    30.985945    30.985945    29750.497 
  576000    295.88349     -444.893   -23191.045   -25049.361     1858.316    1.1610133    30.985945    30.985945    30.985945    29750.497 
  577000    295.20166   -961.31886   -23216.832   -25070.866    1854.0337    1.1610133    30.985945    30.985945    30.985945    29750.497 
  578000    296.78773   -1193.0462   -23291.069   -25155.064    1863.9951    1.1610133    30.985945    30.985945    30.985945    29750.497 
  579000    288.06294    439.88051   -23199.059   -25008.257    1809.1985    1.1610133    30.985945    30.985945    30.985945    29750.497 
  580000    296.93363   -540.21619    -23174.88   -25039.791    1864.9115    1.1610133    30.985945    30.985945    30.985945    29750.497 
  581000    298.61433   -92.088015   -23225.329   -25100.796    1875.4672    1.1610133    30.985945    30.985945    30.985945    29750.497 
  582000     298.8582   -327.11797   -23223.822   -25100.821    1876.9989    1.1610133    30.985945    30.985945    30.985945    29750.497 
  583000    291.45081    192.20057   -23219.611   -25050.087    1830.4763    1.1610133    30.985945    30.985945    30.985945    29750.497 
  584000    302.73215     -442.675   -23211.912   -25113.241    1901.3295    1.1610133    30.985945    30.985945    30.985945    29750.497 
  585000    299.29257   -994.83006   -23223.088   -25102.815     1879.727    1.1610133    30.985945    30.985945    30.985945    29750.497 
  586000    300.38391   -189.32916   -23295.971   -25182.552    1886.5812    1.1610133    30.985945    30.985945    30.985945    29750.497 
  587000    300.17853   -68.052272     -23218.2   -25103.492    1885.2913    1.1610133    30.985945    30.985945    30.985945    29750.497 
  588000     297.1083    60.373874    -23259.46   -25125.468    1866.0085    1.1610133    30.985945    30.985945    30.985945    29750.497 
  589000    300.44389   -181.06063   -23168.647   -25055.605    1886.9579    1.1610133    30.985945    30.985945    30.985945    29750.497 
  590000    294.59901    387.29317   -23192.331    -25042.58    1850.2488    1.1610133    30.985945    30.985945    30.985945    29750.497 
  591000    296.29687   -1067.7893   -23281.622   -25142.535    1860.9123    1.1610133    30.985945    30.985945    30.985945    29750.497 
  592000     299.0083   -488.03432   -23219.187   -25097.129    1877.9416    1.1610133    30.985945    30.985945    30.985945    29750.497 
  593000    300.71107    -300.6479   -23200.556   -25089.192     1888.636    1.1610133    30.985945    30.985945    30.985945    29750.497 
  594000    293.44036   -1192.6082   -23247.186   -25090.158    1842.9718    1.1610133    30.985945    30.985945    30.985945    29750.497 
  595000    299.37575     122.9431   -23202.314   -25082.563    1880.2494    1.1610133    30.985945    30.985945    30.985945    29750.497 
  596000    293.07081   -770.89665   -23268.556   -25109.207    1840.6508    1.1610133    30.985945    30.985945    30.985945    29750.497 
  597000    301.49181   -558.23028   -23184.291   -25077.831    1893.5394    1.1610133    30.985945    30.985945    30.985945    29750.497 
  598000    302.59802   -1223.0976   -23218.763   -25119.251    1900.4871    1.1610133    30.985945    30.985945    30.985945    29750.497 
  599000    300.08528   -267.62183   -23272.588   -25157.294    1884.7056    1.1610133    30.985945    30.985945    30.985945    29750.497 
  600000    302.08118    87.072188   -23159.071   -25056.312     1897.241    1.1610133    30.985945    30.985945    30.985945    29750.497 
  601000    302.98478   -460.73668   -23202.951   -25105.867    1902.9161    1.1610133    30.985945    30.985945    30.985945    29750.497 
  602000    290.86405   -914.05319   -23270.328   -25097.119    1826.7911    1.1610133    30.985945    30.985945    30.985945    29750.497 
  603000    297.29563   -669.04512   -23145.177   -25012.362     1867.185    1.1610133    30.985945    30.985945    30.985945    29750.497 
  604000    296.50422   -655.49128   -23182.275    -25044.49    1862.2145    1.1610133    30.985945    30.985945    30.985945    29750.497 
  605000    301.48393   -507.90891   -23187.329   -25080.819      1893.49    1.1610133    30.985945    30.985945    30.985945    29750.497 
  606000     302.2122   -324.07966   -23280.743   -25178.807    1898.0639    1.1610133    30.985945    30.985945    30.985945    29750.497 
  607000     294.8626    527.07489   -23190.778   -25042.682    1851.9042    1.1610133    30.985945    30.985945    30.985945    29750.497 
  608000    307.07022    44.401107   -23115.574   -25044.149     1928.575    1.1610133    30.985945    30.985945    30.985945    29750.497 
  609000    288.81011    114.55247   -23278.564   -25092.455    1813.8912    1.1610133    30.985945    30.985945    30.985945    29750.497 
  610000    290.92468   -146.84242   -23262.663   -25089.835    1827.1719    1.1610133    30.985945    30.985945    30.985945    29750.497 
  611000    299.79192    313.53013    -23164.57   -25047.434    1882.8632    1.1610133    30.985945    30.985945    30.985945    29750.497 
  612000    291.99636   -552.48555   -23276.538   -25110.441    1833.9026    1.1610133    30.985945    30.985945    30.985945    29750.497 
  613000    296.23651   -1235.6931    -23210.73   -25071.263    1860.5332    1.1610133    30.985945    30.985945    30.985945    29750.497 
  614000    304.17769   -218.64783   -23287.403   -25197.812    1910.4083    1.1610133    30.985945    30.985945    30.985945    29750.497 
  615000    294.50502   -727.47715   -23219.328   -25068.986    1849.6584    1.1610133    30.985945    30.985945    30.985945    29750.497 
  616000    292.39501   -491.80729   -23374.139   -25210.545    1836.4064    1.1610133    30.985945    30.985945    30.985945    29750.497 
  617000    292.91541    -136.3086   -23236.666   -25076.341    1839.6748    1.1610133    30.985945    30.985945    30.985945    29750.497 
  618000    295.15199   -1185.0356   -23214.546   -25068.268    1853.7218    1.1610133    30.985945    30.985945    30.985945    29750.497 
  619000    289.28476    -856.7984   -23351.595   -25168.467    1816.8722    1.1610133    30.985945    30.985945    30.985945    29750.497 
  620000    299.11949   -538.33847   -23203.666   -25082.306    1878.6399    1.1610133    30.985945    30.985945    30.985945    29750.497 
  621000    305.35736   -107.58943   -23124.477   -25042.294    1917.8173    1.1610133    30.985945    30.985945    30.985945    29750.497 
  622000    293.51266   -826.78814   -23269.115   -25112.541    1843.4258    1.1610133    30.985945    30.985945    30.985945    29750.497 
  623000    298.95754   -654.31463    -23173.04   -25050.662    1877.6228    1.1610133    30.985945    30.985945    30.985945    29750.497 
  624000    297.68272    162.28133   -23260.476   -25130.093    1869.6162    1.1610133    30.985945    30.985945    30.985945    29750.497 
  625000     302.3582    200.00421    -23136.86   -25035.841    1898.9808    1.1610133    30.985945    30.985945    30.985945    29750.497 
  626000    298.75244   -669.81396   -23163.318   -25039.653    1876.3347    1.1610133    30.985945    30.985945    30.985945    29750.497 
  627000    302.07187    304.18268   -23065.338   -24962.521    1897.1826    1.1610133    30.985945    30.985945    30.985945    29750.497 
  628000    296.71639    -1098.863   -23217.247   -25080.794    1863.5471    1.1610133    30.985945    30.985945    30.985945    29750.497 
  629000    297.39156   -569.76419   -23228.347   -25096.134    1867.7876    1.1610133    30.985945    30.985945    30.985945    29750.497 
  630000    296.88679   -904.10316   -23154.479   -25019.096    1864.6173    1.1610133    30.985945    30.985945    30.985945    29750.497 
  631000    301.15606   -1531.3719   -23280.221   -25171.652    1891.4308    1.1610133    30.985945    30.985945    30.985945    29750.497 
  632000    303.51997   -2181.3398   -23083.899   -24990.177    1906.2774    1.1610133    30.985945    30.985945    30.985945    29750.497 
  633000     296.8556   -447.45698   -23287.877   -25152.298    1864.4214    1.1610133    30.985945    30.985945    30.985945    29750.497 
  634000    292.29427   -976.06065    -23160.24   -24996.014    1835.7737    1.1610133    30.985945    30.985945    30.985945    29750.497 
  635000    305.16577   -766.28306    -23246.76   -25163.374     1916.614    1.1610133    30.985945    30.985945    30.985945    29750.497 
  636000    298.84015    271.04919   -23218.866   -25095.751    1876.8855    1.1610133    30.985945    30.985945    30.985945    29750.497 
  637000    295.52006   -415.26465   -23263.033   -25119.067    1856.0335    1.1610133    30.985945    30.985945    30.985945    29750.497 
  638000    298.10857    124.42009   -23208.369    -25080.66    1872.2908    1.1610133    30.985945    30.985945    30.985945    29750.497 
  639000    293.60258    130.04078   -23203.426   -25047.416    1843.9906    1.1610133    30.985945    30.985945    30.985945    29750.497 
  640000    294.65223   -613.39303   -23210.741   -25061.324     1850.583    1.1610133    30.985945    30.985945    30.985945    29750.497 
  641000    302.38682   -47.510631   -23180.914   -25080.074    1899.1606    1.1610133    30.985945    30.985945    30.985945    29750.497 
  642000    301.13485   -1391.5671   -23160.808   -25052.105    1891.2976    1.1610133    30.985945    30.985945    30.985945    29750.497 
  643000    304.52774   -905.38069   -23093.801   -25006.408    1912.6068    1.1610133    30.985945    30.985945    30.985945    29750.497 
  644000    297.73128   -656.62782    -23209.02   -25078.941    1869.9212    1.1610133    30.985945    30.985945    30.985945    29750.497 
  645000    291.33556    580.30806   -23241.654   -25071.407    1829.7524    1.1610133    30.985945    30.985945    30.985945    29750.497 
  646000    298.72489   -95.194062   -23188.827   -25064.988    1876.1616    1.1610133    30.985945    30.985945    30.985945    29750.497 
  647000    295.97716   -285.88764   -23180.884   -25039.788    1858.9043    1.1610133    30.985945    30.985945    30.985945    29750.497 
  648000    296.36966   -500.84484    -23145.59   -25006.959    1861.3694    1.1610133    30.985945    30.985945    30.985945    29750.497 
  649000    299.98703    788.15814   -23237.103   -25121.192    1884.0886    1.1610133    30.985945    30.985945    30.985945    29750.497 
  650000    294.16495   -1134.8087   -23271.619   -25119.142    1847.5226    1.1610133    30.985945    30.985945    30.985945    29750.497 
  651000    296.60672    63.351267   -23167.041   -25029.899    1862.8583    1.1610133    30.985945    30.985945    30.985945    29750.497 
  652000    293.97053   -817.19864   -23075.397   -24921.699    1846.3015    1.1610133    30.985945    30.985945    30.985945    29750.497 
  653000    301.55595    205.57581   -23196.887   -25090.829    1893.9423    1.1610133    30.985945    30.985945    30.985945    29750.497 
  654000    299.90804   -12.991487   -23132.091   -25015.683    1883.5925    1.1610133    30.985945    30.985945    30.985945    29750.497 
  655000    305.61296    316.68773   -23207.684   -25127.107    1919.4226    1.1610133    30.985945    30.985945    30.985945    29750.497 
  656000    302.36176   -773.70569   -23167.564   -25066.568    1899.0032    1.1610133    30.985945    30.985945    30.985945    29750.497 
  657000    297.81912    342.39519   -23287.138   -25157.611    1870.4729    1.1610133    30.985945    30.985945    30.985945    29750.497 
  658000    297.93325   -660.13928    -23221.45    -25092.64    1871.1897    1.1610133    30.985945    30.985945    30.985945    29750.497 
  659000    300.73539   -503.37543   -23223.835   -25112.624    1888.7887    1.1610133    30.985945    30.985945    30.985945    29750.497 
  660000    295.50044   -727.48684   -23262.161   -25118.072    1855.9103    1.1610133    30.985945    30.985945    30.985945    29750.497 
  661000    298.33944    1107.3239   -23151.593   -25025.334    1873.7408    1.1610133    30.985945    30.985945    30.985945    29750.497 
  662000    293.78833   -628.89603   -23312.079   -25157.237    1845.1573    1.1610133    30.985945    30.985945    30.985945    29750.497 
  663000    298.02983    64.268153   -23224.383   -25096.179    1871.7962    1.1610133    30.985945    30.985945    30.985945    29750.497 
  664000    303.96275   -1485.8017   -23154.009   -25063.067    1909.0583    1.1610133    30.985945    30.985945    30.985945    29750.497 
  665000    300.77086   -704.45711    -23222.35   -25111.362    1889.0115    1.1610133    30.985945    30.985945    30.985945    29750.497 
  666000    300.17188   -66.534974   -23162.647   -25047.896    1885.2495    1.1610133    30.985945    30.985945    30.985945    29750.497 
  667000    308.91052   -526.72429   -23118.272   -25058.405    1940.1332    1.1610133    30.985945    30.985945    30.985945    29750.497 
  668000    292.77126    174.36629   -23258.817   -25097.586    1838.7694    1.1610133    30.985945    30.985945    30.985945    29750.497 
  669000    297.27484    23.594865   -23186.052   -25053.106    1867.0545    1.1610133    30.985945    30.985945    30.985945    29750.497 
  670000    293.53721     93.58652   -23230.003   -25073.583    1843.5801    1.1610133    30.985945    30.985945    30.985945    29750.497 
  671000    297.91378    -484.5179    -23230.07   -25101.138    1871.0674    1.1610133    30.985945    30.985945    30.985945    29750.497 
  672000    288.54287    285.14182   -23228.945   -25041.158    1812.2127    1.1610133    30.985945    30.985945    30.985945    29750.497 
  673000    300.90121   -831.62723   -23187.147   -25076.977    1889.8301    1.1610133    30.985945    30.985945    30.985945    29750.497 
  674000    294.23737    121.41116   -23320.556   -25168.533    1847.9774    1.1610133    30.985945    30.985945    30.985945    29750.497 
  675000    296.16419   -336.55542   -23221.361    -25081.44     1860.079    1.1610133    30.985945    30.985945    30.985945    29750.497 
  676000    295.05421    45.918789    -23257.88   -25110.987    1853.1077    1.1610133    30.985945    30.985945    30.985945    29750.497 
  677000    303.44224    480.94475   -23178.749   -25084.538    1905.7893    1.1610133    30.985945    30.985945    30.985945    29750.497 
  678000    293.52744   -448.63003   -23335.849   -25179.367    1843.5187    1.1610133    30.985945    30.985945    30.985945    29750.497 
  679000     299.2766    -1095.018   -23217.767   -25097.394    1879.6267    1.1610133    30.985945    30.985945    30.985945    29750.497 
  680000    294.71749    -823.6674   -23284.551   -25135.543    1850.9929    1.1610133    30.985945    30.985945    30.985945    29750.497 
  681000    296.71099    184.95615   -23216.926    -25080.44    1863.5132    1.1610133    30.985945    30.985945    30.985945    29750.497 
  682000    285.53081   -287.27292    -23237.45   -25030.745    1793.2953    1.1610133    30.985945    30.985945    30.985945    29750.497 
  683000    293.86714   -704.48817   -23211.754   -25057.406    1845.6522    1.1610133    30.985945    30.985945    30.985945    29750.497 
  684000    305.18898   -301.64417   -23158.449   -25075.209    1916.7598    1.1610133    30.985945    30.985945    30.985945    29750.497 
  685000    296.62138   -1019.4807   -23243.208   -25106.158    1862.9504    1.1610133    30.985945    30.985945    30.985945    29750.497 
  686000    289.15595    113.88217   -23282.521   -25098.584    1816.0633    1.1610133    30.985945    30.985945    30.985945    29750.497 
  687000    291.79419   -700.17128   -23206.343   -25038.976    1832.6329    1.1610133    30.985945    30.985945    30.985945    29750.497 
  688000    294.71378    331.62299   -23114.046   -24965.015    1850.9696    1.1610133    30.985945    30.985945    30.985945    29750.497 
  689000    306.50499   -94.772793   -23185.247   -25110.272     1925.025    1.1610133    30.985945    30.985945    30.985945    29750.497 
  690000    298.66099    840.92585   -23207.521   -25083.281    1875.7603    1.1610133    30.985945    30.985945    30.985945    29750.497 
  691000    298.05865   -28.195877   -23326.618   -25198.596    1871.9772    1.1610133    30.985945    30.985945    30.985945    29750.497 
  692000    305.84416    66.556192   -23228.911   -25149.785    1920.8747    1.1610133    30.985945    30.985945    30.985945    29750.497 
  693000    292.70761   -753.26938   -23330.477   -25168.847    1838.3697    1.1610133    30.985945    30.985945    30.985945    29750.497 
  694000    298.67834    -905.5392   -23198.508   -25074.378    1875.8693    1.1610133    30.985945    30.985945    30.985945    29750.497 
  695000    297.59887    50.085682   -23289.105   -25158.194    1869.0896    1.1610133    30.985945    30.985945    30.985945    29750.497 
  696000    294.80218   -632.12637   -23204.504   -25056.029    1851.5248    1.1610133    30.985945    30.985945    30.985945    29750.497 
  697000    285.62829   -619.61204   -23313.891   -25107.799    1793.9076    1.1610133    30.985945    30.985945    30.985945    29750.497 
  698000    298.85693    183.68123   -23301.852   -25178.843    1876.9909    1.1610133    30.985945    30.985945    30.985945    29750.497 
  699000    296.45726   -177.92618   -23144.135   -25006.054    1861.9196    1.1610133    30.985945    30.985945    30.985945    29750.497 
  700000    305.11249   -711.83829   -23120.473   -25036.752    1916.2794    1.1610133    30.985945    30.985945    30.985945    29750.497 
  701000    309.07302    602.96615   -23147.488   -25088.642    1941.1537    1.1610133    30.985945    30.985945    30.985945    29750.497 
  702000    303.58513   -408.80189   -23157.242   -25063.928    1906.6867    1.1610133    30.985945    30.985945    30.985945    29750.497 
  703000    305.33401   -549.23965   -23183.241   -25100.911    1917.6706    1.1610133    30.985945    30.985945    30.985945    29750.497 
  704000    295.41667      -1053.1   -23192.318   -25047.703    1855.3841    1.1610133    30.985945    30.985945    30.985945    29750.497 
  705000    299.82486   -173.08796   -23319.999   -25203.069    1883.0701    1.1610133    30.985945    30.985945    30.985945    29750.497 
  706000    297.61234   -571.69653   -23212.018   -25081.192    1869.1742    1.1610133    30.985945    30.985945    30.985945    29750.497 
  707000    299.96744   -361.44403    -23234.38   -25118.345    1883.9655    1.1610133    30.985945    30.985945    30.985945    29750.497 
  708000     303.2313   -155.66513   -23197.107   -25101.571    1904.4644    1.1610133    30.985945    30.985945    30.985945    29750.497 
  709000    298.15713    488.89276   -23198.577   -25071.173    1872.5958    1.1610133    30.985945    30.985945    30.985945    29750.497 
  710000    299.39824    -653.3054   -23279.112   -25159.503    1880.3907    1.1610133    30.985945    30.985945    30.985945    29750.497 
  711000    306.66999     599.1669   -23241.651   -25167.712    1926.0613    1.1610133    30.985945    30.985945    30.985945    29750.497 
  712000    300.96851    120.98975   -23256.569   -25146.822    1890.2528    1.1610133    30.985945    30.985945    30.985945    29750.497 
  713000    295.58014   -545.90513   -23287.547   -25143.958    1856.4108    1.1610133    30.985945    30.985945    30.985945    29750.497 
  714000    302.79735    1152.3154   -23188.917   -25090.656     1901.739    1.1610133    30.985945    30.985945    30.985945    29750.497 
  715000    300.73903   -112.52807   -23204.481   -25093.293    1888.8116    1.1610133    30.985945    30.985945    30.985945    29750.497 
  716000    293.12181    413.11887   -23341.489    -25182.46    1840.9711    1.1610133    30.985945    30.985945    30.985945    29750.497 
  717000    298.86283    585.30578   -23226.465   -25103.493     1877.028    1.1610133    30.985945    30.985945    30.985945    29750.497 
  718000    292.22749   -332.20277   -23318.267   -25153.621    1835.3543    1.1610133    30.985945    30.985945    30.985945    29750.497 
  719000    298.36133   -187.21998   -23243.971   -25117.849    1873.8783    1.1610133    30.985945    30.985945    30.985945    29750.497 
  720000    287.05554   -86.577771   -23386.035   -25188.906    1802.8715    1.1610133    30.985945    30.985945    30.985945    29750.497 
  721000    307.80652    282.90534   -23248.397   -25181.596    1933.1994    1.1610133    30.985945    30.985945    30.985945    29750.497 
  722000    298.16396    1032.6642   -23227.947   -25100.586    1872.6386    1.1610133    30.985945    30.985945    30.985945    29750.497 
  723000    302.80491   -26.370979   -23166.925   -25068.712    1901.7864    1.1610133    30.985945    30.985945    30.985945    29750.497 
  724000    298.63491    164.88089   -23184.405   -25060.002    1875.5965    1.1610133    30.985945    30.985945    30.985945    29750.497 
  725000    294.20726   -389.64609   -23287.623   -25135.411    1847.7883    1.1610133    30.985945    30.985945    30.985945    29750.497 
  726000    296.81849    358.91884   -23246.159   -25110.347    1864.1883    1.1610133    30.985945    30.985945    30.985945    29750.497 
  727000    299.63024    48.424858   -23180.077   -25061.925    1881.8477    1.1610133    30.985945    30.985945    30.985945    29750.497 
  728000    305.91834   -197.32069   -23193.817   -25115.158    1921.3406    1.1610133    30.985945    30.985945    30.985945    29750.497 
  729000    293.26267    201.18393   -23307.847   -25149.702    1841.8558    1.1610133    30.985945    30.985945    30.985945    29750.497 
  730000    300.56966    265.94852   -23161.821   -25049.569    1887.7478    1.1610133    30.985945    30.985945    30.985945    29750.497 
  731000    300.61374    288.06281   -23142.716   -25030.741    1888.0246    1.1610133    30.985945    30.985945    30.985945    29750.497 
  732000    302.96437   -311.92096   -23199.742    -25102.53     1902.788    1.1610133    30.985945    30.985945    30.985945    29750.497 
  733000    304.77677    372.81032   -23173.272   -25087.443    1914.1708    1.1610133    30.985945    30.985945    30.985945    29750.497 
  734000    290.45763    216.48874   -23238.912   -25063.151    1824.2386    1.1610133    30.985945    30.985945    30.985945    29750.497 
  735000    301.45745    234.30398    -23134.97   -25028.293    1893.3236    1.1610133    30.985945    30.985945    30.985945    29750.497 
  736000    295.84028   -832.24613   -23179.112   -25037.157    1858.0446    1.1610133    30.985945    30.985945    30.985945    29750.497 
  737000    291.54217   -1318.8984   -23300.674   -25131.724    1831.0501    1.1610133    30.985945    30.985945    30.985945    29750.497 
  738000     303.2512    103.45605   -23123.942   -25028.532    1904.5894    1.1610133    30.985945    30.985945    30.985945    29750.497 
  739000    298.89811    -778.0606   -23167.102   -25044.352    1877.2496    1.1610133    30.985945    30.985945    30.985945    29750.497 
  740000      291.851    -283.8869   -23250.063   -25083.053    1832.9897    1.1610133    30.985945    30.985945    30.985945    29750.497 
  741000    298.29471   -478.37641     -23177.7    -25051.16    1873.4598    1.1610133    30.985945    30.985945    30.985945    29750.497 
  742000    294.08117    -317.9179   -23245.423    -25092.42    1846.9964    1.1610133    30.985945    30.985945    30.985945    29750.497 
  743000    300.74331   -423.39918   -23235.348   -25124.187    1888.8384    1.1610133    30.985945    30.985945    30.985945    29750.497 
  744000    301.81418   -345.38011   -23257.465   -25153.029    1895.5641    1.1610133    30.985945    30.985945    30.985945    29750.497 
  745000    291.34134   -209.90983   -23274.395   -25104.183    1829.7887    1.1610133    30.985945    30.985945    30.985945    29750.497 
  746000    301.75535    65.208861   -23199.768   -25094.963    1895.1946    1.1610133    30.985945    30.985945    30.985945    29750.497 
  747000    311.69963   -269.75837   -23124.395   -25082.045    1957.6504    1.1610133    30.985945    30.985945    30.985945    29750.497 
  748000    296.42342   -298.69488   -23308.239   -25169.946    1861.7071    1.1610133    30.985945    30.985945    30.985945    29750.497 
  749000    307.11573      290.534   -23171.505   -25100.366    1928.8609    1.1610133    30.985945    30.985945    30.985945    29750.497 
  750000    285.74694   -648.97075   -23215.086   -25009.739    1794.6527    1.1610133    30.985945    30.985945    30.985945    29750.497 
  751000    305.75369   -368.93958   -23143.546   -25063.852    1920.3064    1.1610133    30.985945    30.985945    30.985945    29750.497 
  752000    299.86633   -610.25283   -23231.258   -25114.588    1883.3305    1.1610133    30.985945    30.985945    30.985945    29750.497 
  753000    298.06931    486.46056   -23327.332   -25199.377    1872.0442    1.1610133    30.985945    30.985945    30.985945    29750.497 
  754000    298.46216    457.49718   -23285.206   -25159.718    1874.5115    1.1610133    30.985945    30.985945    30.985945    29750.497 
  755000     291.1986   -739.38968   -23293.376   -25122.268    1828.8922    1.1610133    30.985945    30.985945    30.985945    29750.497 
  756000     289.0692   -189.49025   -23393.276   -25208.794    1815.5184    1.1610133    30.985945    30.985945    30.985945    29750.497 
  757000     299.5831   -478.29061   -23267.398    -25148.95    1881.5517    1.1610133    30.985945    30.985945    30.985945    29750.497 
  758000    298.71562   -864.97432   -23203.669   -25079.773    1876.1034    1.1610133    30.985945    30.985945    30.985945    29750.497 
  759000    293.99833    181.84457    -23251.24   -25097.716    1846.4761    1.1610133    30.985945    30.985945    30.985945    29750.497 
  760000    297.59061    115.40344   -23179.306   -25048.344    1869.0377    1.1610133    30.985945    30.985945    30.985945    29750.497 
  761000    310.14739    -51.10515   -23058.054   -25005.956    1947.9014    1.1610133    30.985945    30.985945    30.985945    29750.497 
  762000    299.80442    55.867352   -23213.197   -25096.139    1882.9417    1.1610133    30.985945    30.985945    30.985945    29750.497 
  763000    303.55655   -181.36806    -23178.08   -25084.587    1906.5072    1.1610133    30.985945    30.985945    30.985945    29750.497 
  764000    291.77842   -25.280841   -23336.606   -25169.139    1832.5339    1.1610133    30.985945    30.985945    30.985945    29750.497 
  765000    296.50895   -349.24743     -23190.3   -25052.545    1862.2443    1.1610133    30.985945    30.985945    30.985945    29750.497 
  766000    295.48193   -87.683642   -23233.547   -25089.341     1855.794    1.1610133    30.985945    30.985945    30.985945    29750.497 
  767000    300.05033    123.22304   -23186.039   -25070.525    1884.4861    1.1610133    30.985945    30.985945    30.985945    29750.497 
  768000    291.31921   -1168.6496    -23296.55     -25126.2    1829.6498    1.1610133    30.985945    30.985945    30.985945    29750.497 
  769000    306.98358   -338.00853   -23170.302   -25098.333    1928.0309    1.1610133    30.985945    30.985945    30.985945    29750.497 
  770000     300.3731   -920.35699   -23213.633   -25100.147    1886.5133    1.1610133    30.985945    30.985945    30.985945    29750.497 
  771000    297.45549   -414.72643   -23197.655   -25065.844    1868.1891    1.1610133    30.985945    30.985945    30.985945    29750.497 
  772000    290.39736   -197.06348   -23343.256   -25167.116      1823.86    1.1610133    30.985945    30.985945    30.985945    29750.497 
  773000    299.84495     896.9709   -23178.917   -25062.113    1883.1963    1.1610133    30.985945    30.985945    30.985945    29750.497 
  774000    282.59631    119.34026   -23203.094   -24977.959     1774.865    1.1610133    30.985945    30.985945    30.985945    29750.497 
  775000    292.12294   -1179.3697   -23183.767   -25018.465    1834.6977    1.1610133    30.985945    30.985945    30.985945    29750.497 
  776000    298.15758   -220.32624   -23101.853   -24974.451    1872.5986    1.1610133    30.985945    30.985945    30.985945    29750.497 
  777000    298.72177   -558.76179   -23170.059   -25046.201     1876.142    1.1610133    30.985945    30.985945    30.985945    29750.497 
  778000    299.33107   -473.05919    -23135.82   -25015.789    1879.9687    1.1610133    30.985945    30.985945    30.985945    29750.497 
  779000    297.75827    717.81147   -23134.809     -25004.9    1870.0907    1.1610133    30.985945    30.985945    30.985945    29750.497 
  780000     297.8168   -510.83885    -23223.57   -25094.028    1870.4583    1.1610133    30.985945    30.985945    30.985945    29750.497 
  781000    297.98875   -7.9744338   -23174.235   -25045.773    1871.5382    1.1610133    30.985945    30.985945    30.985945    29750.497 
  782000    297.53163   -193.65413    -23187.84   -25056.508    1868.6673    1.1610133    30.985945    30.985945    30.985945    29750.497 
  783000    301.18188   -452.83092   -23144.599   -25036.192    1891.5929    1.1610133    30.985945    30.985945    30.985945    29750.497 
  784000    299.87348   -633.62027   -23172.407   -25055.783    1883.3754    1.1610133    30.985945    30.985945    30.985945    29750.497 
  785000    298.57205   -377.94222   -23137.165   -25012.367    1875.2017    1.1610133    30.985945    30.985945    30.985945    29750.497 
  786000    297.78273     926.4065   -23087.596    -24957.84    1870.2443    1.1610133    30.985945    30.985945    30.985945    29750.497 
  787000    290.92328   -568.31537   -23252.268   -25079.431    1827.1631    1.1610133    30.985945    30.985945    30.985945    29750.497 
  788000    292.08797   -310.06803   -23179.939   -25014.417     1834.478    1.1610133    30.985945    30.985945    30.985945    29750.497 
  789000    299.11068    347.35042    -23156.84   -25035.424    1878.5846    1.1610133    30.985945    30.985945    30.985945    29750.497 
  790000    300.44148    783.64182   -23153.674   -25040.617    1886.9428    1.1610133    30.985945    30.985945    30.985945    29750.497 
  791000     297.8499   -710.93512   -23254.193   -25124.859    1870.6662    1.1610133    30.985945    30.985945    30.985945    29750.497 
  792000     305.1174   -1165.1365   -23214.696   -25131.006    1916.3102    1.1610133    30.985945    30.985945    30.985945    29750.497 
  793000    309.60792   -1424.9663   -23261.814   -25206.327    1944.5132    1.1610133    30.985945    30.985945    30.985945    29750.497 
  794000    298.89992   -443.83806   -23241.586   -25118.847    1877.2609    1.1610133    30.985945    30.985945    30.985945    29750.497 
  795000    304.89491   -136.00785   -23156.825   -25071.738    1914.9128    1.1610133    30.985945    30.985945    30.985945    29750.497 
  796000    303.13886    611.14354   -23197.537   -25101.421    1903.8839    1.1610133    30.985945    30.985945    30.985945    29750.497 
  797000    297.95675    167.23801    -23167.63   -25038.967    1871.3373    1.1610133    30.985945    30.985945    30.985945    29750.497 
  798000    294.90169   -567.97029   -23256.446   -25108.596    1852.1497    1.1610133    30.985945    30.985945    30.985945    29750.497 
  799000    292.19168   -592.71097    -23229.55   -25064.679    1835.1293    1.1610133    30.985945    30.985945    30.985945    29750.497 
  800000    302.15854   -452.41711       -23217   -25114.727    1897.7269    1.1610133    30.985945    30.985945    30.985945    29750.497 
  801000    296.26005     349.8212    -23247.21   -25107.891     1860.681    1.1610133    30.985945    30.985945    30.985945    29750.497 
  802000     294.3844   -169.94628   -23291.992   -25140.893    1848.9009    1.1610133    30.985945    30.985945    30.985945    29750.497 
  803000    299.08871    339.68528   -23205.043    -25083.49    1878.4466    1.1610133    30.985945    30.985945    30.985945    29750.497 
  804000    294.06964   -1329.2261   -23250.858   -25097.782     1846.924    1.1610133    30.985945    30.985945    30.985945    29750.497 
  805000    299.78242   -753.04229   -23273.358   -25156.162    1882.8035    1.1610133    30.985945    30.985945    30.985945    29750.497 
  806000    296.76076    313.09652   -23277.652   -25141.478    1863.8258    1.1610133    30.985945    30.985945    30.985945    29750.497 
  807000    313.19035   -356.07451   -23085.462   -25052.475    1967.0129    1.1610133    30.985945    30.985945    30.985945    29750.497 
  808000     300.0636   -743.62613   -23244.467   -25129.036    1884.5695    1.1610133    30.985945    30.985945    30.985945    29750.497 
  809000    303.47293    62.111637   -23169.712   -25075.694     1905.982    1.1610133    30.985945    30.985945    30.985945    29750.497 
  810000    291.92976     27.71183   -23253.345   -25086.829    1833.4843    1.1610133    30.985945    30.985945    30.985945    29750.497 
  811000     300.2149   -86.332797   -23257.729   -25143.248    1885.5197    1.1610133    30.985945    30.985945    30.985945    29750.497 
  812000    299.35649    -1316.563   -23151.409   -25031.538    1880.1285    1.1610133    30.985945    30.985945    30.985945    29750.497 
  813000    297.38913   -452.68556   -23208.909   -25076.681    1867.7723    1.1610133    30.985945    30.985945    30.985945    29750.497 
  814000    305.23548    53.914375   -23155.569   -25072.621    1917.0518    1.1610133    30.985945    30.985945    30.985945    29750.497 
  815000    296.03865   -626.16659   -23221.887   -25081.178    1859.2905    1.1610133    30.985945    30.985945    30.985945    29750.497 
  816000    295.03998   -535.43729   -23223.565   -25076.583    1853.0183    1.1610133    30.985945    30.985945    30.985945    29750.497 
  817000    301.98812   -283.16608   -23199.139   -25095.796    1896.6565    1.1610133    30.985945    30.985945    30.985945    29750.497 
  818000     298.8233    195.04564   -23272.843   -25149.623    1876.7797    1.1610133    30.985945    30.985945    30.985945    29750.497 
  819000    290.85524    116.70528   -23265.904   -25092.639    1826.7357    1.1610133    30.985945    30.985945    30.985945    29750.497 
  820000    296.27193   -639.23535   -23164.569   -25025.325    1860.7556    1.1610133    30.985945    30.985945    30.985945    29750.497 
  821000    298.20361    364.28766   -23210.987   -25083.875    1872.8877    1.1610133    30.985945    30.985945    30.985945    29750.497 
  822000     304.3588   -151.75584   -23143.231   -25054.777    1911.5458    1.1610133    30.985945    30.985945    30.985945    29750.497 
  823000    300.75082    -11.45477   -23214.351   -25103.237    1888.8856    1.1610133    30.985945    30.985945    30.985945    29750.497 
  824000    302.19689   -8.4449624   -23098.463   -24996.431    1897.9677    1.1610133    30.985945    30.985945    30.985945    29750.497 
  825000    302.81325   -419.47904   -23136.038   -25037.877    1901.8388    1.1610133    30.985945    30.985945    30.985945    29750.497 
  826000    299.86126   -670.96125   -23150.023   -25033.321    1883.2987    1.1610133    30.985945    30.985945    30.985945    29750.497 
  827000    303.79513    18.062676   -23129.967   -25037.972    1908.0056    1.1610133    30.985945    30.985945    30.985945    29750.497 
  828000    289.29623   -748.06903   -23202.297   -25019.242    1816.9443    1.1610133    30.985945    30.985945    30.985945    29750.497 
  829000    310.17731   -959.30989   -23090.765   -25038.854    1948.0893    1.1610133    30.985945    30.985945    30.985945    29750.497 
  830000    299.80792   -532.39616   -23176.391   -25059.354    1882.9636    1.1610133    30.985945    30.985945    30.985945    29750.497 
  831000    294.79717   -346.61723   -23295.202   -25146.695    1851.4933    1.1610133    30.985945    30.985945    30.985945    29750.497 
  832000    300.13129  -0.32865956   -23209.204   -25094.199    1884.9946    1.1610133    30.985945    30.985945    30.985945    29750.497 
  833000     307.0151   -648.68576   -23176.697   -25104.926    1928.2288    1.1610133    30.985945    30.985945    30.985945    29750.497 
  834000    310.84408    575.38871   -23203.736   -25156.013     1952.277    1.1610133    30.985945    30.985945    30.985945    29750.497 
  835000    300.44977   -13.428055   -23228.701   -25115.696    1886.9948    1.1610133    30.985945    30.985945    30.985945    29750.497 
  836000    298.14975    397.15311   -23183.005   -25055.554    1872.5494    1.1610133    30.985945    30.985945    30.985945    29750.497 
  837000    294.65698   -334.04373   -23223.024   -25073.637    1850.6128    1.1610133    30.985945    30.985945    30.985945    29750.497 
  838000    296.97254    345.68222   -23221.739   -25086.895    1865.1559    1.1610133    30.985945    30.985945    30.985945    29750.497 
  839000    294.06717    144.75074   -23296.167   -25143.075    1846.9085    1.1610133    30.985945    30.985945    30.985945    29750.497 
  840000    301.50651    194.30338   -23187.555   -25081.187    1893.6318    1.1610133    30.985945    30.985945    30.985945    29750.497 
  841000    300.77114    450.60034   -23293.906   -25182.919    1889.0132    1.1610133    30.985945    30.985945    30.985945    29750.497 
  842000    311.44744    483.11358   -23134.052   -25090.118    1956.0664    1.1610133    30.985945    30.985945    30.985945    29750.497 
  843000    302.31842   -853.97755    -23196.87   -25095.601    1898.7311    1.1610133    30.985945    30.985945    30.985945    29750.497 
  844000     307.8907    65.980698   -23211.054   -25144.782    1933.7281    1.1610133    30.985945    30.985945    30.985945    29750.497 
  845000    297.48059   -317.86291   -23125.072   -24993.418    1868.3467    1.1610133    30.985945    30.985945    30.985945    29750.497 
  846000    293.50246    346.09722   -23205.354   -25048.716    1843.3618    1.1610133    30.985945    30.985945    30.985945    29750.497 
  847000     303.2704   -813.39352   -23139.284   -25043.995      1904.71    1.1610133    30.985945    30.985945    30.985945    29750.497 
  848000    296.83885    531.89721   -23239.647   -25103.963    1864.3162    1.1610133    30.985945    30.985945    30.985945    29750.497 
  849000     295.4441    54.447707   -23198.254   -25053.811    1855.5564    1.1610133    30.985945    30.985945    30.985945    29750.497 
  850000    299.63251   -1405.3689   -23133.968    -25015.83     1881.862    1.1610133    30.985945    30.985945    30.985945    29750.497 
  851000    292.31927    238.38054   -23220.048   -25055.979    1835.9307    1.1610133    30.985945    30.985945    30.985945    29750.497 
  852000     291.1045   -392.20248   -23228.444   -25056.745    1828.3012    1.1610133    30.985945    30.985945    30.985945    29750.497 
  853000    289.45088    167.20532    -23288.65   -25106.565    1817.9156    1.1610133    30.985945    30.985945    30.985945    29750.497 
  854000    297.07394   -546.81381   -23189.405   -25055.198    1865.7927    1.1610133    30.985945    30.985945    30.985945    29750.497 
  855000    298.07228   -898.53118   -23125.991   -24998.054    1872.0629    1.1610133    30.985945    30.985945    30.985945    29750.497 
  856000    291.75328    164.55834   -23215.877   -25048.253     1832.376    1.1610133    30.985945    30.985945    30.985945    29750.497 
  857000      302.136   -843.76657   -23134.408   -25031.993    1897.5853    1.1610133    30.985945    30.985945    30.985945    29750.497 
  858000    302.90427   -1106.4747   -23161.082   -25063.493    1902.4105    1.1610133    30.985945    30.985945    30.985945    29750.497 
  859000    307.73232   -1467.4753   -23152.965   -25085.698    1932.7334    1.1610133    30.985945    30.985945    30.985945    29750.497 
  860000    293.20517   -346.51067    -23276.82   -25118.314    1841.4946    1.1610133    30.985945    30.985945    30.985945    29750.497 
  861000    307.39948     22.99404   -23184.297    -25114.94    1930.6429    1.1610133    30.985945    30.985945    30.985945    29750.497 
  862000     304.0106    -41.88606   -23222.461   -25131.819    1909.3589    1.1610133    30.985945    30.985945    30.985945    29750.497 
  863000    308.48534    281.16224   -23198.211   -25135.674    1937.4628    1.1610133    30.985945    30.985945    30.985945    29750.497 
  864000    285.87289   -1123.7728   -23320.754   -25116.197    1795.4438    1.1610133    30.985945    30.985945    30.985945    29750.497 
  865000    301.73954   -225.41731   -23161.115   -25056.211    1895.0953    1.1610133    30.985945    30.985945    30.985945    29750.497 
  866000    302.37327   -307.39675   -23164.373   -25063.448    1899.0755    1.1610133    30.985945    30.985945    30.985945    29750.497 
  867000      294.051   -388.63524    -23299.28   -25146.087    1846.8069    1.1610133    30.985945    30.985945    30.985945    29750.497 
  868000     295.8035   -475.94257   -23255.684   -25113.498    1857.8136    1.1610133    30.985945    30.985945    30.985945    29750.497 
  869000    301.23697   -34.416343   -23179.233   -25071.172    1891.9389    1.1610133    30.985945    30.985945    30.985945    29750.497 
  870000    297.80611    143.45174    -23277.77   -25148.161    1870.3912    1.1610133    30.985945    30.985945    30.985945    29750.497 
  871000    299.87479    402.30317   -23250.983   -25134.366    1883.3836    1.1610133    30.985945    30.985945    30.985945    29750.497 
  872000    302.58745   -472.30336   -23109.046   -25009.467    1900.4207    1.1610133    30.985945    30.985945    30.985945    29750.497 
  873000    302.59149   -1026.5566   -23124.323    -25024.77    1900.4461    1.1610133    30.985945    30.985945    30.985945    29750.497 
  874000    293.30953   -396.15997   -23169.865   -25012.015    1842.1501    1.1610133    30.985945    30.985945    30.985945    29750.497 
  875000    300.52889   -824.68582   -23171.282   -25058.774    1887.4917    1.1610133    30.985945    30.985945    30.985945    29750.497 
  876000    300.19873   -404.47026   -23137.991    -25023.41    1885.4182    1.1610133    30.985945    30.985945    30.985945    29750.497 
  877000    293.95859    31.324953   -23254.769   -25100.996    1846.2266    1.1610133    30.985945    30.985945    30.985945    29750.497 
  878000    288.11907   -715.58011   -23275.811   -25085.362    1809.5511    1.1610133    30.985945    30.985945    30.985945    29750.497 
  879000     302.0748   -411.93681   -23229.701   -25126.902     1897.201    1.1610133    30.985945    30.985945    30.985945    29750.497 
  880000    291.72531   -55.736416   -23265.083   -25097.284    1832.2003    1.1610133    30.985945    30.985945    30.985945    29750.497 
  881000    299.86132    209.17775   -23182.786   -25066.085     1883.299    1.1610133    30.985945    30.985945    30.985945    29750.497 
  882000    302.50307   -174.31768   -23233.815   -25133.706    1899.8907    1.1610133    30.985945    30.985945    30.985945    29750.497 
  883000    289.41324    -526.0778   -23313.881    -25131.56    1817.6792    1.1610133    30.985945    30.985945    30.985945    29750.497 
  884000    301.21133    634.34422   -23268.787   -25160.565    1891.7779    1.1610133    30.985945    30.985945    30.985945    29750.497 
  885000    295.81491   -430.14813   -23244.576   -25102.461    1857.8853    1.1610133    30.985945    30.985945    30.985945    29750.497 
  886000    296.52206   -790.36046   -23254.909   -25117.235    1862.3266    1.1610133    30.985945    30.985945    30.985945    29750.497 
  887000    301.51953    545.82626   -23183.958   -25077.671    1893.7136    1.1610133    30.985945    30.985945    30.985945    29750.497 
  888000    302.66519   -255.31943   -23191.991     -25092.9    1900.9089    1.1610133    30.985945    30.985945    30.985945    29750.497 
  889000    300.34542   -211.35736   -23156.544   -25042.883    1886.3395    1.1610133    30.985945    30.985945    30.985945    29750.497 
  890000    295.79099   -345.27044   -23239.072   -25096.807    1857.7351    1.1610133    30.985945    30.985945    30.985945    29750.497 
  891000    294.68403   -839.22576   -23268.491   -25119.274    1850.7827    1.1610133    30.985945    30.985945    30.985945    29750.497 
  892000    310.30495   -52.275345   -23216.724   -25165.615     1948.891    1.1610133    30.985945    30.985945    30.985945    29750.497 
  893000    298.84676   -429.40039   -23176.281   -25053.208     1876.927    1.1610133    30.985945    30.985945    30.985945    29750.497 
  894000    299.37471    -1232.673   -23227.438   -25107.681    1880.2428    1.1610133    30.985945    30.985945    30.985945    29750.497 
  895000    302.06215    203.44841   -23163.055   -25060.177    1897.1215    1.1610133    30.985945    30.985945    30.985945    29750.497 
  896000      304.629     107.8259   -23225.341   -25138.584    1913.2427    1.1610133    30.985945    30.985945    30.985945    29750.497 
  897000    296.60097   -582.58495   -23191.747   -25054.569    1862.8222    1.1610133    30.985945    30.985945    30.985945    29750.497 
  898000    299.83356    313.04824   -23203.648   -25086.773    1883.1247    1.1610133    30.985945    30.985945    30.985945    29750.497 
  899000    293.29412    404.21864   -23281.638   -25123.691    1842.0533    1.1610133    30.985945    30.985945    30.985945    29750.497 
  900000    305.09315   -515.77404   -23192.146   -25108.304    1916.1579    1.1610133    30.985945    30.985945    30.985945    29750.497 
  901000    299.16595   -362.19422   -23269.123   -25148.054    1878.9317    1.1610133    30.985945    30.985945    30.985945    29750.497 
  902000    304.20744   -1044.4119   -23223.917   -25134.513    1910.5952    1.1610133    30.985945    30.985945    30.985945    29750.497 
  903000    299.49212    159.12886   -23095.218   -24976.198    1880.9802    1.1610133    30.985945    30.985945    30.985945    29750.497 
  904000    303.93823    -661.7182   -23166.462   -25075.366    1908.9044    1.1610133    30.985945    30.985945    30.985945    29750.497 
  905000    299.88789   -1867.1356   -23218.685   -25102.151    1883.4659    1.1610133    30.985945    30.985945    30.985945    29750.497 
  906000    293.85878   -286.79737    -23325.49   -25171.089    1845.5997    1.1610133    30.985945    30.985945    30.985945    29750.497 
  907000    308.55803    -592.0577   -23127.514   -25065.433    1937.9193    1.1610133    30.985945    30.985945    30.985945    29750.497 
  908000    296.20236   -144.21246   -23172.928   -25033.247    1860.3187    1.1610133    30.985945    30.985945    30.985945    29750.497 
  909000    302.89049    -673.1081   -23170.613   -25072.937     1902.324    1.1610133    30.985945    30.985945    30.985945    29750.497 
  910000    304.60797   -1569.0912   -23121.121   -25034.232    1913.1107    1.1610133    30.985945    30.985945    30.985945    29750.497 
  911000    303.14081   -673.88614   -23150.224    -25054.12    1903.8961    1.1610133    30.985945    30.985945    30.985945    29750.497 
  912000    297.39286   -113.87863   -23238.189   -25105.985    1867.7957    1.1610133    30.985945    30.985945    30.985945    29750.497 
  913000    309.78129    -1211.853   -23031.327   -24976.929    1945.6021    1.1610133    30.985945    30.985945    30.985945    29750.497 
  914000    293.08311   -817.40386   -23221.269   -25061.998    1840.7281    1.1610133    30.985945    30.985945    30.985945    29750.497 
  915000    300.47883   -87.869038   -23160.759   -25047.936    1887.1773    1.1610133    30.985945    30.985945    30.985945    29750.497 
  916000    294.85627   -115.79655   -23234.082   -25085.946    1851.8645    1.1610133    30.985945    30.985945    30.985945    29750.497 
  917000    293.43445    363.28401   -23261.201   -25104.136    1842.9347    1.1610133    30.985945    30.985945    30.985945    29750.497 
  918000    305.42999   -132.27416   -23239.894   -25158.167    1918.2734    1.1610133    30.985945    30.985945    30.985945    29750.497 
  919000    294.66999    37.642497   -23247.275    -25097.97    1850.6946    1.1610133    30.985945    30.985945    30.985945    29750.497 
  920000    302.69887    113.84082    -23255.12    -25156.24    1901.1205    1.1610133    30.985945    30.985945    30.985945    29750.497 
  921000    300.12629   -172.80515   -23275.177    -25160.14    1884.9632    1.1610133    30.985945    30.985945    30.985945    29750.497 
  922000    294.24609   -586.98363   -23268.758   -25116.791    1848.0322    1.1610133    30.985945    30.985945    30.985945    29750.497 
  923000    306.89013   -853.88058   -23220.822   -25148.266     1927.444    1.1610133    30.985945    30.985945    30.985945    29750.497 
  924000    298.49025   -1111.6198   -23244.872    -25119.56     1874.688    1.1610133    30.985945    30.985945    30.985945    29750.497 
  925000    301.64505    379.76292   -23219.817   -25114.319    1894.5019    1.1610133    30.985945    30.985945    30.985945    29750.497 
  926000     294.8963   -1539.0576   -23329.745   -25181.861    1852.1159    1.1610133    30.985945    30.985945    30.985945    29750.497 
  927000    298.87845   -1284.7133   -23250.374     -25127.5    1877.1261    1.1610133    30.985945    30.985945    30.985945    29750.497 
  928000    299.42698   -427.45026   -23260.224   -25140.795    1880.5711    1.1610133    30.985945    30.985945    30.985945    29750.497 
  929000    302.79718   -430.47956   -23199.362     -25101.1    1901.7379    1.1610133    30.985945    30.985945    30.985945    29750.497 
  930000    305.15233   -555.53808   -23135.368   -25051.898    1916.5296    1.1610133    30.985945    30.985945    30.985945    29750.497 
  931000    297.80081   -820.94539   -23306.708   -25177.066    1870.3579    1.1610133    30.985945    30.985945    30.985945    29750.497 
  932000     286.2795   -990.12283   -23325.477   -25123.474    1797.9975    1.1610133    30.985945    30.985945    30.985945    29750.497 
  933000    299.19098   -355.97173   -23220.866   -25099.954    1879.0889    1.1610133    30.985945    30.985945    30.985945    29750.497 
  934000    300.06103   -662.05274    -23208.56   -25093.114    1884.5533    1.1610133    30.985945    30.985945    30.985945    29750.497 
  935000    296.43828   -575.37656   -23214.531   -25076.331    1861.8004    1.1610133    30.985945    30.985945    30.985945    29750.497 
  936000    304.21583    82.572527    -23164.09   -25074.737    1910.6479    1.1610133    30.985945    30.985945    30.985945    29750.497 
  937000    299.17829   -592.81336   -23219.983   -25098.992    1879.0092    1.1610133    30.985945    30.985945    30.985945    29750.497 
  938000    295.47839   -818.10829   -23187.257   -25043.029    1855.7718    1.1610133    30.985945    30.985945    30.985945    29750.497 
  939000    290.81703   -1431.0538   -23244.186   -25070.682    1826.4958    1.1610133    30.985945    30.985945    30.985945    29750.497 
  940000    302.66283   -713.86853   -23193.607   -25094.501    1900.8941    1.1610133    30.985945    30.985945    30.985945    29750.497 
  941000    291.10874   -231.97142   -23319.275   -25147.602    1828.3279    1.1610133    30.985945    30.985945    30.985945    29750.497 
  942000    299.59807    439.71399   -23263.669   -25145.314    1881.6457    1.1610133    30.985945    30.985945    30.985945    29750.497 
  943000    301.59766   -703.35729   -23241.634   -25135.838    1894.2042    1.1610133    30.985945    30.985945    30.985945    29750.497 
  944000    297.54513   -650.45677   -23254.413   -25123.165    1868.7521    1.1610133    30.985945    30.985945    30.985945    29750.497 
  945000    294.90425    -847.7347   -23351.085    -25203.25    1852.1658    1.1610133    30.985945    30.985945    30.985945    29750.497 
  946000    301.39488    230.78319   -23258.253   -25151.183    1892.9307    1.1610133    30.985945    30.985945    30.985945    29750.497 
  947000    293.77807   -146.18445   -23287.588   -25132.681    1845.0928    1.1610133    30.985945    30.985945    30.985945    29750.497 
  948000     297.0698    134.16725   -23249.698   -25115.465    1865.7667    1.1610133    30.985945    30.985945    30.985945    29750.497 
  949000    292.14231    90.638655   -23288.216   -25123.036    1834.8193    1.1610133    30.985945    30.985945    30.985945    29750.497 
  950000    290.95546    145.22697   -23176.559   -25003.925    1827.3652    1.1610133    30.985945    30.985945    30.985945    29750.497 
  951000    307.16837    -682.3956   -23128.473   -25057.664    1929.1914    1.1610133    30.985945    30.985945    30.985945    29750.497 
  952000    290.11796   -726.86475   -23230.982   -25053.087    1822.1052    1.1610133    30.985945    30.985945    30.985945    29750.497 
  953000    300.51548    57.574067   -23155.915   -25043.322    1887.4075    1.1610133    30.985945    30.985945    30.985945    29750.497 
  954000     296.6174   -999.07968   -23283.969   -25146.895    1862.9254    1.1610133    30.985945    30.985945    30.985945    29750.497 
  955000     289.0232    -1124.123   -23210.675   -25025.904    1815.2295    1.1610133    30.985945    30.985945    30.985945    29750.497 
  956000    300.52556     -534.975   -23210.523   -25097.994    1887.4709    1.1610133    30.985945    30.985945    30.985945    29750.497 
  957000    288.80146   -311.21342   -23261.642   -25075.479    1813.8368    1.1610133    30.985945    30.985945    30.985945    29750.497 
  958000    297.20042   -343.76046   -23236.027   -25102.614    1866.5871    1.1610133    30.985945    30.985945    30.985945    29750.497 
  959000    299.78386   -633.87743   -23204.164   -25086.977    1882.8125    1.1610133    30.985945    30.985945    30.985945    29750.497 
  960000    301.11117   -154.44063   -23271.514   -25162.663    1891.1488    1.1610133    30.985945    30.985945    30.985945    29750.497 
  961000    302.73627   -71.080103    -23150.09   -25051.446    1901.3554    1.1610133    30.985945    30.985945    30.985945    29750.497 
  962000    298.38274   -397.28597   -23161.409   -25035.422    1874.0127    1.1610133    30.985945    30.985945    30.985945    29750.497 
  963000    300.14994   -595.38789   -23221.332   -25106.444    1885.1118    1.1610133    30.985945    30.985945    30.985945    29750.497 
  964000    298.06181   -361.67565   -23217.743    -25089.74    1871.9971    1.1610133    30.985945    30.985945    30.985945    29750.497 
  965000    300.69544    489.09146   -23165.938   -25054.476    1888.5378    1.1610133    30.985945    30.985945    30.985945    29750.497 
  966000    292.77795   -1027.1688   -23243.433   -25082.244    1838.8115    1.1610133    30.985945    30.985945    30.985945    29750.497 
  967000    297.25406   -670.89395   -23285.621   -25152.545     1866.924    1.1610133    30.985945    30.985945    30.985945    29750.497 
  968000    302.87827   -318.62417   -23168.094   -25070.341    1902.2472    1.1610133    30.985945    30.985945    30.985945    29750.497 
  969000    298.17985   -542.10163   -23286.634   -25159.372    1872.7385    1.1610133    30.985945    30.985945    30.985945    29750.497 
  970000    300.29694   -671.64611   -23239.569   -25125.604     1886.035    1.1610133    30.985945    30.985945    30.985945    29750.497 
  971000    306.31916   -1007.5198   -23228.683   -25152.541     1923.858    1.1610133    30.985945    30.985945    30.985945    29750.497 
  972000    304.10479   -1160.4649   -23269.725   -25179.675    1909.9505    1.1610133    30.985945    30.985945    30.985945    29750.497 
  973000    299.51137    -234.9692   -23230.701   -25111.802    1881.1012    1.1610133    30.985945    30.985945    30.985945    29750.497 
  974000    287.23627   -894.45737   -23295.588   -25099.595    1804.0066    1.1610133    30.985945    30.985945    30.985945    29750.497 
  975000    299.68477   -523.64278   -23222.673   -25104.863    1882.1902    1.1610133    30.985945    30.985945    30.985945    29750.497 
  976000    308.97222    322.92947   -23157.722   -25098.242    1940.5207    1.1610133    30.985945    30.985945    30.985945    29750.497 
  977000    293.90948   -1125.5377   -23274.933   -25120.851    1845.9181    1.1610133    30.985945    30.985945    30.985945    29750.497 
  978000    297.33199    158.81275     -23217.2   -25084.613    1867.4134    1.1610133    30.985945    30.985945    30.985945    29750.497 
  979000    299.00676   -493.10802   -23197.811   -25075.743     1877.932    1.1610133    30.985945    30.985945    30.985945    29750.497 
  980000    294.26173     57.81463   -23225.622   -25073.753    1848.1305    1.1610133    30.985945    30.985945    30.985945    29750.497 
  981000    299.61443   -158.77054   -23204.501   -25086.249    1881.7484    1.1610133    30.985945    30.985945    30.985945    29750.497 
  982000    291.42038   -877.27578   -23235.735    -25066.02    1830.2852    1.1610133    30.985945    30.985945    30.985945    29750.497 
  983000    302.93234    212.75023   -23171.445   -25074.032    1902.5868    1.1610133    30.985945    30.985945    30.985945    29750.497 
  984000     300.2655    183.32422   -23214.391   -25100.229    1885.8375    1.1610133    30.985945    30.985945    30.985945    29750.497 
  985000    306.42259   -325.54288   -23096.041   -25020.548    1924.5075    1.1610133    30.985945    30.985945    30.985945    29750.497 
  986000    293.34623    143.89253   -23219.416   -25061.797    1842.3806    1.1610133    30.985945    30.985945    30.985945    29750.497 
  987000    293.48609   -523.62146   -23220.273   -25063.532     1843.259    1.1610133    30.985945    30.985945    30.985945    29750.497 
  988000    296.47348   -1136.5651   -23130.352   -24992.373    1862.0215    1.1610133    30.985945    30.985945    30.985945    29750.497 
  989000    300.66628   -949.26213   -23120.134   -25008.489    1888.3547    1.1610133    30.985945    30.985945    30.985945    29750.497 
  990000    300.49373    88.576057   -23212.933   -25100.204    1887.2709    1.1610133    30.985945    30.985945    30.985945    29750.497 
  991000    300.98895   -438.65599   -23156.292   -25046.673    1890.3812    1.1610133    30.985945    30.985945    30.985945    29750.497 
  992000    294.21831   -833.71907   -23261.229   -25109.087    1847.8577    1.1610133    30.985945    30.985945    30.985945    29750.497 
  993000      304.137   -773.34651    -23205.07   -25115.223    1910.1528    1.1610133    30.985945    30.985945    30.985945    29750.497 
  994000    306.70676   -194.15071   -23153.987    -25080.28    1926.2923    1.1610133    30.985945    30.985945    30.985945    29750.497 
  995000    292.55176    280.47624   -23248.549    -25085.94    1837.3908    1.1610133    30.985945    30.985945    30.985945    29750.497 
  996000    303.80138    254.69439   -23211.679   -25119.723    1908.0448    1.1610133    30.985945    30.985945    30.985945    29750.497 
  997000    301.61552   -917.56172   -23236.115   -25130.432    1894.3164    1.1610133    30.985945    30.985945    30.985945    29750.497 
  998000    296.99482   -791.58485   -23262.213   -25127.509    1865.2958    1.1610133    30.985945    30.985945    30.985945    29750.497 
  999000    303.86838   -178.53919    -23177.07   -25085.535    1908.4657    1.1610133    30.985945    30.985945    30.985945    29750.497 
 1000000     298.1162   -1034.7558   -23259.426   -25131.765    1872.3387    1.1610133    30.985945    30.985945    30.985945    29750.497 
 1001000    300.05117   -42.462919   -23192.392   -25076.883    1884.4914    1.1610133    30.985945    30.985945    30.985945    29750.497 
 1002000    307.11305   -620.49296   -23111.489   -25040.333     1928.844    1.1610133    30.985945    30.985945    30.985945    29750.497 
 1003000    297.78057    183.87892    -23238.42   -25108.651    1870.2308    1.1610133    30.985945    30.985945    30.985945    29750.497 
 1004000    288.54898   -311.37965   -23222.486   -25034.737    1812.2511    1.1610133    30.985945    30.985945    30.985945    29750.497 
 1005000    295.83737   -449.50623   -23263.385   -25121.412    1858.0263    1.1610133    30.985945    30.985945    30.985945    29750.497 
 1006000    294.67184   -1337.4422   -23227.408   -25078.114    1850.7062    1.1610133    30.985945    30.985945    30.985945    29750.497 
 1007000    302.81345   -456.68382    -23237.02    -25138.86    1901.8401    1.1610133    30.985945    30.985945    30.985945    29750.497 
 1008000    297.03314   -385.91057   -23204.972   -25070.508    1865.5365    1.1610133    30.985945    30.985945    30.985945    29750.497 
 1009000    299.16905   -130.23929    -23194.38   -25073.331    1878.9512    1.1610133    30.985945    30.985945    30.985945    29750.497 
 1010000      294.823   -54.599183   -23301.953   -25153.609    1851.6555    1.1610133    30.985945    30.985945    30.985945    29750.497 
 1011000    300.11271   -251.31393   -23256.301   -25141.179    1884.8779    1.1610133    30.985945    30.985945    30.985945    29750.497 
 1012000    297.64497   -444.83325   -23213.658   -25083.037    1869.3791    1.1610133    30.985945    30.985945    30.985945    29750.497 
 1013000    293.51785   -121.66154   -23190.908   -25034.366    1843.4584    1.1610133    30.985945    30.985945    30.985945    29750.497 
 1014000      306.384   -148.54011   -23190.726   -25114.991    1924.2652    1.1610133    30.985945    30.985945    30.985945    29750.497 
 1015000    297.38787     24.26195   -23122.189   -24989.953    1867.7644    1.1610133    30.985945    30.985945    30.985945    29750.497 
 1016000    293.38597   -1142.9935   -23240.684   -25083.314    1842.6302    1.1610133    30.985945    30.985945    30.985945    29750.497 
 1017000    298.74926   -242.62725   -23213.679   -25089.994    1876.3147    1.1610133    30.985945    30.985945    30.985945    29750.497 
 1018000    302.36356   -44.027813   -23156.396   -25055.411    1899.0146    1.1610133    30.985945    30.985945    30.985945    29750.497 
 1019000    302.84645   -325.23284   -23196.333   -25098.381    1902.0473    1.1610133    30.985945    30.985945    30.985945    29750.497 
 1020000    304.34494   -384.60588   -23117.302   -25028.761    1911.4587    1.1610133    30.985945    30.985945    30.985945    29750.497 
 1021000    295.30495   -211.89146   -23256.742   -25111.424    1854.6824    1.1610133    30.985945    30.985945    30.985945    29750.497 
 1022000    292.89293     16.28544   -23302.853   -25142.387    1839.5336    1.1610133    30.985945    30.985945    30.985945    29750.497 
 1023000    295.99496   -138.00965    -23293.06   -25152.076    1859.0161    1.1610133    30.985945    30.985945    30.985945    29750.497 
 1024000     295.9523   -1324.9797   -23240.128   -25098.876    1858.7482    1.1610133    30.985945    30.985945    30.985945    29750.497 
 1025000    292.68756   -1286.8237    -23347.39   -25185.634    1838.2437    1.1610133    30.985945    30.985945    30.985945    29750.497 
 1026000     291.4141   -131.50001   -23312.095   -25142.341    1830.2457    1.1610133    30.985945    30.985945    30.985945    29750.497 
 1027000    294.00689   -58.426333   -23384.235   -25230.765    1846.5299    1.1610133    30.985945    30.985945    30.985945    29750.497 
 1028000    296.33885   -966.98641   -23221.088   -25082.264    1861.1759    1.1610133    30.985945    30.985945    30.985945    29750.497 
 1029000    304.56351   -629.52238   -23291.375   -25204.207    1912.8314    1.1610133    30.985945    30.985945    30.985945    29750.497 
 1030000    292.70719   -490.64166   -23304.734   -25143.101    1838.3671    1.1610133    30.985945    30.985945    30.985945    29750.497 
 1031000    303.85632     580.5104   -23134.503   -25042.893    1908.3899    1.1610133    30.985945    30.985945    30.985945    29750.497 
 1032000    299.74207    176.98615   -23293.735   -25176.285    1882.5501    1.1610133    30.985945    30.985945    30.985945    29750.497 
 1033000    289.08725   -1129.5053   -23364.072   -25179.703    1815.6318    1.1610133    30.985945    30.985945    30.985945    29750.497 
 1034000    304.66084   -240.85466   -23242.775   -25156.218    1913.4427    1.1610133    30.985945    30.985945    30.985945    29750.497 
 1035000    294.12524   -138.46858   -23206.884   -25054.157    1847.2732    1.1610133    30.985945    30.985945    30.985945    29750.497 
 1036000    294.34548   -809.90285   -23235.826   -25084.483    1848.6564    1.1610133    30.985945    30.985945    30.985945    29750.497 
 1037000    292.08933   -568.84047    -23333.89   -25168.377    1834.4865    1.1610133    30.985945    30.985945    30.985945    29750.497 
 1038000    293.46771    253.67997   -23248.183   -25091.327    1843.1436    1.1610133    30.985945    30.985945    30.985945    29750.497 
 1039000    291.48537     -288.013   -23293.401   -25124.095    1830.6933    1.1610133    30.985945    30.985945    30.985945    29750.497 
 1040000    302.08293   -613.39036   -23235.602   -25132.854     1897.252    1.1610133    30.985945    30.985945    30.985945    29750.497 
 1041000    308.38864   -802.84414   -23142.789   -25079.644    1936.8554    1.1610133    30.985945    30.985945    30.985945    29750.497 
 1042000    300.95844    556.70791   -23110.636   -25000.826    1890.1896    1.1610133    30.985945    30.985945    30.985945    29750.497 
 1043000     293.0284    536.40731   -23284.084   -25124.468    1840.3844    1.1610133    30.985945    30.985945    30.985945    29750.497 
 1044000    297.50542    -469.6511   -23228.234   -25096.737    1868.5026    1.1610133    30.985945    30.985945    30.985945    29750.497 
 1045000    303.95937   -1179.4765   -23241.798   -25150.835    1909.0371    1.1610133    30.985945    30.985945    30.985945    29750.497 
 1046000    299.63769    -702.4697   -23224.208   -25106.103    1881.8945    1.1610133    30.985945    30.985945    30.985945    29750.497 
 1047000    302.69081    -389.7506   -23200.791   -25101.861    1901.0699    1.1610133    30.985945    30.985945    30.985945    29750.497 
 1048000    287.27408   -351.61654   -23295.948   -25100.192    1804.2441    1.1610133    30.985945    30.985945    30.985945    29750.497 
 1049000    302.07037   -704.95353   -23155.049   -25052.222    1897.1731    1.1610133    30.985945    30.985945    30.985945    29750.497 
 1050000    294.86597   -358.37684   -23279.981   -25131.907    1851.9254    1.1610133    30.985945    30.985945    30.985945    29750.497 
 1051000    298.40395   -619.57996   -23117.464    -24991.61     1874.146    1.1610133    30.985945    30.985945    30.985945    29750.497 
 1052000    297.06191   -933.92549   -23087.587   -24953.304    1865.7171    1.1610133    30.985945    30.985945    30.985945    29750.497 
 1053000    296.29451   -986.55162   -23239.501   -25100.398    1860.8975    1.1610133    30.985945    30.985945    30.985945    29750.497 
 1054000     313.7422   -1147.5291   -23121.399   -25091.878    1970.4788    1.1610133    30.985945    30.985945    30.985945    29750.497 
 1055000    298.39617   -126.36379   -23293.446   -25167.543    1874.0971    1.1610133    30.985945    30.985945    30.985945    29750.497 
 1056000    306.68964   -407.17715   -23245.162   -25171.347    1926.1847    1.1610133    30.985945    30.985945    30.985945    29750.497 
 1057000    295.51809    -561.5043   -23193.565   -25049.586    1856.0211    1.1610133    30.985945    30.985945    30.985945    29750.497 
 1058000    296.65661   -1048.8246    -23289.84   -25153.012    1863.1717    1.1610133    30.985945    30.985945    30.985945    29750.497 
 1059000    307.20956   -437.38653   -23222.097   -25151.547    1929.4501    1.1610133    30.985945    30.985945    30.985945    29750.497 
 1060000    294.54571   -686.64098   -23286.636    -25136.55     1849.914    1.1610133    30.985945    30.985945    30.985945    29750.497 
 1061000    298.38002    101.99117   -23222.288   -25096.284    1873.9957    1.1610133    30.985945    30.985945    30.985945    29750.497 
 1062000    294.93299   -524.87068   -23253.041   -25105.388    1852.3463    1.1610133    30.985945    30.985945    30.985945    29750.497 
 1063000    293.82851   -492.83487   -23301.929   -25147.338    1845.4096    1.1610133    30.985945    30.985945    30.985945    29750.497 
 1064000    302.40106   -1204.9633   -23225.024   -25124.274      1899.25    1.1610133    30.985945    30.985945    30.985945    29750.497 
 1065000    291.08658   -301.57585   -23310.993   -25139.182    1828.1887    1.1610133    30.985945    30.985945    30.985945    29750.497 
 1066000    294.22467   -617.25754   -23289.505   -25137.403    1847.8977    1.1610133    30.985945    30.985945    30.985945    29750.497 
 1067000    299.79243   -888.00638   -23253.728   -25136.595    1882.8664    1.1610133    30.985945    30.985945    30.985945    29750.497 
 1068000    283.68947   -678.02742   -23288.528   -25070.259    1781.7306    1.1610133    30.985945    30.985945    30.985945    29750.497 
 1069000    286.15214   -113.58276   -23336.366   -25133.564    1797.1976    1.1610133    30.985945    30.985945    30.985945    29750.497 
 1070000     305.0084     165.3806   -23260.951   -25176.577    1915.6256    1.1610133    30.985945    30.985945    30.985945    29750.497 
 1071000    295.90608   -358.95962   -23294.697   -25153.154    1858.4579    1.1610133    30.985945    30.985945    30.985945    29750.497 
 1072000     301.7704   -1204.1776   -23221.673   -25116.962    1895.2891    1.1610133    30.985945    30.985945    30.985945    29750.497 
 1073000    298.12767    789.66573   -23245.105   -25117.516    1872.4107    1.1610133    30.985945    30.985945    30.985945    29750.497 
 1074000    290.20995    161.01879    -23375.67   -25198.353     1822.683    1.1610133    30.985945    30.985945    30.985945    29750.497 
 1075000    297.79137    -254.4861   -23166.908   -25037.206    1870.2986    1.1610133    30.985945    30.985945    30.985945    29750.497 
 1076000    306.03257    308.45228   -23154.578   -25076.636     1922.058    1.1610133    30.985945    30.985945    30.985945    29750.497 
 1077000    289.16993    788.55694   -23229.527   -25045.678    1816.1511    1.1610133    30.985945    30.985945    30.985945    29750.497 
 1078000    304.57462   -693.12194   -23183.863   -25096.764    1912.9013    1.1610133    30.985945    30.985945    30.985945    29750.497 
 1079000    297.74349    -908.7593   -23202.179   -25072.177    1869.9979    1.1610133    30.985945    30.985945    30.985945    29750.497 
 1080000    313.88354    254.98956   -23168.497   -25139.863    1971.3666    1.1610133    30.985945    30.985945    30.985945    29750.497 
 1081000    287.39382   -483.65309   -23315.479   -25120.475    1804.9961    1.1610133    30.985945    30.985945    30.985945    29750.497 
 1082000    302.35156   -529.37859    -23128.89   -25027.829    1898.9391    1.1610133    30.985945    30.985945    30.985945    29750.497 
 1083000    297.62549   -626.49483   -23241.546   -25110.803    1869.2568    1.1610133    30.985945    30.985945    30.985945    29750.497 
 1084000    297.73356   -842.18035   -23140.543   -25010.478    1869.9355    1.1610133    30.985945    30.985945    30.985945    29750.497 
 1085000    304.49953     51.68787   -23131.183   -25043.612    1912.4296    1.1610133    30.985945    30.985945    30.985945    29750.497 
 1086000    298.15302    78.330881   -23213.343   -25085.913    1872.5699    1.1610133    30.985945    30.985945    30.985945    29750.497 
 1087000    291.22964    -109.5214   -23314.096   -25143.183    1829.0872    1.1610133    30.985945    30.985945    30.985945    29750.497 
 1088000    294.53922    20.382556   -23293.786   -25143.659    1849.8732    1.1610133    30.985945    30.985945    30.985945    29750.497 
 1089000      295.403     195.2078   -23267.381    -25122.68    1855.2983    1.1610133    30.985945    30.985945    30.985945    29750.497 
 1090000    305.44726   -554.13493   -23212.281   -25130.663    1918.3819    1.1610133    30.985945    30.985945    30.985945    29750.497 
 1091000    292.83261    1.1865203   -23184.653   -25023.808    1839.1548    1.1610133    30.985945    30.985945    30.985945    29750.497 
 1092000    304.68822    3.6097236   -23238.302   -25151.917    1913.6147    1.1610133    30.985945    30.985945    30.985945    29750.497 
 1093000    297.69038   -210.34393   -23165.486   -25035.151    1869.6643    1.1610133    30.985945    30.985945    30.985945    29750.497 
 1094000    290.99442   -45.455282   -23289.996   -25117.606    1827.6099    1.1610133    30.985945    30.985945    30.985945    29750.497 
 1095000    290.46882   -1297.3201   -23198.641   -25022.949    1824.3088    1.1610133    30.985945    30.985945    30.985945    29750.497 
 1096000    300.43046    190.74865   -23181.324   -25068.197    1886.8735    1.1610133    30.985945    30.985945    30.985945    29750.497 
 1097000    291.87533   -135.59025   -23243.888   -25077.031    1833.1425    1.1610133    30.985945    30.985945    30.985945    29750.497 
 1098000    291.61492   -324.36485   -23315.038   -25146.545     1831.507    1.1610133    30.985945    30.985945    30.985945    29750.497 
 1099000    300.80666   -1035.2672    -23129.26   -25018.496    1889.2363    1.1610133    30.985945    30.985945    30.985945    29750.497 
 1100000     296.2321   -697.48219   -23207.209   -25067.715    1860.5055    1.1610133    30.985945    30.985945    30.985945    29750.497 
 1101000    296.56618   -268.35865   -23323.996     -25186.6    1862.6037    1.1610133    30.985945    30.985945    30.985945    29750.497 
 1102000    293.10757   -120.15677   -23230.591   -25071.472    1840.8816    1.1610133    30.985945    30.985945    30.985945    29750.497 
 1103000    302.14915   -460.64143   -23237.574   -25135.242    1897.6679    1.1610133    30.985945    30.985945    30.985945    29750.497 
 1104000     295.0556   -257.49424   -23374.632   -25227.749    1853.1164    1.1610133    30.985945    30.985945    30.985945    29750.497 
 1105000    295.15599   -748.94217   -23269.151   -25122.898    1853.7469    1.1610133    30.985945    30.985945    30.985945    29750.497 
 1106000    293.21655    7.9866572   -23360.339   -25201.905    1841.5661    1.1610133    30.985945    30.985945    30.985945    29750.497 
 1107000    306.13028    289.79699   -23221.971   -25144.643    1922.6717    1.1610133    30.985945    30.985945    30.985945    29750.497 
 1108000    299.86969   -328.62568   -23191.014   -25074.365    1883.3516    1.1610133    30.985945    30.985945    30.985945    29750.497 
 1109000    298.80697   -1290.6588   -23305.112   -25181.789    1876.6771    1.1610133    30.985945    30.985945    30.985945    29750.497 
 1110000     298.5332   -1084.0321   -23303.101   -25178.059    1874.9577    1.1610133    30.985945    30.985945    30.985945    29750.497 
 1111000    300.94326   -737.73628   -23306.701   -25196.795    1890.0943    1.1610133    30.985945    30.985945    30.985945    29750.497 
 1112000    310.82958   -1038.6762   -23124.871   -25077.057     1952.186    1.1610133    30.985945    30.985945    30.985945    29750.497 
 1113000    301.70379   -1245.2084   -23157.499    -25052.37    1894.8708    1.1610133    30.985945    30.985945    30.985945    29750.497 
 1114000    301.60765    173.43366    -23245.78   -25140.047     1894.267    1.1610133    30.985945    30.985945    30.985945    29750.497 
 1115000     297.2113   -826.84184   -23262.202   -25128.857    1866.6554    1.1610133    30.985945    30.985945    30.985945    29750.497 
 1116000    295.77972    853.43859   -23228.752   -25086.416    1857.6643    1.1610133    30.985945    30.985945    30.985945    29750.497 
 1117000    302.20558   -320.61241   -23112.638    -25010.66    1898.0223    1.1610133    30.985945    30.985945    30.985945    29750.497 
 1118000    293.06956     78.57489   -23251.864   -25092.507     1840.643    1.1610133    30.985945    30.985945    30.985945    29750.497 
 1119000    294.01376    614.13011   -23288.961   -25135.534    1846.5731    1.1610133    30.985945    30.985945    30.985945    29750.497 
 1120000    292.01629   -779.76423   -23225.333   -25059.361    1834.0278    1.1610133    30.985945    30.985945    30.985945    29750.497 
 1121000    292.25015   -763.34577   -23397.556   -25233.053    1835.4966    1.1610133    30.985945    30.985945    30.985945    29750.497 
 1122000    294.62599   -1324.2328   -23226.331   -25076.749    1850.4182    1.1610133    30.985945    30.985945    30.985945    29750.497 
 1123000    298.82214    150.14898   -23262.413   -25139.185    1876.7724    1.1610133    30.985945    30.985945    30.985945    29750.497 
 1124000    300.77924    665.52401   -23263.171   -25152.235    1889.0641    1.1610133    30.985945    30.985945    30.985945    29750.497 
 1125000    303.00731    201.99933   -23151.559   -25054.617    1903.0576    1.1610133    30.985945    30.985945    30.985945    29750.497 
 1126000    296.36165   -938.27399   -23162.954   -25024.273    1861.3191    1.1610133    30.985945    30.985945    30.985945    29750.497 
 1127000    289.43889   -606.29113   -23262.507   -25080.348    1817.8403    1.1610133    30.985945    30.985945    30.985945    29750.497 
 1128000    293.88585   -46.000321    -23227.97    -25073.74    1845.7697    1.1610133    30.985945    30.985945    30.985945    29750.497 
 1129000    301.94759   -436.66477   -23144.496   -25040.898     1896.402    1.1610133    30.985945    30.985945    30.985945    29750.497 
 1130000    293.83656   -687.49241   -23306.053   -25151.513    1845.4601    1.1610133    30.985945    30.985945    30.985945    29750.497 
 1131000    301.52512   -916.39355   -23242.906   -25136.655    1893.7487    1.1610133    30.985945    30.985945    30.985945    29750.497 
 1132000    298.91551   -514.92719   -23293.305   -25170.664    1877.3588    1.1610133    30.985945    30.985945    30.985945    29750.497 
 1133000    306.42897   -941.20397   -23146.274   -25070.821    1924.5476    1.1610133    30.985945    30.985945    30.985945    29750.497 
 1134000    295.22016   -520.20004   -23284.032   -25138.182    1854.1499    1.1610133    30.985945    30.985945    30.985945    29750.497 
 1135000     286.6258   -1141.0349   -23263.853   -25064.025    1800.1725    1.1610133    30.985945    30.985945    30.985945    29750.497 
 1136000     293.5821   -737.75106   -23248.341   -25092.203     1843.862    1.1610133    30.985945    30.985945    30.985945    29750.497 
 1137000    299.61879   -442.34925   -23210.392   -25092.168    1881.7758    1.1610133    30.985945    30.985945    30.985945    29750.497 
 1138000    299.57647    99.581772   -23206.938   -25088.448      1881.51    1.1610133    30.985945    30.985945    30.985945    29750.497 
 1139000    296.80843   -1283.4324   -23207.625    -25071.75    1864.1252    1.1610133    30.985945    30.985945    30.985945    29750.497 
 1140000    290.10379   -903.03704   -23269.454    -25091.47    1822.0162    1.1610133    30.985945    30.985945    30.985945    29750.497 
 1141000    295.96614   -296.31003   -23313.194   -25172.029    1858.8351    1.1610133    30.985945    30.985945    30.985945    29750.497 
 1142000    293.86056    609.14709   -23269.499   -25115.109    1845.6109    1.1610133    30.985945    30.985945    30.985945    29750.497 
 1143000    294.55842   -548.94737   -23264.488   -25114.482    1849.9938    1.1610133    30.985945    30.985945    30.985945    29750.497 
 1144000    294.08786    477.47926   -23340.551   -25187.589    1847.0384    1.1610133    30.985945    30.985945    30.985945    29750.497 
 1145000    298.83842    -576.4379   -23300.743   -25177.618    1876.8747    1.1610133    30.985945    30.985945    30.985945    29750.497 
 1146000    297.21833   -440.57148   -23325.942   -25192.642    1866.6996    1.1610133    30.985945    30.985945    30.985945    29750.497 
 1147000     300.9491     302.4214   -23250.347   -25140.478    1890.1309    1.1610133    30.985945    30.985945    30.985945    29750.497 
 1148000    298.50267    207.21692   -23305.536   -25180.302     1874.766    1.1610133    30.985945    30.985945    30.985945    29750.497 
 1149000    290.74858   -652.61028   -23278.095   -25104.161    1826.0659    1.1610133    30.985945    30.985945    30.985945    29750.497 
 1150000     304.4729   -349.02622   -23209.881   -25122.143    1912.2624    1.1610133    30.985945    30.985945    30.985945    29750.497 
 1151000    292.29509   -1978.4927   -23334.924   -25170.703    1835.7788    1.1610133    30.985945    30.985945    30.985945    29750.497 
 1152000    306.32108   -676.07217   -23097.004   -25020.874      1923.87    1.1610133    30.985945    30.985945    30.985945    29750.497 
 1153000    299.45612   -579.09573   -23218.972   -25099.726    1880.7542    1.1610133    30.985945    30.985945    30.985945    29750.497 
 1154000    297.67521    55.445746   -23298.589   -25168.158     1869.569    1.1610133    30.985945    30.985945    30.985945    29750.497 
 1155000    302.51229     128.6709   -23228.589   -25128.538    1899.9486    1.1610133    30.985945    30.985945    30.985945    29750.497 
 1156000    285.89776   -455.63421   -23234.219   -25029.819       1795.6    1.1610133    30.985945    30.985945    30.985945    29750.497 
 1157000    301.67464   -299.76263   -23174.151   -25068.838    1894.6877    1.1610133    30.985945    30.985945    30.985945    29750.497 
 1158000    299.95997   -271.11289   -23226.615   -25110.533    1883.9186    1.1610133    30.985945    30.985945    30.985945    29750.497 
 1159000     309.4633     -991.193   -23111.889   -25055.494    1943.6049    1.1610133    30.985945    30.985945    30.985945    29750.497 
 1160000    295.84077   -217.81008   -23256.194   -25114.241    1858.0477    1.1610133    30.985945    30.985945    30.985945    29750.497 
 1161000    299.79878   -1127.9195   -23220.516   -25103.422    1882.9063    1.1610133    30.985945    30.985945    30.985945    29750.497 
 1162000     293.9016   -695.63732   -23299.276   -25145.144    1845.8686    1.1610133    30.985945    30.985945    30.985945    29750.497 
 1163000    307.40938   -167.45283   -23154.077   -25084.782    1930.7051    1.1610133    30.985945    30.985945    30.985945    29750.497 
 1164000    295.70455    22.176097   -23271.314   -25128.506    1857.1922    1.1610133    30.985945    30.985945    30.985945    29750.497 
 1165000    294.15908   -993.18431   -23250.668   -25098.153    1847.4858    1.1610133    30.985945    30.985945    30.985945    29750.497 
 1166000    294.57822   -706.33501   -23320.352    -25170.47    1850.1182    1.1610133    30.985945    30.985945    30.985945    29750.497 
 1167000    298.04163   -271.81531   -23214.742   -25086.612    1871.8704    1.1610133    30.985945    30.985945    30.985945    29750.497 
 1168000    301.03428   -295.25518   -23204.591   -25095.257    1890.6659    1.1610133    30.985945    30.985945    30.985945    29750.497 
 1169000    289.60673    151.06336   -23166.534   -24985.429    1818.8944    1.1610133    30.985945    30.985945    30.985945    29750.497 
 1170000    302.22015   -608.94936   -23214.869   -25112.982    1898.1139    1.1610133    30.985945    30.985945    30.985945    29750.497 
 1171000    295.49343    168.52585   -23183.445   -25039.311    1855.8662    1.1610133    30.985945    30.985945    30.985945    29750.497 
 1172000    310.70927    303.45893   -23151.206   -25102.636    1951.4303    1.1610133    30.985945    30.985945    30.985945    29750.497 
 1173000    297.77655   -535.86291   -23214.158   -25084.363    1870.2055    1.1610133    30.985945    30.985945    30.985945    29750.497 
 1174000    298.96911     -834.677   -23270.945    -25148.64    1877.6955    1.1610133    30.985945    30.985945    30.985945    29750.497 
 1175000    300.95299    428.86694   -23206.665    -25096.82    1890.1553    1.1610133    30.985945    30.985945    30.985945    29750.497 
 1176000    297.57231    103.92996   -23286.423   -25155.345    1868.9227    1.1610133    30.985945    30.985945    30.985945    29750.497 
 1177000    290.79728    168.34809   -23373.843   -25200.215    1826.3717    1.1610133    30.985945    30.985945    30.985945    29750.497 
 1178000    297.83561    97.555544   -23262.905   -25133.482    1870.5765    1.1610133    30.985945    30.985945    30.985945    29750.497 
 1179000    306.79606   -358.61684   -23213.706   -25140.559    1926.8532    1.1610133    30.985945    30.985945    30.985945    29750.497 
 1180000     297.5145   -223.04693   -23273.523   -25142.082    1868.5597    1.1610133    30.985945    30.985945    30.985945    29750.497 
 1181000     289.6486   -346.07784   -23303.751   -25122.908    1819.1573    1.1610133    30.985945    30.985945    30.985945    29750.497 
 1182000    304.75708   -366.37886   -23220.014   -25134.061    1914.0472    1.1610133    30.985945    30.985945    30.985945    29750.497 
 1183000    299.12153   -623.42999   -23307.206   -25185.859    1878.6528    1.1610133    30.985945    30.985945    30.985945    29750.497 
 1184000    295.65403   -749.28222   -23252.589   -25109.463    1856.8749    1.1610133    30.985945    30.985945    30.985945    29750.497 
 1185000    293.67609   -435.81152   -23212.212   -25056.664    1844.4523    1.1610133    30.985945    30.985945    30.985945    29750.497 
 1186000     301.4008   -588.37491   -23150.014   -25042.982    1892.9679    1.1610133    30.985945    30.985945    30.985945    29750.497 
 1187000    297.27927   -617.09702   -23174.586   -25041.668    1867.0823    1.1610133    30.985945    30.985945    30.985945    29750.497 
 1188000    294.54519   -947.01209   -23244.831   -25094.742    1849.9107    1.1610133    30.985945    30.985945    30.985945    29750.497 
 1189000    300.12123   -174.11905   -23217.016   -25101.948    1884.9314    1.1610133    30.985945    30.985945    30.985945    29750.497 
 1190000    294.92908   -881.22272   -23294.399   -25146.721    1852.3218    1.1610133    30.985945    30.985945    30.985945    29750.497 
 1191000    291.38401   -749.84779   -23276.192   -25106.249    1830.0568    1.1610133    30.985945    30.985945    30.985945    29750.497 
 1192000    309.14012    40.845193   -23210.379   -25151.954    1941.5751    1.1610133    30.985945    30.985945    30.985945    29750.497 
 1193000    303.57348    -616.5806   -23268.312   -25174.926    1906.6135    1.1610133    30.985945    30.985945    30.985945    29750.497 
 1194000    290.14698    83.315982   -23217.747   -25040.035    1822.2875    1.1610133    30.985945    30.985945    30.985945    29750.497 
 1195000    305.98643   -670.80847   -23169.344   -25091.112    1921.7682    1.1610133    30.985945    30.985945    30.985945    29750.497 
 1196000    291.73744    209.89946   -23220.567   -25052.843    1832.2765    1.1610133    30.985945    30.985945    30.985945    29750.497 
 1197000    287.39619    13.800792   -23229.664   -25034.675     1805.011    1.1610133    30.985945    30.985945    30.985945    29750.497 
 1198000    292.12807    239.49107   -23179.243   -25013.973    1834.7299    1.1610133    30.985945    30.985945    30.985945    29750.497 
 1199000    301.84819   -1144.1223   -23235.154   -25130.932    1895.7777    1.1610133    30.985945    30.985945    30.985945    29750.497 
 1200000    296.92633    -818.8499   -23266.747   -25131.613    1864.8657    1.1610133    30.985945    30.985945    30.985945    29750.497 
 1201000    307.08529   -862.24028   -23180.299   -25108.969    1928.6697    1.1610133    30.985945    30.985945    30.985945    29750.497 
 1202000    296.09321   -318.04902   -23266.929   -25126.563    1859.6332    1.1610133    30.985945    30.985945    30.985945    29750.497 
 1203000    295.02141   -605.37056   -23204.238    -25057.14    1852.9017    1.1610133    30.985945    30.985945    30.985945    29750.497 
 1204000    297.40242   -134.24045    -23313.44   -25181.296    1867.8558    1.1610133    30.985945    30.985945    30.985945    29750.497 
 1205000    296.70958   -117.10674   -23214.603   -25078.108    1863.5043    1.1610133    30.985945    30.985945    30.985945    29750.497 
 1206000    299.47922    150.78838   -23144.684   -25025.583    1880.8993    1.1610133    30.985945    30.985945    30.985945    29750.497 
 1207000    301.90372   -73.565722   -23168.064    -25064.19    1896.1265    1.1610133    30.985945    30.985945    30.985945    29750.497 
 1208000    302.33451   -309.76019   -23161.316   -25060.148    1898.8321    1.1610133    30.985945    30.985945    30.985945    29750.497 
 1209000    292.35354   -204.68835   -23218.939   -25055.085    1836.1459    1.1610133    30.985945    30.985945    30.985945    29750.497 
 1210000    299.60943   -1308.0569   -23175.873    -25057.59     1881.717    1.1610133    30.985945    30.985945    30.985945    29750.497 
 1211000    291.06984   -582.33492   -23208.385   -25036.468    1828.0836    1.1610133    30.985945    30.985945    30.985945    29750.497 
 1212000    294.16895   -667.81927   -23255.353   -25102.901    1847.5477    1.1610133    30.985945    30.985945    30.985945    29750.497 
 1213000    296.07135     93.73027   -23280.758   -25140.254    1859.4959    1.1610133    30.985945    30.985945    30.985945    29750.497 
 1214000     293.7454    -841.5922   -23248.593    -25093.48    1844.8876    1.1610133    30.985945    30.985945    30.985945    29750.497 
 1215000    292.44589   -1046.1083   -23313.772   -25150.498    1836.7259    1.1610133    30.985945    30.985945    30.985945    29750.497 
 1216000    296.36141   -1180.6431   -23187.411   -25048.728    1861.3176    1.1610133    30.985945    30.985945    30.985945    29750.497 
 1217000    301.01391   -592.01718   -23277.867   -25168.405    1890.5379    1.1610133    30.985945    30.985945    30.985945    29750.497 
 1218000    299.53672   -982.09246   -23199.829    -25081.09    1881.2604    1.1610133    30.985945    30.985945    30.985945    29750.497 
 1219000    299.16721   -981.53536   -23254.258   -25133.198    1878.9396    1.1610133    30.985945    30.985945    30.985945    29750.497 
 1220000    301.66971    299.36006   -23207.075   -25101.732    1894.6568    1.1610133    30.985945    30.985945    30.985945    29750.497 
 1221000    301.66717   -308.77131   -23193.647   -25088.288    1894.6408    1.1610133    30.985945    30.985945    30.985945    29750.497 
 1222000    301.84358   -944.33695    -23181.77   -25077.518    1895.7488    1.1610133    30.985945    30.985945    30.985945    29750.497 
 1223000    297.36283   -317.22773   -23287.233    -25154.84    1867.6071    1.1610133    30.985945    30.985945    30.985945    29750.497 
 1224000    292.09407    29.356804    -23281.17   -25115.686    1834.5163    1.1610133    30.985945    30.985945    30.985945    29750.497 
 1225000    304.16602    48.147225   -23163.501   -25073.836     1910.335    1.1610133    30.985945    30.985945    30.985945    29750.497 
 1226000    294.03156    420.47087   -23281.694   -25128.379    1846.6849    1.1610133    30.985945    30.985945    30.985945    29750.497 
 1227000    293.94296   -193.63599   -23309.083   -25155.211    1846.1284    1.1610133    30.985945    30.985945    30.985945    29750.497 
 1228000    300.59636   -1149.1303   -23240.351   -25128.266    1887.9155    1.1610133    30.985945    30.985945    30.985945    29750.497 
 1229000    299.84462    200.18698   -23244.761   -25127.956    1883.1942    1.1610133    30.985945    30.985945    30.985945    29750.497 
 1230000    303.05674    56.158612   -23240.154   -25143.522    1903.3681    1.1610133    30.985945    30.985945    30.985945    29750.497 
 1231000    306.23978   -706.93016   -23131.331    -25054.69    1923.3594    1.1610133    30.985945    30.985945    30.985945    29750.497 
 1232000    295.14382   -708.41161   -23285.205   -25138.875    1853.6705    1.1610133    30.985945    30.985945    30.985945    29750.497 
 1233000    299.85738   -353.38725   -23200.983   -25084.258    1883.2743    1.1610133    30.985945    30.985945    30.985945    29750.497 
 1234000    302.20472    395.63783    -23265.38   -25163.397    1898.0169    1.1610133    30.985945    30.985945    30.985945    29750.497 
 1235000    294.19519   -1087.7286   -23254.642   -25102.354    1847.7125    1.1610133    30.985945    30.985945    30.985945    29750.497 
 1236000    294.88426   -126.35036   -23241.897   -25093.938    1852.0403    1.1610133    30.985945    30.985945    30.985945    29750.497 
 1237000    299.42714   -60.318774   -23179.591   -25060.163    1880.5722    1.1610133    30.985945    30.985945    30.985945    29750.497 
 1238000     299.0417    -989.2204   -23205.794   -25083.946    1878.1514    1.1610133    30.985945    30.985945    30.985945    29750.497 
 1239000    292.12122   -1331.8891   -23242.988   -25077.675    1834.6868    1.1610133    30.985945    30.985945    30.985945    29750.497 
 1240000    301.66166    103.98732   -23210.407   -25105.014    1894.6062    1.1610133    30.985945    30.985945    30.985945    29750.497 
 1241000    296.25824   -578.09279   -23284.452   -25145.122    1860.6697    1.1610133    30.985945    30.985945    30.985945    29750.497 
 1242000    299.72779    494.92943    -23139.35    -25021.81    1882.4604    1.1610133    30.985945    30.985945    30.985945    29750.497 
 1243000    291.61829   -660.59762   -23236.592    -25068.12    1831.5281    1.1610133    30.985945    30.985945    30.985945    29750.497 
 1244000    296.10123   -562.41683   -23183.974   -25043.658    1859.6836    1.1610133    30.985945    30.985945    30.985945    29750.497 
 1245000     300.3379   -399.50275   -23207.045   -25093.338    1886.2922    1.1610133    30.985945    30.985945    30.985945    29750.497 
 1246000    296.58839   -243.07801   -23216.477    -25079.22    1862.7432    1.1610133    30.985945    30.985945    30.985945    29750.497 
 1247000    297.29365    347.29389   -23259.315   -25126.488    1867.1726    1.1610133    30.985945    30.985945    30.985945    29750.497 
 1248000    296.73481   -398.86118   -23247.775   -25111.437    1863.6628    1.1610133    30.985945    30.985945    30.985945    29750.497 
 1249000    299.33063   -76.385265   -23206.498   -25086.464     1879.966    1.1610133    30.985945    30.985945    30.985945    29750.497 
 1250000    298.21948   -592.09183   -23211.903   -25084.891    1872.9873    1.1610133    30.985945    30.985945    30.985945    29750.497 
 1251000    296.39879   -982.44886   -23183.527    -25045.08    1861.5524    1.1610133    30.985945    30.985945    30.985945    29750.497 
 1252000    290.78472   -477.73563   -23277.537   -25103.829    1826.2928    1.1610133    30.985945    30.985945    30.985945    29750.497 
 1253000    290.63433    84.476778   -23192.708   -25018.057    1825.3483    1.1610133    30.985945    30.985945    30.985945    29750.497 
 1254000    299.43633   -800.74402   -23136.614   -25017.244    1880.6298    1.1610133    30.985945    30.985945    30.985945    29750.497 
 1255000    293.18945   -240.14312   -23177.666   -25019.062    1841.3959    1.1610133    30.985945    30.985945    30.985945    29750.497 
 1256000    291.50378   -464.08164   -23268.654   -25099.463    1830.8089    1.1610133    30.985945    30.985945    30.985945    29750.497 
 1257000    303.35528    12.486101   -23178.374   -25083.617    1905.2431    1.1610133    30.985945    30.985945    30.985945    29750.497 
 1258000     295.6937   -1505.9435   -23245.299   -25102.423     1857.124    1.1610133    30.985945    30.985945    30.985945    29750.497 
 1259000    294.39926    131.99794   -23280.616    -25129.61    1848.9942    1.1610133    30.985945    30.985945    30.985945    29750.497 
 1260000    289.77001   -554.54549   -23223.083   -25043.003    1819.9199    1.1610133    30.985945    30.985945    30.985945    29750.497 
 1261000    299.83978   -714.90735   -23146.634   -25029.798    1883.1638    1.1610133    30.985945    30.985945    30.985945    29750.497 
 1262000    302.81292   -29.368457   -23193.943    -25095.78    1901.8368    1.1610133    30.985945    30.985945    30.985945    29750.497 
 1263000    296.96481   -1007.7178   -23230.319   -25095.427    1865.1073    1.1610133    30.985945    30.985945    30.985945    29750.497 
 1264000    290.35888    -21.91313   -23281.786   -25105.404    1823.6184    1.1610133    30.985945    30.985945    30.985945    29750.497 
 1265000    306.34481    88.356345    -23168.06   -25092.079     1924.019    1.1610133    30.985945    30.985945    30.985945    29750.497 
 1266000    304.27531   -754.27586     -23120.6   -25031.622    1911.0214    1.1610133    30.985945    30.985945    30.985945    29750.497 
 1267000    309.68794    7.4563157   -23160.522   -25105.538    1945.0158    1.1610133    30.985945    30.985945    30.985945    29750.497 
 1268000    301.88434   -471.86802   -23257.644   -25153.648    1896.0048    1.1610133    30.985945    30.985945    30.985945    29750.497 
 1269000     296.4543   -74.758864   -23231.825   -25093.726    1861.9011    1.1610133    30.985945    30.985945    30.985945    29750.497 
 1270000    299.61445   -193.60549   -23281.311   -25163.059    1881.7486    1.1610133    30.985945    30.985945    30.985945    29750.497 
 1271000    303.26181   -183.53891   -23163.954    -25068.61     1904.656    1.1610133    30.985945    30.985945    30.985945    29750.497 
 1272000     296.7372   -1770.1281   -23239.877   -25103.555    1863.6778    1.1610133    30.985945    30.985945    30.985945    29750.497 
 1273000    302.23469   -974.85998    -23191.41   -25089.615    1898.2052    1.1610133    30.985945    30.985945    30.985945    29750.497 
 1274000    294.48557   -384.42704    -23213.42   -25062.956    1849.5363    1.1610133    30.985945    30.985945    30.985945    29750.497 
 1275000     307.1024    108.66564   -23196.638   -25125.415    1928.7771    1.1610133    30.985945    30.985945    30.985945    29750.497 
 1276000    301.29907    243.79723   -23159.774   -25052.103    1892.3289    1.1610133    30.985945    30.985945    30.985945    29750.497 
 1277000    302.33515   -169.52981   -23226.695   -25125.531    1898.8361    1.1610133    30.985945    30.985945    30.985945    29750.497 
 1278000    303.15019   -262.95264   -23122.089   -25026.044     1903.955    1.1610133    30.985945    30.985945    30.985945    29750.497 
 1279000     304.4498   -894.69092   -23160.607   -25072.724    1912.1173    1.1610133    30.985945    30.985945    30.985945    29750.497 
 1280000    297.56252    479.88179   -23187.043   -25055.904    1868.8613    1.1610133    30.985945    30.985945    30.985945    29750.497 
 1281000    296.83595   -303.21133   -23264.614   -25128.912     1864.298    1.1610133    30.985945    30.985945    30.985945    29750.497 
 1282000    300.16298   -1110.0433   -23235.275   -25120.469    1885.1936    1.1610133    30.985945    30.985945    30.985945    29750.497 
 1283000    297.71739    -682.8037   -23134.677   -25004.511    1869.8339    1.1610133    30.985945    30.985945    30.985945    29750.497 
 1284000    304.72163    250.78866   -23175.057   -25088.882    1913.8245    1.1610133    30.985945    30.985945    30.985945    29750.497 
 1285000    298.02688   -411.54157    -23083.53   -24955.308    1871.7777    1.1610133    30.985945    30.985945    30.985945    29750.497 
 1286000    302.68991    905.20666   -23174.809   -25075.873    1901.0642    1.1610133    30.985945    30.985945    30.985945    29750.497 
 1287000    301.47818   -650.15527   -23220.234   -25113.688    1893.4538    1.1610133    30.985945    30.985945    30.985945    29750.497 
 1288000    299.04231    257.32066   -23186.441   -25064.596    1878.1552    1.1610133    30.985945    30.985945    30.985945    29750.497 
 1289000    296.63383    842.24403    -23325.45   -25188.479    1863.0286    1.1610133    30.985945    30.985945    30.985945    29750.497 
 1290000    303.40667   -906.23688   -23193.867   -25099.433    1905.5659    1.1610133    30.985945    30.985945    30.985945    29750.497 
 1291000    295.74999   -768.62963   -23287.969   -25145.446    1857.4776    1.1610133    30.985945    30.985945    30.985945    29750.497 
 1292000    295.22418   -1711.0857   -23269.035    -25123.21    1854.1752    1.1610133    30.985945    30.985945    30.985945    29750.497 
 1293000    297.85387   -338.66758   -23310.348   -25181.039    1870.6911    1.1610133    30.985945    30.985945    30.985945    29750.497 
 1294000    296.71735   -434.18436   -23239.653   -25103.206    1863.5531    1.1610133    30.985945    30.985945    30.985945    29750.497 
 1295000    309.73438   -327.61343   -23167.248   -25112.556    1945.3074    1.1610133    30.985945    30.985945    30.985945    29750.497 
 1296000    284.12361   -294.65511   -23338.211   -25122.668    1784.4573    1.1610133    30.985945    30.985945    30.985945    29750.497 
 1297000    299.84819   -757.60647   -23192.752   -25075.968    1883.2166    1.1610133    30.985945    30.985945    30.985945    29750.497 
 1298000    295.15525    168.84778    -23188.62   -25042.362    1853.7423    1.1610133    30.985945    30.985945    30.985945    29750.497 
 1299000    300.67048    108.03886   -23264.701   -25153.082    1888.3811    1.1610133    30.985945    30.985945    30.985945    29750.497 
 1300000    296.61003   -540.30664   -23219.735   -25082.615    1862.8791    1.1610133    30.985945    30.985945    30.985945    29750.497 
 1301000    287.47569   -262.30029   -23233.849   -25039.359    1805.5103    1.1610133    30.985945    30.985945    30.985945    29750.497 
 1302000    300.68654   -176.97166   -23162.137   -25050.619    1888.4819    1.1610133    30.985945    30.985945    30.985945    29750.497 
 1303000    298.38401   -1069.5796   -23201.231   -25075.252    1874.0207    1.1610133    30.985945    30.985945    30.985945    29750.497 
 1304000    298.03835   -512.64127    -23227.38    -25099.23    1871.8498    1.1610133    30.985945    30.985945    30.985945    29750.497 
 1305000    292.12975   -1031.3212   -23322.726   -25157.466    1834.7404    1.1610133    30.985945    30.985945    30.985945    29750.497 
 1306000    297.50911   -618.29653   -23268.239   -25136.765    1868.5258    1.1610133    30.985945    30.985945    30.985945    29750.497 
 1307000    298.35818   -390.50049   -23167.497   -25041.355    1873.8585    1.1610133    30.985945    30.985945    30.985945    29750.497 
 1308000    293.28424   -291.14028    -23218.27   -25060.261    1841.9912    1.1610133    30.985945    30.985945    30.985945    29750.497 
 1309000    309.65492    416.19752   -23125.985   -25070.793    1944.8084    1.1610133    30.985945    30.985945    30.985945    29750.497 
 1310000    297.89737    298.07948   -23196.168   -25067.132    1870.9644    1.1610133    30.985945    30.985945    30.985945    29750.497 
 1311000    299.12722   -272.39605    -23178.44   -25057.128    1878.6885    1.1610133    30.985945    30.985945    30.985945    29750.497 
 1312000    304.79996   -639.84717   -23212.614   -25126.931    1914.3165    1.1610133    30.985945    30.985945    30.985945    29750.497 
 1313000    299.92361    14.469925   -23265.521   -25149.212    1883.6903    1.1610133    30.985945    30.985945    30.985945    29750.497 
 1314000    290.19071   -609.44011   -23399.639   -25222.201    1822.5621    1.1610133    30.985945    30.985945    30.985945    29750.497 
 1315000    303.76784     64.25788   -23145.241   -25053.075    1907.8342    1.1610133    30.985945    30.985945    30.985945    29750.497 
 1316000    294.39625   -876.50258   -23350.934   -25199.909    1848.9753    1.1610133    30.985945    30.985945    30.985945    29750.497 
 1317000    293.54141   -762.27616   -23253.315   -25096.922    1843.6064    1.1610133    30.985945    30.985945    30.985945    29750.497 
 1318000    291.30528   -713.26546   -23261.082   -25090.644    1829.5623    1.1610133    30.985945    30.985945    30.985945    29750.497 
 1319000    297.35938   -488.48424   -23198.975   -25066.561    1867.5854    1.1610133    30.985945    30.985945    30.985945    29750.497 
 1320000    291.23655   -557.71065   -23237.738   -25066.869    1829.1306    1.1610133    30.985945    30.985945    30.985945    29750.497 
 1321000    299.50989   -891.45273   -23242.541   -25123.633    1881.0919    1.1610133    30.985945    30.985945    30.985945    29750.497 
 1322000     300.5335    -103.0857   -23199.717   -25087.237    1887.5207    1.1610133    30.985945    30.985945    30.985945    29750.497 
 1323000    290.05954   -651.18675   -23306.289   -25128.027    1821.7383    1.1610133    30.985945    30.985945    30.985945    29750.497 
 1324000    304.21348   -728.07184   -23198.638   -25109.271    1910.6331    1.1610133    30.985945    30.985945    30.985945    29750.497 
 1325000    296.09352   -197.27002   -23197.603   -25057.238    1859.6351    1.1610133    30.985945    30.985945    30.985945    29750.497 
 1326000    296.29282    680.92538   -23207.882   -25068.768    1860.8869    1.1610133    30.985945    30.985945    30.985945    29750.497 
 1327000    292.47681   -604.10559   -23274.733   -25111.654    1836.9201    1.1610133    30.985945    30.985945    30.985945    29750.497 
 1328000    305.38698    108.22639   -23193.907    -25111.91    1918.0033    1.1610133    30.985945    30.985945    30.985945    29750.497 
 1329000    297.11232    536.41807   -23272.135   -25138.168    1866.0338    1.1610133    30.985945    30.985945    30.985945    29750.497 
 1330000    306.75611   -1.2399942    -23085.55   -25012.153    1926.6023    1.1610133    30.985945    30.985945    30.985945    29750.497 
 1331000    305.20622     -1028.18    -23221.05   -25137.918     1916.868    1.1610133    30.985945    30.985945    30.985945    29750.497 
 1332000    308.88229   -402.72095   -23193.252   -25133.208    1939.9559    1.1610133    30.985945    30.985945    30.985945    29750.497 
 1333000    296.83975   -712.53686   -23264.164   -25128.486    1864.3219    1.1610133    30.985945    30.985945    30.985945    29750.497 
 1334000    297.80604    -334.1136   -23222.898   -25093.289    1870.3907    1.1610133    30.985945    30.985945    30.985945    29750.497 
 1335000    299.90921   -1143.6616   -23193.614   -25077.214    1883.5998    1.1610133    30.985945    30.985945    30.985945    29750.497 
 1336000    302.34627   -591.45851   -23130.451   -25029.357    1898.9059    1.1610133    30.985945    30.985945    30.985945    29750.497 
 1337000    290.67146    114.04315   -23209.183   -25034.765    1825.5815    1.1610133    30.985945    30.985945    30.985945    29750.497 
 1338000    291.72604    433.60544   -23125.729   -24957.934    1832.2049    1.1610133    30.985945    30.985945    30.985945    29750.497 
 1339000    300.87899   -350.04519   -23249.923   -25139.614    1889.6906    1.1610133    30.985945    30.985945    30.985945    29750.497 
 1340000    290.83803   -701.70121   -23241.539   -25068.167    1826.6277    1.1610133    30.985945    30.985945    30.985945    29750.497 
 1341000    301.16308    116.67652   -23168.862   -25060.337    1891.4748    1.1610133    30.985945    30.985945    30.985945    29750.497 
 1342000    287.42236   -897.68237    -23354.93   -25160.105    1805.1753    1.1610133    30.985945    30.985945    30.985945    29750.497 
 1343000    295.99522    -632.1357   -23241.505   -25100.523    1859.0178    1.1610133    30.985945    30.985945    30.985945    29750.497 
 1344000    296.41416   -52.409949   -23234.711    -25096.36    1861.6489    1.1610133    30.985945    30.985945    30.985945    29750.497 
 1345000    302.86075   -351.45385   -23231.581   -25133.718    1902.1372    1.1610133    30.985945    30.985945    30.985945    29750.497 
 1346000    299.85153   -256.42233     -23294.2   -25177.437    1883.2376    1.1610133    30.985945    30.985945    30.985945    29750.497 
 1347000    294.36566   -461.44002   -23221.451   -25070.234    1848.7832    1.1610133    30.985945    30.985945    30.985945    29750.497 
 1348000    302.23947   -409.37621    -23195.67   -25093.905    1898.2352    1.1610133    30.985945    30.985945    30.985945    29750.497 
 1349000    295.59611   -505.36758   -23248.166   -25104.677    1856.5111    1.1610133    30.985945    30.985945    30.985945    29750.497 
 1350000    295.43996   -615.20833    -23219.68   -25075.211    1855.5304    1.1610133    30.985945    30.985945    30.985945    29750.497 
 1351000    291.41085    252.70917   -23204.484   -25034.709    1830.2253    1.1610133    30.985945    30.985945    30.985945    29750.497 
 1352000    298.14285   -629.71625   -23267.358   -25139.864    1872.5061    1.1610133    30.985945    30.985945    30.985945    29750.497 
 1353000    297.27419     212.8852   -23242.785   -25109.835    1867.0504    1.1610133    30.985945    30.985945    30.985945    29750.497 
 1354000    290.89548   -739.80883   -23292.149   -25119.137    1826.9885    1.1610133    30.985945    30.985945    30.985945    29750.497 
 1355000    295.91905    209.96783   -23246.163   -25104.702    1858.5393    1.1610133    30.985945    30.985945    30.985945    29750.497 
 1356000    283.61976   -165.55465   -23369.081   -25150.374    1781.2928    1.1610133    30.985945    30.985945    30.985945    29750.497 
 1357000     294.3078   -900.77808   -23266.988   -25115.408    1848.4198    1.1610133    30.985945    30.985945    30.985945    29750.497 
 1358000    296.30029   -1153.5259   -23217.669   -25078.603    1860.9338    1.1610133    30.985945    30.985945    30.985945    29750.497 
 1359000    301.13302   -600.63181   -23133.248   -25024.534     1891.286    1.1610133    30.985945    30.985945    30.985945    29750.497 
 1360000    292.85888   -1484.8019   -23249.232   -25088.551    1839.3197    1.1610133    30.985945    30.985945    30.985945    29750.497 
 1361000    290.90204   -970.86927   -23205.481    -25032.51    1827.0297    1.1610133    30.985945    30.985945    30.985945    29750.497 
 1362000    295.33643   -1009.0268   -23247.667   -25102.548    1854.8802    1.1610133    30.985945    30.985945    30.985945    29750.497 
 1363000    301.98267   -764.68302   -23237.578     -25134.2    1896.6223    1.1610133    30.985945    30.985945    30.985945    29750.497 
 1364000    295.82763    655.74406   -23214.316   -25072.281    1857.9652    1.1610133    30.985945    30.985945    30.985945    29750.497 
 1365000    308.34672     264.3251   -23227.718    -25164.31    1936.5921    1.1610133    30.985945    30.985945    30.985945    29750.497 
 1366000    296.53105    90.826385   -23293.512   -25155.895    1862.3831    1.1610133    30.985945    30.985945    30.985945    29750.497 
 1367000    293.82744    305.49537    -23242.39   -25087.792    1845.4029    1.1610133    30.985945    30.985945    30.985945    29750.497 
 1368000      300.532   -884.84797   -23182.891   -25070.402    1887.5113    1.1610133    30.985945    30.985945    30.985945    29750.497 
 1369000    305.02737   -366.77239   -23199.919   -25115.664    1915.7448    1.1610133    30.985945    30.985945    30.985945    29750.497 
 1370000    290.42521   -581.39728   -23251.813   -25075.848    1824.0349    1.1610133    30.985945    30.985945    30.985945    29750.497 
 1371000    302.95937   -236.47053   -23133.084    -25035.84    1902.7565    1.1610133    30.985945    30.985945    30.985945    29750.497 
 1372000    300.65368   -55.326905   -23222.977   -25111.252    1888.2755    1.1610133    30.985945    30.985945    30.985945    29750.497 
 1373000    296.46602   -852.47278    -23213.83   -25075.805    1861.9747    1.1610133    30.985945    30.985945    30.985945    29750.497 
 1374000    306.74397   -1137.1399   -23135.104    -25061.63     1926.526    1.1610133    30.985945    30.985945    30.985945    29750.497 
 1375000    295.07595   -534.07394   -23194.919   -25048.163    1853.2442    1.1610133    30.985945    30.985945    30.985945    29750.497 
 1376000    289.07583   -424.80197   -23263.618   -25079.178      1815.56    1.1610133    30.985945    30.985945    30.985945    29750.497 
 1377000    300.71518   -1118.8882   -23240.582   -25129.244    1888.6617    1.1610133    30.985945    30.985945    30.985945    29750.497 
 1378000    297.27142   -187.50737   -23221.553   -25088.586     1867.033    1.1610133    30.985945    30.985945    30.985945    29750.497 
 1379000    301.69685   -162.02811   -23216.592    -25111.42    1894.8272    1.1610133    30.985945    30.985945    30.985945    29750.497 
 1380000    289.92858   -840.62813   -23273.896   -25094.812    1820.9158    1.1610133    30.985945    30.985945    30.985945    29750.497 
 1381000    296.82193    -469.2721   -23272.332   -25136.542      1864.21    1.1610133    30.985945    30.985945    30.985945    29750.497 
 1382000    301.51986   -1285.5922   -23114.351   -25008.067    1893.7156    1.1610133    30.985945    30.985945    30.985945    29750.497 
 1383000    299.09049   -79.440896   -23222.504   -25100.962    1878.4578    1.1610133    30.985945    30.985945    30.985945    29750.497 
 1384000    290.04868   -423.26649   -23250.815   -25072.485    1821.6701    1.1610133    30.985945    30.985945    30.985945    29750.497 
 1385000    296.91953   -249.44413   -23230.598   -25095.421    1864.8229    1.1610133    30.985945    30.985945    30.985945    29750.497 
 1386000    287.40157    61.958484   -23219.688   -25024.733    1805.0448    1.1610133    30.985945    30.985945    30.985945    29750.497 
 1387000    301.35925   -384.03931   -23186.577   -25079.284    1892.7069    1.1610133    30.985945    30.985945    30.985945    29750.497 
 1388000    299.04777   -1183.5426   -23216.569   -25094.759    1878.1895    1.1610133    30.985945    30.985945    30.985945    29750.497 
 1389000    304.05333   -1043.5456   -23205.885   -25115.512    1909.6273    1.1610133    30.985945    30.985945    30.985945    29750.497 
 1390000    300.53662   -269.51849   -23127.076   -25014.616    1887.5403    1.1610133    30.985945    30.985945    30.985945    29750.497 
 1391000    293.28118   -635.48287   -23219.999   -25061.971    1841.9721    1.1610133    30.985945    30.985945    30.985945    29750.497 
 1392000    303.07162   -186.22837   -23139.579   -25043.041    1903.4616    1.1610133    30.985945    30.985945    30.985945    29750.497 
 1393000    297.94876   -678.15195   -23176.426   -25047.714    1871.2871    1.1610133    30.985945    30.985945    30.985945    29750.497 
 1394000    295.72986   -149.18097   -23136.921   -24994.272    1857.3512    1.1610133    30.985945    30.985945    30.985945    29750.497 
 1395000    295.61402   -1001.0681    -23182.83   -25039.453    1856.6236    1.1610133    30.985945    30.985945    30.985945    29750.497 
 1396000    297.89919   -524.17164   -23268.305   -25139.281    1870.9757    1.1610133    30.985945    30.985945    30.985945    29750.497 
 1397000    296.21832    463.44525   -23230.222   -25090.641     1860.419    1.1610133    30.985945    30.985945    30.985945    29750.497 
 1398000    303.75999   -825.60248   -23209.548   -25117.333    1907.7849    1.1610133    30.985945    30.985945    30.985945    29750.497 
 1399000    299.29031   -621.92146   -23197.196   -25076.909    1879.7128    1.1610133    30.985945    30.985945    30.985945    29750.497 
 1400000    293.83661    -68.88297   -23286.698   -25132.158    1845.4605    1.1610133    30.985945    30.985945    30.985945    29750.497 
 1401000    294.81771   -7.3599716   -23182.238    -25033.86    1851.6223    1.1610133    30.985945    30.985945    30.985945    29750.497 
 1402000    297.38076   -785.73851   -23172.929   -25040.649    1867.7197    1.1610133    30.985945    30.985945    30.985945    29750.497 
 1403000    297.50813   -898.44324   -23246.597   -25115.117    1868.5197    1.1610133    30.985945    30.985945    30.985945    29750.497 
 1404000    296.00636   -240.77931   -23298.521   -25157.608    1859.0877    1.1610133    30.985945    30.985945    30.985945    29750.497 
 1405000      298.861   -841.96398   -23260.957   -25137.973    1877.0164    1.1610133    30.985945    30.985945    30.985945    29750.497 
 1406000     304.7804   -326.10361   -23229.737   -25143.931    1914.1937    1.1610133    30.985945    30.985945    30.985945    29750.497 
 1407000    295.39356    690.92026   -23299.951    -25155.19     1855.239    1.1610133    30.985945    30.985945    30.985945    29750.497 
 1408000    297.94875   -973.53584   -23154.299   -25025.586    1871.2871    1.1610133    30.985945    30.985945    30.985945    29750.497 
 1409000    297.31483   -524.63202   -23291.814    -25159.12    1867.3056    1.1610133    30.985945    30.985945    30.985945    29750.497 
 1410000    294.04628    15.112036   -23205.313   -25052.091    1846.7773    1.1610133    30.985945    30.985945    30.985945    29750.497 
 1411000    291.08839   -271.05528   -23308.328   -25136.528    1828.2001    1.1610133    30.985945    30.985945    30.985945    29750.497 
 1412000     309.0816   -906.33069   -23142.967   -25084.175    1941.2076    1.1610133    30.985945    30.985945    30.985945    29750.497 
 1413000    309.22805    -1913.011   -23098.477   -25040.605    1942.1274    1.1610133    30.985945    30.985945    30.985945    29750.497 
 1414000    295.19798   -146.98855    -23206.84   -25060.851    1854.0106    1.1610133    30.985945    30.985945    30.985945    29750.497 
 1415000    301.00338   -8.9614155   -23219.929   -25110.401    1890.4718    1.1610133    30.985945    30.985945    30.985945    29750.497 
 1416000    299.79442   -880.54953   -23106.189   -24989.068    1882.8789    1.1610133    30.985945    30.985945    30.985945    29750.497 
 1417000    297.48967    414.81988   -23295.701   -25164.104    1868.4037    1.1610133    30.985945    30.985945    30.985945    29750.497 
 1418000    306.64405   -546.36488   -23151.634   -25077.533    1925.8984    1.1610133    30.985945    30.985945    30.985945    29750.497 
 1419000    305.80306   -520.48827    -23172.81   -25093.426    1920.6166    1.1610133    30.985945    30.985945    30.985945    29750.497 
 1420000    289.32239    429.65793   -23314.252    -25131.36    1817.1086    1.1610133    30.985945    30.985945    30.985945    29750.497 
 1421000    301.52595   -603.47887   -23198.879   -25092.633    1893.7539    1.1610133    30.985945    30.985945    30.985945    29750.497 
 1422000    290.10027   -149.01908    -23276.37   -25098.364    1821.9941    1.1610133    30.985945    30.985945    30.985945    29750.497 
 1423000    308.58619   -250.30078    -23115.92   -25054.016    1938.0962    1.1610133    30.985945    30.985945    30.985945    29750.497 
 1424000    303.01767    -282.9601   -23256.292   -25159.415    1903.1227    1.1610133    30.985945    30.985945    30.985945    29750.497 
 1425000    301.16682   -636.46579   -23150.679   -25042.178    1891.4984    1.1610133    30.985945    30.985945    30.985945    29750.497 
 1426000    300.71323    -970.3271   -23230.276   -25118.925    1888.6495    1.1610133    30.985945    30.985945    30.985945    29750.497 
 1427000    297.47768   -154.44801   -23254.609   -25122.937    1868.3284    1.1610133    30.985945    30.985945    30.985945    29750.497 
 1428000    303.16701    -204.8183   -23225.498   -25129.558    1904.0607    1.1610133    30.985945    30.985945    30.985945    29750.497 
 1429000    295.68103   -463.67685   -23293.097   -25150.141    1857.0445    1.1610133    30.985945    30.985945    30.985945    29750.497 
 1430000    293.91265   -318.50953   -23172.805   -25018.743     1845.938    1.1610133    30.985945    30.985945    30.985945    29750.497 
 1431000     295.6256   -271.02225   -23269.877   -25126.574    1856.6963    1.1610133    30.985945    30.985945    30.985945    29750.497 
 1432000    296.58813   -1035.5229   -23173.814   -25036.556    1862.7415    1.1610133    30.985945    30.985945    30.985945    29750.497 
 1433000    296.66498    -1152.789   -23178.348   -25041.572    1863.2242    1.1610133    30.985945    30.985945    30.985945    29750.497 
 1434000    297.12929   -127.75116   -23245.385   -25111.525    1866.1403    1.1610133    30.985945    30.985945    30.985945    29750.497 
 1435000    298.91886   -238.17312    -23202.17    -25079.55    1877.3799    1.1610133    30.985945    30.985945    30.985945    29750.497 
 1436000    301.94915   -358.01681   -23223.613   -25120.025    1896.4118    1.1610133    30.985945    30.985945    30.985945    29750.497 
 1437000    304.69769   -993.62361   -23239.198   -25152.872    1913.6742    1.1610133    30.985945    30.985945    30.985945    29750.497 
 1438000    294.14535   -568.44005   -23275.681   -25123.081    1847.3995    1.1610133    30.985945    30.985945    30.985945    29750.497 
 1439000    291.21332    381.98919   -23279.118   -25108.103    1828.9847    1.1610133    30.985945    30.985945    30.985945    29750.497 
 1440000    295.64907   -1212.0551   -23218.878   -25075.722    1856.8437    1.1610133    30.985945    30.985945    30.985945    29750.497 
 1441000    299.31161   -486.43015   -23172.585   -25052.431    1879.8466    1.1610133    30.985945    30.985945    30.985945    29750.497 
 1442000    302.83196    218.61944   -23241.439   -25143.395    1901.9563    1.1610133    30.985945    30.985945    30.985945    29750.497 
 1443000    295.61542   -1330.1869    -23300.13   -25156.762    1856.6324    1.1610133    30.985945    30.985945    30.985945    29750.497 
 1444000    294.35867   -1082.4928   -23275.175   -25123.914    1848.7393    1.1610133    30.985945    30.985945    30.985945    29750.497 
 1445000    299.60815   -169.91852   -23171.487   -25053.196     1881.709    1.1610133    30.985945    30.985945    30.985945    29750.497 
 1446000    301.62977   -584.78921   -23164.129   -25058.535    1894.4059    1.1610133    30.985945    30.985945    30.985945    29750.497 
 1447000    301.97836   -753.19913   -23183.829   -25080.424    1896.5953    1.1610133    30.985945    30.985945    30.985945    29750.497 
 1448000    303.66658   -579.50411   -23215.596   -25122.795    1907.1982    1.1610133    30.985945    30.985945    30.985945    29750.497 
 1449000    286.10463   -522.30885   -23242.233   -25039.132    1796.8993    1.1610133    30.985945    30.985945    30.985945    29750.497 
 1450000    307.44485   -239.58048   -23176.049   -25106.977    1930.9279    1.1610133    30.985945    30.985945    30.985945    29750.497 
 1451000    295.50725   -1487.3413   -23226.283   -25082.236     1855.953    1.1610133    30.985945    30.985945    30.985945    29750.497 
 1452000    306.98067   -209.39724    -23099.88   -25027.893    1928.0126    1.1610133    30.985945    30.985945    30.985945    29750.497 
 1453000    302.97493   -409.98654   -23075.959   -24978.814    1902.8543    1.1610133    30.985945    30.985945    30.985945    29750.497 
 1454000    299.73541    254.35339    -23210.54   -25093.048    1882.5082    1.1610133    30.985945    30.985945    30.985945    29750.497 
 1455000    304.35676   -160.31744   -23214.933   -25126.466     1911.533    1.1610133    30.985945    30.985945    30.985945    29750.497 
 1456000    303.40303   -550.60471   -23181.788   -25087.331     1905.543    1.1610133    30.985945    30.985945    30.985945    29750.497 
 1457000    302.05137    97.937734   -23228.232   -25125.285    1897.0538    1.1610133    30.985945    30.985945    30.985945    29750.497 
 1458000    300.28225   -147.42806   -23292.573   -25178.516    1885.9427    1.1610133    30.985945    30.985945    30.985945    29750.497 
 1459000    309.29339   -457.10925   -23224.998   -25167.536    1942.5378    1.1610133    30.985945    30.985945    30.985945    29750.497 
 1460000    294.88206    94.327787    -23202.74   -25054.766    1852.0265    1.1610133    30.985945    30.985945    30.985945    29750.497 
 1461000    294.23986   -81.055974   -23276.069   -25124.062    1847.9931    1.1610133    30.985945    30.985945    30.985945    29750.497 
 1462000    297.63293   -517.38151   -23181.309   -25050.613    1869.3035    1.1610133    30.985945    30.985945    30.985945    29750.497 
 1463000    289.08137   -665.85172   -23316.901   -25132.496    1815.5949    1.1610133    30.985945    30.985945    30.985945    29750.497 
 1464000    289.41464    210.91209   -23318.288   -25135.976     1817.688    1.1610133    30.985945    30.985945    30.985945    29750.497 
 1465000    289.94093   -59.747045   -23257.099   -25078.093    1820.9934    1.1610133    30.985945    30.985945    30.985945    29750.497 
 1466000    295.82179   -153.42347   -23241.666   -25099.595    1857.9285    1.1610133    30.985945    30.985945    30.985945    29750.497 
 1467000    312.65251   -229.39389   -23084.515    -25048.15     1963.635    1.1610133    30.985945    30.985945    30.985945    29750.497 
 1468000    294.19131   -827.92527   -23243.663   -25091.351    1847.6881    1.1610133    30.985945    30.985945    30.985945    29750.497 
 1469000    302.82078    -164.1798   -23185.705   -25087.591    1901.8861    1.1610133    30.985945    30.985945    30.985945    29750.497 
 1470000    295.77844   -448.98324   -23157.244     -25014.9    1857.6563    1.1610133    30.985945    30.985945    30.985945    29750.497 
 1471000    298.18638   -1277.2075    -23237.65   -25110.429    1872.7794    1.1610133    30.985945    30.985945    30.985945    29750.497 
 1472000     304.1642     13.12308   -23179.632   -25089.955    1910.3236    1.1610133    30.985945    30.985945    30.985945    29750.497 
 1473000    303.03692   -749.86462    -23186.97   -25090.214    1903.2436    1.1610133    30.985945    30.985945    30.985945    29750.497 
 1474000    304.04683   -1042.4079   -23138.925   -25048.512    1909.5864    1.1610133    30.985945    30.985945    30.985945    29750.497 
 1475000    291.41547    -363.9428   -23262.566    -25092.82    1830.2543    1.1610133    30.985945    30.985945    30.985945    29750.497 
 1476000    295.12749   -48.866496   -23227.259   -25080.827    1853.5679    1.1610133    30.985945    30.985945    30.985945    29750.497 
 1477000    290.35766    -197.9072     -23320.8   -25144.411    1823.6107    1.1610133    30.985945    30.985945    30.985945    29750.497 
 1478000    306.42365    794.26165   -23175.817   -25100.331    1924.5142    1.1610133    30.985945    30.985945    30.985945    29750.497 
 1479000    297.08278   -1292.9707   -23262.741   -25128.589    1865.8483    1.1610133    30.985945    30.985945    30.985945    29750.497 
 1480000    292.47822   -747.04441   -23241.054   -25077.983     1836.929    1.1610133    30.985945    30.985945    30.985945    29750.497 
 1481000    294.72234   -629.76634   -23231.724   -25082.747    1851.0233    1.1610133    30.985945    30.985945    30.985945    29750.497 
 1482000      303.029   -55.943645   -23209.584   -25112.778    1903.1939    1.1610133    30.985945    30.985945    30.985945    29750.497 
 1483000    308.18841    57.951999   -23199.801   -25135.399    1935.5979    1.1610133    30.985945    30.985945    30.985945    29750.497 
 1484000    294.89813    -889.0099   -23232.376   -25084.503    1852.1274    1.1610133    30.985945    30.985945    30.985945    29750.497 
 1485000    307.85637   -303.56393   -23115.575   -25049.088    1933.5125    1.1610133    30.985945    30.985945    30.985945    29750.497 
 1486000    306.40786   -887.22125   -23177.122   -25101.537    1924.4151    1.1610133    30.985945    30.985945    30.985945    29750.497 
 1487000    307.28397   -184.11198   -23111.569   -25041.487    1929.9175    1.1610133    30.985945    30.985945    30.985945    29750.497 
 1488000    291.25953   -1051.4316   -23222.835   -25052.109     1829.275    1.1610133    30.985945    30.985945    30.985945    29750.497 
 1489000      288.366    442.97905   -23285.494   -25096.596    1811.1019    1.1610133    30.985945    30.985945    30.985945    29750.497 
 1490000    299.53555   -518.26961   -23168.294   -25049.547     1881.253    1.1610133    30.985945    30.985945    30.985945    29750.497 
 1491000    300.92185    -601.5043    -23113.26    -25003.22    1889.9597    1.1610133    30.985945    30.985945    30.985945    29750.497 
 1492000    300.29628   -377.87918   -23216.476   -25102.507    1886.0309    1.1610133    30.985945    30.985945    30.985945    29750.497 
 1493000     292.8533   -313.99793   -23214.175    -25053.46    1839.2847    1.1610133    30.985945    30.985945    30.985945    29750.497 
 1494000    299.84681    249.77689   -23183.457   -25066.665    1883.2079    1.1610133    30.985945    30.985945    30.985945    29750.497 
 1495000    293.66371    179.95891   -23143.376    -24987.75    1844.3745    1.1610133    30.985945    30.985945    30.985945    29750.497 
 1496000    306.20197   -1092.6378   -23091.164   -25014.286    1923.1219    1.1610133    30.985945    30.985945    30.985945    29750.497 
 1497000    302.22673   -898.48105   -23124.569   -25022.724    1898.1552    1.1610133    30.985945    30.985945    30.985945    29750.497 
 1498000     301.1217    78.483043   -23076.845    -24968.06    1891.2149    1.1610133    30.985945    30.985945    30.985945    29750.497 
 1499000    293.83408   -709.83064   -23143.669   -24989.114    1845.4445    1.1610133    30.985945    30.985945    30.985945    29750.497 
 1500000     303.8334    762.66679   -23208.056   -25116.302    1908.2459    1.1610133    30.985945    30.985945    30.985945    29750.497 
 1501000    294.41508    -141.9145   -23185.332   -25034.425    1849.0935    1.1610133    30.985945    30.985945    30.985945    29750.497 
 1502000    303.17145   -216.83942   -23166.772   -25070.861    1904.0886    1.1610133    30.985945    30.985945    30.985945    29750.497 
 1503000    294.56517   -722.77291   -23289.698   -25139.735    1850.0362    1.1610133    30.985945    30.985945    30.985945    29750.497 
 1504000     292.8753   -122.66846   -23345.587    -25185.01    1839.4229    1.1610133    30.985945    30.985945    30.985945    29750.497 
 1505000    294.06179   -819.17483   -23176.721   -25023.596    1846.8747    1.1610133    30.985945    30.985945    30.985945    29750.497 
 1506000    304.64651   -823.35922   -23128.817    -25042.17    1913.3528    1.1610133    30.985945    30.985945    30.985945    29750.497 
 1507000    293.63889    -603.1404   -23201.991    -25046.21    1844.2186    1.1610133    30.985945    30.985945    30.985945    29750.497 
 1508000    292.13891   -213.73141   -23297.726   -25132.524    1834.7979    1.1610133    30.985945    30.985945    30.985945    29750.497 
 1509000    281.76159   -421.16202   -23304.769   -25074.391    1769.6225    1.1610133    30.985945    30.985945    30.985945    29750.497 
 1510000    302.40417   -1050.3024   -23137.707   -25036.976    1899.2696    1.1610133    30.985945    30.985945    30.985945    29750.497 
 1511000    304.64979   -27.692319   -23154.237    -25067.61    1913.3733    1.1610133    30.985945    30.985945    30.985945    29750.497 
 1512000    299.08343    -1126.328     -23117.2   -24995.613    1878.4135    1.1610133    30.985945    30.985945    30.985945    29750.497 
 1513000    296.89445   -510.73824   -23189.816   -25054.481    1864.6654    1.1610133    30.985945    30.985945    30.985945    29750.497 
 1514000    293.00432   -1352.1234   -23200.157    -25040.39    1840.2332    1.1610133    30.985945    30.985945    30.985945    29750.497 
 1515000    298.40963   -137.63706   -23199.064   -25073.246    1874.1816    1.1610133    30.985945    30.985945    30.985945    29750.497 
 1516000    295.25373   -387.78216   -23200.827   -25055.188    1854.3608    1.1610133    30.985945    30.985945    30.985945    29750.497 
 1517000    285.34852   -282.35044   -23317.862   -25110.013    1792.1504    1.1610133    30.985945    30.985945    30.985945    29750.497 
 1518000    294.42964   -620.74148   -23217.147   -25066.332     1849.185    1.1610133    30.985945    30.985945    30.985945    29750.497 
 1519000    292.10318   -548.56736   -23358.281   -25192.855    1834.5735    1.1610133    30.985945    30.985945    30.985945    29750.497 
 1520000    290.01578   -467.27432   -23240.765   -25062.229    1821.4635    1.1610133    30.985945    30.985945    30.985945    29750.497 
 1521000    297.54019    426.86789   -23057.475   -24926.196     1868.721    1.1610133    30.985945    30.985945    30.985945    29750.497 
 1522000    298.07728    -579.8954   -23181.883   -25053.978    1872.0943    1.1610133    30.985945    30.985945    30.985945    29750.497 
 1523000    305.69638   -328.50759   -23259.397   -25179.343    1919.9465    1.1610133    30.985945    30.985945    30.985945    29750.497 
 1524000    299.30479   -992.40217   -23228.158   -25107.962    1879.8037    1.1610133    30.985945    30.985945    30.985945    29750.497 
 1525000     295.5278   -109.07609   -23217.667   -25073.749    1856.0821    1.1610133    30.985945    30.985945    30.985945    29750.497 
 1526000    305.93241    446.37719   -23171.459   -25092.888    1921.4289    1.1610133    30.985945    30.985945    30.985945    29750.497 
 1527000    300.68115   -308.30928    -23282.68   -25171.128     1888.448    1.1610133    30.985945    30.985945    30.985945    29750.497 
 1528000    300.56913    -809.8208    -23236.86   -25124.604    1887.7445    1.1610133    30.985945    30.985945    30.985945    29750.497 
 1529000    294.76759   -13.403664   -23259.464   -25110.772    1851.3076    1.1610133    30.985945    30.985945    30.985945    29750.497 
 1530000    292.49384   -516.63116   -23335.069   -25172.096    1837.0271    1.1610133    30.985945    30.985945    30.985945    29750.497 
 1531000    305.48023   -90.221374   -23081.744   -25000.333     1918.589    1.1610133    30.985945    30.985945    30.985945    29750.497 
 1532000    303.98716   -1044.8666   -23132.537   -25041.748    1909.2117    1.1610133    30.985945    30.985945    30.985945    29750.497 
 1533000    304.19212    323.93749   -23134.768   -25045.267     1910.499    1.1610133    30.985945    30.985945    30.985945    29750.497 
 1534000    287.86329    80.190083    -23256.84   -25064.785    1807.9446    1.1610133    30.985945    30.985945    30.985945    29750.497 
 1535000    309.37083   -364.58658   -23123.719   -25066.743    1943.0242    1.1610133    30.985945    30.985945    30.985945    29750.497 
 1536000     298.6503   -655.66793   -23175.735   -25051.428    1875.6931    1.1610133    30.985945    30.985945    30.985945    29750.497 
 1537000    304.63241   -1230.8502   -23235.858   -25149.122    1913.2642    1.1610133    30.985945    30.985945    30.985945    29750.497 
 1538000    285.71222   -988.19506   -23254.145    -25048.58    1794.4347    1.1610133    30.985945    30.985945    30.985945    29750.497 
 1539000    303.68894    449.81255   -23139.344   -25046.683    1907.3387    1.1610133    30.985945    30.985945    30.985945    29750.497 
 1540000    296.62796   -720.67206   -23235.705   -25098.696    1862.9917    1.1610133    30.985945    30.985945    30.985945    29750.497 
 1541000     296.7818   -339.02507   -23210.565   -25074.523    1863.9579    1.1610133    30.985945    30.985945    30.985945    29750.497 
 1542000    285.51761    -341.5715   -23284.776   -25077.989    1793.2124    1.1610133    30.985945    30.985945    30.985945    29750.497 
 1543000    287.25385   -760.40424   -23178.805   -24982.922     1804.117    1.1610133    30.985945    30.985945    30.985945    29750.497 
 1544000    293.88492   -818.99545   -23223.999   -25069.763    1845.7639    1.1610133    30.985945    30.985945    30.985945    29750.497 
 1545000    295.04807   -50.787724   -23163.977   -25017.046    1853.0691    1.1610133    30.985945    30.985945    30.985945    29750.497 
 1546000    301.39465   -122.28389   -23214.177   -25107.107    1892.9292    1.1610133    30.985945    30.985945    30.985945    29750.497 
 1547000     297.5287    25.703975   -23188.169   -25056.818    1868.6489    1.1610133    30.985945    30.985945    30.985945    29750.497 
 1548000    303.45327   -681.78481   -23260.418   -25166.276    1905.8586    1.1610133    30.985945    30.985945    30.985945    29750.497 
 1549000    290.68047   -800.75956   -23274.125   -25099.764    1825.6381    1.1610133    30.985945    30.985945    30.985945    29750.497 
 1550000    303.90425   -658.31787   -23190.888   -25099.579    1908.6909    1.1610133    30.985945    30.985945    30.985945    29750.497 
 1551000    302.89419   -183.97542   -23158.553     -25060.9    1902.3472    1.1610133    30.985945    30.985945    30.985945    29750.497 
 1552000    295.82961   -241.77573   -23142.628   -25000.606    1857.9776    1.1610133    30.985945    30.985945    30.985945    29750.497 
 1553000    294.67381   -1013.0326   -23166.473   -25017.192    1850.7185    1.1610133    30.985945    30.985945    30.985945    29750.497 
 1554000    296.46881   -84.994825   -23185.495   -25047.487    1861.9922    1.1610133    30.985945    30.985945    30.985945    29750.497 
 1555000    301.91367    159.38918    -23134.83   -25031.019     1896.189    1.1610133    30.985945    30.985945    30.985945    29750.497 
 1556000    301.20007   -1036.8756   -23167.545   -25059.252    1891.7071    1.1610133    30.985945    30.985945    30.985945    29750.497 
 1557000    299.44381     -250.676   -23222.214    -25102.89    1880.6768    1.1610133    30.985945    30.985945    30.985945    29750.497 
 1558000    297.46003    284.24499   -23261.851   -25130.068    1868.2176    1.1610133    30.985945    30.985945    30.985945    29750.497 
 1559000    293.93287   -149.34537   -23204.941   -25051.006     1846.065    1.1610133    30.985945    30.985945    30.985945    29750.497 
 1560000    294.88651    60.791532   -23257.684   -25109.738    1852.0544    1.1610133    30.985945    30.985945    30.985945    29750.497 
 1561000    301.78774   -201.91194   -23231.732    -25127.13     1895.398    1.1610133    30.985945    30.985945    30.985945    29750.497 
 1562000    300.97868    272.35895   -23110.548   -25000.865    1890.3167    1.1610133    30.985945    30.985945    30.985945    29750.497 
 1563000    299.84821   -1390.5384   -23190.513   -25073.729    1883.2167    1.1610133    30.985945    30.985945    30.985945    29750.497 
 1564000    291.58625    269.00145    -23212.19   -25043.517    1831.3269    1.1610133    30.985945    30.985945    30.985945    29750.497 
 1565000    299.49545   -965.84198   -23293.578   -25174.579    1881.0012    1.1610133    30.985945    30.985945    30.985945    29750.497 
 1566000    302.56203    339.50989   -23202.765   -25103.026     1900.261    1.1610133    30.985945    30.985945    30.985945    29750.497 
 1567000    294.05991   -739.82081   -23319.625   -25166.487    1846.8629    1.1610133    30.985945    30.985945    30.985945    29750.497 
 1568000      293.875    266.40577   -23220.446   -25066.147    1845.7016    1.1610133    30.985945    30.985945    30.985945    29750.497 
 1569000    292.33207    227.68764   -23208.287   -25044.298    1836.0111    1.1610133    30.985945    30.985945    30.985945    29750.497 
 1570000    291.42916   -196.68423   -23190.613   -25020.954    1830.3403    1.1610133    30.985945    30.985945    30.985945    29750.497 
 1571000    290.81459   -677.79893   -23264.475   -25090.955    1826.4805    1.1610133    30.985945    30.985945    30.985945    29750.497 
 1572000    295.23194   -107.55891   -23151.698   -25005.922    1854.2239    1.1610133    30.985945    30.985945    30.985945    29750.497 
 1573000    305.55919   -34.104276   -23129.129   -25048.214    1919.0849    1.1610133    30.985945    30.985945    30.985945    29750.497 
 1574000    293.26566   -460.54662   -23270.324   -25112.198    1841.8746    1.1610133    30.985945    30.985945    30.985945    29750.497 
 1575000    303.56389   -731.92658   -23254.375   -25160.928    1906.5533    1.1610133    30.985945    30.985945    30.985945    29750.497 
 1576000    297.31977   -721.37967   -23317.306   -25184.643    1867.3366    1.1610133    30.985945    30.985945    30.985945    29750.497 
 1577000    295.93166    -187.3357   -23249.321   -25107.939    1858.6185    1.1610133    30.985945    30.985945    30.985945    29750.497 
 1578000    289.65689    -1576.354   -23365.884   -25185.094    1819.2095    1.1610133    30.985945    30.985945    30.985945    29750.497 
 1579000    296.64445   -413.98707   -23236.508   -25099.603    1863.0953    1.1610133    30.985945    30.985945    30.985945    29750.497 
 1580000    304.47188    110.02652   -23240.786   -25153.042     1912.256    1.1610133    30.985945    30.985945    30.985945    29750.497 
 1581000    292.30555   -687.92779   -23230.951   -25066.796    1835.8445    1.1610133    30.985945    30.985945    30.985945    29750.497 
 1582000    299.84985   -802.07684   -23196.045   -25079.272     1883.227    1.1610133    30.985945    30.985945    30.985945    29750.497 
 1583000    304.35357   -894.98956   -23176.594   -25088.107    1911.5129    1.1610133    30.985945    30.985945    30.985945    29750.497 
 1584000    291.82929   -1380.0885   -23291.417    -25124.27    1832.8533    1.1610133    30.985945    30.985945    30.985945    29750.497 
 1585000     295.6632   -1386.4508   -23306.991   -25163.923    1856.9325    1.1610133    30.985945    30.985945    30.985945    29750.497 
 1586000    302.57944   -1072.4485   -23220.133   -25120.503    1900.3704    1.1610133    30.985945    30.985945    30.985945    29750.497 
 1587000    297.59712   -475.73712   -23228.165   -25097.243    1869.0786    1.1610133    30.985945    30.985945    30.985945    29750.497 
 1588000     297.7991   -1019.2803   -23179.528   -25049.875    1870.3472    1.1610133    30.985945    30.985945    30.985945    29750.497 
 1589000    294.33456   -512.70746   -23206.468   -25055.056    1848.5879    1.1610133    30.985945    30.985945    30.985945    29750.497 
 1590000    289.54449    84.915485   -23190.189   -25008.692    1818.5035    1.1610133    30.985945    30.985945    30.985945    29750.497 
 1591000    294.90707   -137.85544   -23232.048   -25084.231    1852.1835    1.1610133    30.985945    30.985945    30.985945    29750.497 
 1592000    303.87409   -569.28695   -23228.532   -25137.034    1908.5015    1.1610133    30.985945    30.985945    30.985945    29750.497 
 1593000    299.88745   -904.00542   -23292.045   -25175.508    1883.4631    1.1610133    30.985945    30.985945    30.985945    29750.497 
 1594000    294.64504    137.05101   -23267.211   -25117.749    1850.5379    1.1610133    30.985945    30.985945    30.985945    29750.497 
 1595000    302.25686    -494.3659   -23255.684   -25154.028    1898.3444    1.1610133    30.985945    30.985945    30.985945    29750.497 
 1596000    293.15517   -22.255589    -23148.38    -24989.56    1841.1806    1.1610133    30.985945    30.985945    30.985945    29750.497 
 1597000    299.69764   -484.31105   -23166.793   -25049.064    1882.2711    1.1610133    30.985945    30.985945    30.985945    29750.497 
 1598000    294.06225   -241.62726   -23207.184   -25054.062    1846.8776    1.1610133    30.985945    30.985945    30.985945    29750.497 
 1599000     297.8069   -387.43184   -23140.262   -25010.658    1870.3961    1.1610133    30.985945    30.985945    30.985945    29750.497 
 1600000    292.53447   -680.66168   -23279.581   -25116.863    1837.2823    1.1610133    30.985945    30.985945    30.985945    29750.497 
 1601000    295.24417   -68.366477   -23194.443   -25048.744    1854.3007    1.1610133    30.985945    30.985945    30.985945    29750.497 
 1602000    294.30047   -246.81776   -23254.866    -25103.24    1848.3738    1.1610133    30.985945    30.985945    30.985945    29750.497 
 1603000    303.34697    456.57785   -23129.385   -25034.576    1905.1909    1.1610133    30.985945    30.985945    30.985945    29750.497 
 1604000    297.96717   -1041.1958    -23251.88   -25123.282    1871.4027    1.1610133    30.985945    30.985945    30.985945    29750.497 
 1605000    301.38277    170.33884   -23273.786   -25166.641    1892.8546    1.1610133    30.985945    30.985945    30.985945    29750.497 
 1606000    297.20816   -668.44721   -23214.657   -25081.292    1866.6357    1.1610133    30.985945    30.985945    30.985945    29750.497 
 1607000     296.5206    358.50852   -23184.449   -25046.767    1862.3174    1.1610133    30.985945    30.985945    30.985945    29750.497 
 1608000    296.06246   -276.74895   -23261.489   -25120.929      1859.44    1.1610133    30.985945    30.985945    30.985945    29750.497 
 1609000    302.55972   -1062.3069   -23152.548   -25052.795    1900.2465    1.1610133    30.985945    30.985945    30.985945    29750.497 
 1610000    300.45765    -265.9221   -23188.008   -25075.052    1887.0443    1.1610133    30.985945    30.985945    30.985945    29750.497 
 1611000    310.72456   -485.72065    -23086.69   -25038.216    1951.5263    1.1610133    30.985945    30.985945    30.985945    29750.497 
 1612000    302.12017   -474.13933   -23158.704    -25056.19    1897.4859    1.1610133    30.985945    30.985945    30.985945    29750.497 
 1613000    302.89854    256.71991   -23162.431   -25064.806    1902.3745    1.1610133    30.985945    30.985945    30.985945    29750.497 
 1614000     292.9203   -378.48405   -23204.082   -25043.788    1839.7055    1.1610133    30.985945    30.985945    30.985945    29750.497 
 1615000    292.45881    90.037243   -23245.303    -25082.11    1836.8071    1.1610133    30.985945    30.985945    30.985945    29750.497 
 1616000    290.70037   -587.25005   -23180.482   -25006.245    1825.7631    1.1610133    30.985945    30.985945    30.985945    29750.497 
 1617000     300.1976   -1059.9097   -23108.606   -24994.017    1885.4111    1.1610133    30.985945    30.985945    30.985945    29750.497 
 1618000    292.82633   -37.692075   -23273.192   -25112.308    1839.1153    1.1610133    30.985945    30.985945    30.985945    29750.497 
 1619000     295.1965    386.63342   -23241.646   -25095.648    1854.0013    1.1610133    30.985945    30.985945    30.985945    29750.497 
 1620000    295.77085   -97.457034   -23259.707   -25117.315    1857.6086    1.1610133    30.985945    30.985945    30.985945    29750.497 
 1621000    299.11371   -1777.9593   -23252.819   -25131.422    1878.6037    1.1610133    30.985945    30.985945    30.985945    29750.497 
 1622000    300.22819   -748.03809   -23095.419   -24981.022    1885.6032    1.1610133    30.985945    30.985945    30.985945    29750.497 
 1623000    296.99414    -782.8307   -23145.245   -25010.537    1865.2916    1.1610133    30.985945    30.985945    30.985945    29750.497 
 1624000    296.21869   -193.37219   -23252.831   -25113.252    1860.4212    1.1610133    30.985945    30.985945    30.985945    29750.497 
 1625000     300.0816   -721.85206   -23138.544   -25023.227    1884.6825    1.1610133    30.985945    30.985945    30.985945    29750.497 
 1626000    296.63217   -181.21918   -23247.957   -25110.975    1863.0181    1.1610133    30.985945    30.985945    30.985945    29750.497 
 1627000    295.00193   -1005.0306   -23217.752   -25070.532    1852.7793    1.1610133    30.985945    30.985945    30.985945    29750.497 
 1628000    287.78963    907.11236   -23243.881   -25051.363     1807.482    1.1610133    30.985945    30.985945    30.985945    29750.497 
 1629000    299.39648   -193.31162   -23110.267   -24990.647    1880.3796    1.1610133    30.985945    30.985945    30.985945    29750.497 
 1630000    292.56482   -185.00209   -23275.985   -25113.458    1837.4729    1.1610133    30.985945    30.985945    30.985945    29750.497 
 1631000    302.00588   -429.07667   -23225.805   -25122.573    1896.7681    1.1610133    30.985945    30.985945    30.985945    29750.497 
 1632000    290.58895   -316.61365   -23177.225   -25002.288    1825.0633    1.1610133    30.985945    30.985945    30.985945    29750.497 
 1633000    302.77208    59.616687   -23165.469   -25067.049    1901.5803    1.1610133    30.985945    30.985945    30.985945    29750.497 
 1634000    290.69622   -570.33327   -23215.627   -25041.365     1825.737    1.1610133    30.985945    30.985945    30.985945    29750.497 
 1635000    298.53417   -1035.3061   -23163.665   -25038.629    1874.9638    1.1610133    30.985945    30.985945    30.985945    29750.497 
 1636000    301.15763   -450.06415   -23120.975   -25012.416    1891.4406    1.1610133    30.985945    30.985945    30.985945    29750.497 
 1637000    295.44517    253.41619   -23241.055   -25096.618    1855.5631    1.1610133    30.985945    30.985945    30.985945    29750.497 
 1638000    302.38097   -663.03288     -23173.5   -25072.624    1899.1239    1.1610133    30.985945    30.985945    30.985945    29750.497 
 1639000    303.25065   -79.554917   -23150.329   -25054.915    1904.5859    1.1610133    30.985945    30.985945    30.985945    29750.497 
 1640000    307.47778   -328.63438   -23104.497   -25035.631    1931.1347    1.1610133    30.985945    30.985945    30.985945    29750.497 
 1641000    292.75167   -582.19903   -23174.374    -25013.02    1838.6464    1.1610133    30.985945    30.985945    30.985945    29750.497 
 1642000     305.0062   -515.02252   -23139.216   -25054.828    1915.6118    1.1610133    30.985945    30.985945    30.985945    29750.497 
 1643000    299.29755   -955.10094   -23242.481    -25122.24    1879.7582    1.1610133    30.985945    30.985945    30.985945    29750.497 
 1644000    298.09309    28.236046   -23178.496    -25050.69    1872.1936    1.1610133    30.985945    30.985945    30.985945    29750.497 
 1645000    300.62133     -544.092   -23109.688    -24997.76    1888.0723    1.1610133    30.985945    30.985945    30.985945    29750.497 
 1646000    303.71348    321.31947   -23199.023   -25106.516    1907.4928    1.1610133    30.985945    30.985945    30.985945    29750.497 
 1647000    304.21095    535.84914   -23178.991   -25089.608    1910.6172    1.1610133    30.985945    30.985945    30.985945    29750.497 
 1648000    295.20129   -484.49645   -23279.356   -25133.387    1854.0314    1.1610133    30.985945    30.985945    30.985945    29750.497 
 1649000    301.28689   -227.93733   -23171.899   -25064.152    1892.2525    1.1610133    30.985945    30.985945    30.985945    29750.497 
 1650000    301.39184   -588.94802   -23114.865   -25007.777    1892.9115    1.1610133    30.985945    30.985945    30.985945    29750.497 
 1651000    290.17813   -111.39039   -23249.407    -25071.89    1822.4831    1.1610133    30.985945    30.985945    30.985945    29750.497 
 1652000    291.44359    -478.0083   -23279.971   -25110.402    1830.4309    1.1610133    30.985945    30.985945    30.985945    29750.497 
 1653000    304.39122    -273.7149   -23208.344   -25120.094    1911.7494    1.1610133    30.985945    30.985945    30.985945    29750.497 
 1654000    298.19748   -1128.1485    -23128.54   -25001.389    1872.8492    1.1610133    30.985945    30.985945    30.985945    29750.497 
 1655000    297.73693    10.289948    -23191.92   -25061.877    1869.9567    1.1610133    30.985945    30.985945    30.985945    29750.497 
 1656000    297.50099    -72.82373   -23232.477   -25100.951    1868.4748    1.1610133    30.985945    30.985945    30.985945    29750.497 
 1657000    298.56615   -744.12907    -23188.12   -25063.284    1875.1646    1.1610133    30.985945    30.985945    30.985945    29750.497 
 1658000    301.11755    -230.4677   -23084.208   -24975.397    1891.1889    1.1610133    30.985945    30.985945    30.985945    29750.497 
 1659000    289.23557   -1231.1838   -23252.097    -25068.66    1816.5633    1.1610133    30.985945    30.985945    30.985945    29750.497 
 1660000    298.94223   -669.85312     -23179.7   -25057.226    1877.5266    1.1610133    30.985945    30.985945    30.985945    29750.497 
 1661000    301.96849   -526.65681   -23190.641   -25087.174    1896.5333    1.1610133    30.985945    30.985945    30.985945    29750.497 
 1662000    292.00847   -1223.4174   -23305.676   -25139.655    1833.9787    1.1610133    30.985945    30.985945    30.985945    29750.497 
 1663000     292.1877   -757.03694     -23272.4   -25107.505    1835.1044    1.1610133    30.985945    30.985945    30.985945    29750.497 
 1664000    297.73984   -1326.9376   -23205.962   -25075.937    1869.9749    1.1610133    30.985945    30.985945    30.985945    29750.497 
 1665000    297.98942    -142.1494   -23186.919   -25058.461    1871.5424    1.1610133    30.985945    30.985945    30.985945    29750.497 
 1666000    294.43576   -139.69294   -23231.436   -25080.659    1849.2234    1.1610133    30.985945    30.985945    30.985945    29750.497 
 1667000    298.77413   -492.29859   -23218.494   -25094.965    1876.4709    1.1610133    30.985945    30.985945    30.985945    29750.497 
 1668000    300.71123   -642.52423   -23314.939   -25203.576     1888.637    1.1610133    30.985945    30.985945    30.985945    29750.497 
 1669000    301.44802   -248.15686   -23097.786    -24991.05    1893.2644    1.1610133    30.985945    30.985945    30.985945    29750.497 
 1670000    293.13055   -1041.6449   -23315.298   -25156.324     1841.026    1.1610133    30.985945    30.985945    30.985945    29750.497 
 1671000    292.31126   -393.66138    -23247.75    -25083.63    1835.8804    1.1610133    30.985945    30.985945    30.985945    29750.497 
 1672000    297.01499   -666.55862   -23125.789   -24991.211    1865.4225    1.1610133    30.985945    30.985945    30.985945    29750.497 
 1673000    301.08173   -454.84405   -23161.472   -25052.436    1890.9639    1.1610133    30.985945    30.985945    30.985945    29750.497 
 1674000    293.63082   -487.10921   -23244.855   -25089.023     1844.168    1.1610133    30.985945    30.985945    30.985945    29750.497 
 1675000    300.49068   -388.07495   -23186.773   -25074.025    1887.2518    1.1610133    30.985945    30.985945    30.985945    29750.497 
 1676000    293.45494   -99.334835   -23197.814   -25040.877    1843.0633    1.1610133    30.985945    30.985945    30.985945    29750.497 
 1677000    285.98988   -366.41076    -23324.58   -25120.759    1796.1785    1.1610133    30.985945    30.985945    30.985945    29750.497 
 1678000    303.91515   -199.89378    -23150.56    -25059.32    1908.7594    1.1610133    30.985945    30.985945    30.985945    29750.497 
 1679000     294.3412    78.981083   -23280.419   -25129.048    1848.6296    1.1610133    30.985945    30.985945    30.985945    29750.497 
 1680000    303.23192   -347.18753   -23079.027   -24983.495    1904.4683    1.1610133    30.985945    30.985945    30.985945    29750.497 
 1681000    291.83637   -125.61289   -23173.746   -25006.644    1832.8978    1.1610133    30.985945    30.985945    30.985945    29750.497 
 1682000    304.76571   -103.73055    -23117.86   -25031.961    1914.1014    1.1610133    30.985945    30.985945    30.985945    29750.497 
 1683000    302.12052   -566.11218   -23180.675   -25078.164    1897.4881    1.1610133    30.985945    30.985945    30.985945    29750.497 
 1684000    294.70008    -321.3404   -23232.965   -25083.848    1850.8835    1.1610133    30.985945    30.985945    30.985945    29750.497 
 1685000     298.6934    -540.8563   -23214.914   -25090.878    1875.9638    1.1610133    30.985945    30.985945    30.985945    29750.497 
 1686000    301.22418   -161.07423   -23226.587   -25118.446    1891.8586    1.1610133    30.985945    30.985945    30.985945    29750.497 
 1687000    307.69592   -1181.4301   -23163.798   -25096.303    1932.5048    1.1610133    30.985945    30.985945    30.985945    29750.497 
 1688000    294.10175    157.99275   -23315.494    -25162.62    1847.1257    1.1610133    30.985945    30.985945    30.985945    29750.497 
 1689000    301.17823   -334.01059   -23190.162   -25081.732      1891.57    1.1610133    30.985945    30.985945    30.985945    29750.497 
 1690000    306.72947   -616.25732   -23148.982   -25075.417    1926.4349    1.1610133    30.985945    30.985945    30.985945    29750.497 
 1691000    312.00046   -201.50992    -23093.01   -25052.549    1959.5397    1.1610133    30.985945    30.985945    30.985945    29750.497 
 1692000    291.68027   -390.07427   -23330.629   -25162.546    1831.9174    1.1610133    30.985945    30.985945    30.985945    29750.497 
 1693000    297.14259   -166.60592   -23180.054   -25046.278    1866.2239    1.1610133    30.985945    30.985945    30.985945    29750.497 
 1694000    291.84724   -945.04712   -23302.146   -25135.112    1832.9661    1.1610133    30.985945    30.985945    30.985945    29750.497 
 1695000     291.1166    349.60501   -23251.289   -25079.666    1828.3773    1.1610133    30.985945    30.985945    30.985945    29750.497 
 1696000    291.31598    77.815398   -23276.298   -25105.928    1829.6295    1.1610133    30.985945    30.985945    30.985945    29750.497 
 1697000    307.13857   -81.974388    -23156.23   -25085.234    1929.0043    1.1610133    30.985945    30.985945    30.985945    29750.497 
 1698000    303.00734   -51.620881   -23243.332    -25146.39    1903.0578    1.1610133    30.985945    30.985945    30.985945    29750.497 
 1699000    295.54101    88.228757   -23192.863   -25049.028     1856.165    1.1610133    30.985945    30.985945    30.985945    29750.497 
 1700000     290.5312    261.77537   -23195.661   -25020.362    1824.7006    1.1610133    30.985945    30.985945    30.985945    29750.497 
 1701000    286.30664   -744.75803   -23261.622    -25059.79     1798.168    1.1610133    30.985945    30.985945    30.985945    29750.497 
 1702000     303.5483   -522.44832   -23180.263   -25086.718    1906.4554    1.1610133    30.985945    30.985945    30.985945    29750.497 
 1703000     293.5931   -29.559643   -23238.788   -25082.719    1843.9311    1.1610133    30.985945    30.985945    30.985945    29750.497 
 1704000    291.54963   -208.52195   -23236.851   -25067.948    1831.0969    1.1610133    30.985945    30.985945    30.985945    29750.497 
 1705000    297.49254   -92.563527   -23195.551   -25063.972    1868.4218    1.1610133    30.985945    30.985945    30.985945    29750.497 
 1706000    298.67679   -1322.9171    -23169.27    -25045.13    1875.8595    1.1610133    30.985945    30.985945    30.985945    29750.497 
 1707000    309.38494   -717.60185   -23247.966   -25191.079    1943.1128    1.1610133    30.985945    30.985945    30.985945    29750.497 
 1708000    305.58267   -1049.5473   -23206.085   -25125.317    1919.2323    1.1610133    30.985945    30.985945    30.985945    29750.497 
 1709000    297.18545   -867.71604   -23213.805   -25080.298     1866.493    1.1610133    30.985945    30.985945    30.985945    29750.497 
 1710000    304.09684   -715.20919    -23146.17    -25056.07    1909.9005    1.1610133    30.985945    30.985945    30.985945    29750.497 
 1711000    292.90476    51.316639   -23320.342    -25159.95    1839.6079    1.1610133    30.985945    30.985945    30.985945    29750.497 
 1712000    293.05041    218.49804   -23248.719   -25089.241    1840.5227    1.1610133    30.985945    30.985945    30.985945    29750.497 
 1713000    288.25854   -267.41132   -23259.641   -25070.068     1810.427    1.1610133    30.985945    30.985945    30.985945    29750.497 
 1714000    291.57357   -303.47687   -23197.929   -25029.177    1831.2473    1.1610133    30.985945    30.985945    30.985945    29750.497 
 1715000    296.05346   -790.28707   -23266.508   -25125.891    1859.3835    1.1610133    30.985945    30.985945    30.985945    29750.497 
 1716000    289.23716   -904.01943   -23251.616   -25068.189    1816.5733    1.1610133    30.985945    30.985945    30.985945    29750.497 
 1717000    291.02873    -1319.218    -23327.07   -25154.895    1827.8254    1.1610133    30.985945    30.985945    30.985945    29750.497 
 1718000    293.17336   -526.70975   -23152.123   -24993.417    1841.2949    1.1610133    30.985945    30.985945    30.985945    29750.497 
 1719000    300.71216   -392.24162   -23229.512   -25118.155    1888.6428    1.1610133    30.985945    30.985945    30.985945    29750.497 
 1720000    307.90686   -271.01998   -23154.361   -25088.191    1933.8296    1.1610133    30.985945    30.985945    30.985945    29750.497 
 1721000    292.75029   -462.84097   -23229.499   -25068.137    1838.6377    1.1610133    30.985945    30.985945    30.985945    29750.497 
 1722000    294.14807   -659.02853   -23283.236   -25130.653    1847.4166    1.1610133    30.985945    30.985945    30.985945    29750.497 
 1723000    302.04337    -124.7962   -23167.537   -25064.541    1897.0036    1.1610133    30.985945    30.985945    30.985945    29750.497 
 1724000    296.48242   -601.39234   -23252.349   -25114.427    1862.0776    1.1610133    30.985945    30.985945    30.985945    29750.497 
 1725000    304.76838    149.08384   -23148.686   -25062.804    1914.1181    1.1610133    30.985945    30.985945    30.985945    29750.497 
 1726000    297.63753   -1153.2655   -23277.037   -25146.369    1869.3324    1.1610133    30.985945    30.985945    30.985945    29750.497 
 1727000    303.17429    43.820986   -23216.172   -25120.279    1904.1064    1.1610133    30.985945    30.985945    30.985945    29750.497 
 1728000    302.34182    45.244587   -23221.931   -25120.809     1898.878    1.1610133    30.985945    30.985945    30.985945    29750.497 
 1729000    305.92114   -449.80216   -23220.681   -25142.039    1921.3581    1.1610133    30.985945    30.985945    30.985945    29750.497 
 1730000    299.05281   -364.01457   -23221.252   -25099.474    1878.2211    1.1610133    30.985945    30.985945    30.985945    29750.497 
 1731000    299.99655   -312.79126   -23191.259   -25075.407    1884.1484    1.1610133    30.985945    30.985945    30.985945    29750.497 
 1732000    295.76039   -980.76589   -23239.962   -25097.505    1857.5429    1.1610133    30.985945    30.985945    30.985945    29750.497 
 1733000    298.94393    202.86785   -23214.045   -25091.582    1877.5373    1.1610133    30.985945    30.985945    30.985945    29750.497 
 1734000    296.28229    493.66135    -23181.92    -25042.74    1860.8207    1.1610133    30.985945    30.985945    30.985945    29750.497 
 1735000    305.71535   -684.79864    -23098.36   -25018.426    1920.0656    1.1610133    30.985945    30.985945    30.985945    29750.497 
 1736000    296.26715   -1235.4671   -23206.711   -25067.437    1860.7256    1.1610133    30.985945    30.985945    30.985945    29750.497 
 1737000    295.51492   -504.25247   -23212.926   -25068.927    1856.0012    1.1610133    30.985945    30.985945    30.985945    29750.497 
 1738000    297.05558   -401.17832   -23225.213    -25090.89    1865.6774    1.1610133    30.985945    30.985945    30.985945    29750.497 
 1739000    291.57267    349.54411   -23235.354   -25066.595    1831.2416    1.1610133    30.985945    30.985945    30.985945    29750.497 
 1740000    288.42193   -145.32631   -23340.921   -25152.374    1811.4532    1.1610133    30.985945    30.985945    30.985945    29750.497 
 1741000    295.96039   -122.05398   -23164.406   -25023.205     1858.799    1.1610133    30.985945    30.985945    30.985945    29750.497 
 1742000    297.09725   -1209.8451   -23280.323   -25146.262    1865.9391    1.1610133    30.985945    30.985945    30.985945    29750.497 
 1743000    303.29076   -314.67243   -23169.837   -25074.675    1904.8379    1.1610133    30.985945    30.985945    30.985945    29750.497 
 1744000    300.17507    103.35661   -23142.673   -25027.942    1885.2696    1.1610133    30.985945    30.985945    30.985945    29750.497 
 1745000    303.07774   -616.50802   -23203.374   -25106.874       1903.5    1.1610133    30.985945    30.985945    30.985945    29750.497 
 1746000    306.67362   -739.90803   -23150.053   -25076.137    1926.0841    1.1610133    30.985945    30.985945    30.985945    29750.497 
 1747000     292.0348   -813.09754   -23307.577   -25141.722    1834.1441    1.1610133    30.985945    30.985945    30.985945    29750.497 
 1748000    289.53224   -279.27935   -23222.233    -25040.66    1818.4265    1.1610133    30.985945    30.985945    30.985945    29750.497 
 1749000    299.72982   -427.31305   -23223.521   -25105.994    1882.4732    1.1610133    30.985945    30.985945    30.985945    29750.497 
 1750000    301.02084   -282.94719   -23236.754   -25127.335    1890.5815    1.1610133    30.985945    30.985945    30.985945    29750.497 
 1751000    292.86022   -1850.0332   -23168.649   -25007.978    1839.3282    1.1610133    30.985945    30.985945    30.985945    29750.497 
 1752000    296.57896    650.00563   -23254.925   -25117.609     1862.684    1.1610133    30.985945    30.985945    30.985945    29750.497 
 1753000    295.43563   -458.95141    -23155.26   -25010.764    1855.5032    1.1610133    30.985945    30.985945    30.985945    29750.497 
 1754000    290.79543   -670.80895   -23285.661   -25112.021    1826.3601    1.1610133    30.985945    30.985945    30.985945    29750.497 
 1755000    288.44202    364.21243   -23231.844   -25043.423    1811.5794    1.1610133    30.985945    30.985945    30.985945    29750.497 
 1756000    304.72922   -596.29953   -23186.233   -25100.105    1913.8722    1.1610133    30.985945    30.985945    30.985945    29750.497 
 1757000    291.95489   -277.16525   -23246.456   -25080.098    1833.6422    1.1610133    30.985945    30.985945    30.985945    29750.497 
 1758000    299.48798   -5.2812082   -23172.359   -25053.313    1880.9542    1.1610133    30.985945    30.985945    30.985945    29750.497 
 1759000    302.36862   -606.88586   -23076.667   -24975.713    1899.0463    1.1610133    30.985945    30.985945    30.985945    29750.497 
 1760000    299.66864   -233.26084   -23182.449   -25064.538    1882.0889    1.1610133    30.985945    30.985945    30.985945    29750.497 
 1761000     296.0201   -1421.9501    -23084.89   -24944.064     1859.174    1.1610133    30.985945    30.985945    30.985945    29750.497 
 1762000    306.21239   -500.07833   -23118.067   -25041.255    1923.1874    1.1610133    30.985945    30.985945    30.985945    29750.497 
 1763000    294.80614   -703.79593   -23161.172   -25012.722    1851.5497    1.1610133    30.985945    30.985945    30.985945    29750.497 
 1764000    300.19382   -1039.1957   -23203.411   -25088.799    1885.3873    1.1610133    30.985945    30.985945    30.985945    29750.497 
 1765000    293.77522    392.65161   -23252.924   -25097.999    1845.0749    1.1610133    30.985945    30.985945    30.985945    29750.497 
 1766000    299.51524   -490.56461   -23222.889   -25104.015    1881.1254    1.1610133    30.985945    30.985945    30.985945    29750.497 
 1767000    294.99393    333.65792   -23226.086   -25078.816    1852.7291    1.1610133    30.985945    30.985945    30.985945    29750.497 
 1768000    308.85357    49.560224    -23112.14   -25051.916    1939.7755    1.1610133    30.985945    30.985945    30.985945    29750.497 
 1769000    294.58625    203.61759   -23219.004   -25069.172    1850.1686    1.1610133    30.985945    30.985945    30.985945    29750.497 
 1770000    290.95988    40.470319   -23277.716   -25105.109     1827.393    1.1610133    30.985945    30.985945    30.985945    29750.497 
 1771000    297.74005    70.290931   -23152.123     -25022.1    1869.9763    1.1610133    30.985945    30.985945    30.985945    29750.497 
 1772000     304.4243   -628.97549   -23213.587   -25125.544    1911.9571    1.1610133    30.985945    30.985945    30.985945    29750.497 
 1773000    287.32056   -334.48206   -23289.509   -25094.045     1804.536    1.1610133    30.985945    30.985945    30.985945    29750.497 
 1774000    301.66806   -546.37207    -23085.24   -24979.886    1894.6464    1.1610133    30.985945    30.985945    30.985945    29750.497 
 1775000    298.69191   -341.60382   -23327.722   -25203.677    1875.9545    1.1610133    30.985945    30.985945    30.985945    29750.497 
 1776000    305.10583   -170.39176    -23253.52   -25169.757    1916.2376    1.1610133    30.985945    30.985945    30.985945    29750.497 
 1777000    298.00168   -267.53531   -23273.276   -25144.896    1871.6194    1.1610133    30.985945    30.985945    30.985945    29750.497 
 1778000    297.91538   -541.18649   -23251.123   -25122.201    1871.0775    1.1610133    30.985945    30.985945    30.985945    29750.497 
 1779000    299.45797   -22.701268   -23137.608   -25018.374    1880.7658    1.1610133    30.985945    30.985945    30.985945    29750.497 
 1780000    300.31031    293.06032   -23215.667   -25101.786     1886.119    1.1610133    30.985945    30.985945    30.985945    29750.497 
 1781000    288.08258   -1820.1205   -23300.812   -25110.134    1809.3219    1.1610133    30.985945    30.985945    30.985945    29750.497 
 1782000    300.24868   -368.02742   -23204.714   -25090.446    1885.7319    1.1610133    30.985945    30.985945    30.985945    29750.497 
 1783000    310.55504   -458.72408   -23122.568    -25073.03    1950.4617    1.1610133    30.985945    30.985945    30.985945    29750.497 
 1784000    292.80319   -518.67914   -23280.014   -25118.984      1838.97    1.1610133    30.985945    30.985945    30.985945    29750.497 
 1785000    302.88914    245.33958   -23196.702   -25099.017    1902.3155    1.1610133    30.985945    30.985945    30.985945    29750.497 
 1786000    294.45834   -686.21194   -23241.183   -25090.548    1849.3653    1.1610133    30.985945    30.985945    30.985945    29750.497 
 1787000     287.6753    182.02209    -23303.27   -25110.033    1806.7639    1.1610133    30.985945    30.985945    30.985945    29750.497 
 1788000    296.96965    -60.31979   -23222.856   -25087.994    1865.1377    1.1610133    30.985945    30.985945    30.985945    29750.497 
 1789000    305.67138   -745.10321   -23142.431    -25062.22    1919.7895    1.1610133    30.985945    30.985945    30.985945    29750.497 
 1790000    301.91792   -390.96517   -23221.843   -25118.058    1896.2157    1.1610133    30.985945    30.985945    30.985945    29750.497 
 1791000    298.16767   -498.37683   -23273.623   -25146.285    1872.6619    1.1610133    30.985945    30.985945    30.985945    29750.497 
 1792000    298.86741     30.88979   -23252.364   -25129.421    1877.0568    1.1610133    30.985945    30.985945    30.985945    29750.497 
 1793000    298.20215    147.47456   -23306.977   -25179.855    1872.8785    1.1610133    30.985945    30.985945    30.985945    29750.497 
 1794000    294.75079   -1048.0044   -23198.425   -25049.627     1851.202    1.1610133    30.985945    30.985945    30.985945    29750.497 
 1795000    302.84083    212.77545   -23185.766   -25087.778    1902.0121    1.1610133    30.985945    30.985945    30.985945    29750.497 
 1796000    300.57161   -989.00625   -23272.896   -25160.657    1887.7601    1.1610133    30.985945    30.985945    30.985945    29750.497 
 1797000    294.71218   -336.11021   -23217.938   -25068.898    1850.9595    1.1610133    30.985945    30.985945    30.985945    29750.497 
 1798000    302.62175   -647.03536   -23184.694    -25085.33    1900.6361    1.1610133    30.985945    30.985945    30.985945    29750.497 
 1799000    290.72078   -1196.1313   -23319.035   -25144.926    1825.8912    1.1610133    30.985945    30.985945    30.985945    29750.497 
 1800000    299.75513    8.8478492   -23206.227   -25088.859    1882.6321    1.1610133    30.985945    30.985945    30.985945    29750.497 
 1801000    294.83583    -132.8813   -23262.789   -25114.525    1851.7361    1.1610133    30.985945    30.985945    30.985945    29750.497 
 1802000    295.96569   -56.252452   -23193.071   -25051.904    1858.8323    1.1610133    30.985945    30.985945    30.985945    29750.497 
 1803000    296.59069   -509.66064     -23317.8   -25180.557    1862.7577    1.1610133    30.985945    30.985945    30.985945    29750.497 
 1804000    295.71875   -237.72182   -23254.747   -25112.028    1857.2814    1.1610133    30.985945    30.985945    30.985945    29750.497 
 1805000    296.69831   -268.02933   -23243.628   -25107.061    1863.4335    1.1610133    30.985945    30.985945    30.985945    29750.497 
 1806000    298.40908   -896.92775   -23262.577   -25136.755    1874.1781    1.1610133    30.985945    30.985945    30.985945    29750.497 
 1807000      300.004   -615.47956   -23282.258   -25166.453    1884.1951    1.1610133    30.985945    30.985945    30.985945    29750.497 
 1808000    291.66858   -858.59671   -23350.254   -25182.098     1831.844    1.1610133    30.985945    30.985945    30.985945    29750.497 
 1809000    302.88524   -449.76201   -23186.079    -25088.37     1902.291    1.1610133    30.985945    30.985945    30.985945    29750.497 
 1810000    297.44461   -779.92591   -23160.563   -25028.683    1868.1207    1.1610133    30.985945    30.985945    30.985945    29750.497 
 1811000     309.2032    257.81347   -23099.487   -25041.459    1941.9713    1.1610133    30.985945    30.985945    30.985945    29750.497 
 1812000    297.85141   -642.15986   -23201.673   -25072.348    1870.6757    1.1610133    30.985945    30.985945    30.985945    29750.497 
 1813000    292.56299   -770.08111   -23127.581   -24965.043    1837.4614    1.1610133    30.985945    30.985945    30.985945    29750.497 
 1814000    304.67888   -253.53943   -23200.925   -25114.481    1913.5561    1.1610133    30.985945    30.985945    30.985945    29750.497 
 1815000    298.51804   -1146.3704   -23263.171   -25138.033    1874.8625    1.1610133    30.985945    30.985945    30.985945    29750.497 
 1816000    302.53327    19.296255   -23178.469   -25078.549    1900.0804    1.1610133    30.985945    30.985945    30.985945    29750.497 
 1817000    298.16132   -1457.1056   -23136.987   -25009.609    1872.6221    1.1610133    30.985945    30.985945    30.985945    29750.497 
 1818000    302.84843    240.12974   -23093.968   -24996.028    1902.0598    1.1610133    30.985945    30.985945    30.985945    29750.497 
 1819000    294.09387   -225.29371   -23238.697   -25085.773    1847.0762    1.1610133    30.985945    30.985945    30.985945    29750.497 
 1820000    309.58502    -1174.839    -23122.11   -25066.479    1944.3694    1.1610133    30.985945    30.985945    30.985945    29750.497 
 1821000    298.26907   -735.88993   -23266.241    -25139.54    1873.2988    1.1610133    30.985945    30.985945    30.985945    29750.497 
 1822000    290.22244    584.53282   -23275.851   -25098.613    1822.7614    1.1610133    30.985945    30.985945    30.985945    29750.497 
 1823000    303.89876    276.96758   -23152.079   -25060.736    1908.6565    1.1610133    30.985945    30.985945    30.985945    29750.497 
 1824000    301.98388    56.117246   -23164.318   -25060.948    1896.6299    1.1610133    30.985945    30.985945    30.985945    29750.497 
 1825000    290.13018    608.48552   -23265.897   -25088.079     1822.182    1.1610133    30.985945    30.985945    30.985945    29750.497 
 1826000    296.46981   -230.28676   -23223.788   -25085.787    1861.9984    1.1610133    30.985945    30.985945    30.985945    29750.497 
 1827000     290.2067   -429.10064   -23140.897   -24963.559    1822.6626    1.1610133    30.985945    30.985945    30.985945    29750.497 
 1828000    299.36058   -314.79186   -23144.355    -25024.51    1880.1541    1.1610133    30.985945    30.985945    30.985945    29750.497 
 1829000    303.35907    299.10708   -23103.766   -25009.033    1905.2669    1.1610133    30.985945    30.985945    30.985945    29750.497 
 1830000    293.11323    74.637243   -23193.292    -25034.21    1840.9172    1.1610133    30.985945    30.985945    30.985945    29750.497 
 1831000    291.92204    743.29026   -23199.977   -25033.413    1833.4359    1.1610133    30.985945    30.985945    30.985945    29750.497 
 1832000    297.68585   -375.15569   -23205.106   -25074.742    1869.6358    1.1610133    30.985945    30.985945    30.985945    29750.497 
 1833000    288.76164   -566.52732   -23261.343    -25074.93    1813.5868    1.1610133    30.985945    30.985945    30.985945    29750.497 
 1834000    298.26628   -680.85344   -23218.606   -25091.887    1873.2813    1.1610133    30.985945    30.985945    30.985945    29750.497 
 1835000    297.57774   -321.18439   -23173.981   -25042.938    1868.9569    1.1610133    30.985945    30.985945    30.985945    29750.497 
 1836000    307.23881    292.22695   -23099.897   -25029.531    1929.6339    1.1610133    30.985945    30.985945    30.985945    29750.497 
 1837000    301.57354   -287.55996   -23239.972   -25134.025    1894.0527    1.1610133    30.985945    30.985945    30.985945    29750.497 
 1838000    296.02017   -913.49748   -23289.154   -25148.328    1859.1745    1.1610133    30.985945    30.985945    30.985945    29750.497 
 1839000    297.93091   -794.09866   -23256.235    -25127.41     1871.175    1.1610133    30.985945    30.985945    30.985945    29750.497 
 1840000    300.83959    335.63102   -23251.757     -25141.2    1889.4432    1.1610133    30.985945    30.985945    30.985945    29750.497 
 1841000    297.11692   -503.06194   -23305.478   -25171.541    1866.0627    1.1610133    30.985945    30.985945    30.985945    29750.497 
 1842000     294.9518     1007.812   -23232.978   -25085.442    1852.4645    1.1610133    30.985945    30.985945    30.985945    29750.497 
 1843000    300.56207   -1310.7227   -23240.276   -25127.976    1887.7001    1.1610133    30.985945    30.985945    30.985945    29750.497 
 1844000    294.70245   -1213.7573   -23284.914   -25135.812    1850.8984    1.1610133    30.985945    30.985945    30.985945    29750.497 
 1845000    306.33925     126.3436   -23091.678   -25015.662    1923.9841    1.1610133    30.985945    30.985945    30.985945    29750.497 
 1846000    297.71578    766.89042   -23240.887   -25110.711    1869.8239    1.1610133    30.985945    30.985945    30.985945    29750.497 
 1847000    298.93944   -861.45444   -23171.456   -25048.966    1877.5091    1.1610133    30.985945    30.985945    30.985945    29750.497 
 1848000    305.59177    723.01148   -23100.082   -25019.371    1919.2895    1.1610133    30.985945    30.985945    30.985945    29750.497 
 1849000    304.02496   -258.02132   -23160.923   -25070.372     1909.449    1.1610133    30.985945    30.985945    30.985945    29750.497 
 1850000    306.47112     622.6114   -23095.674   -25020.486    1924.8124    1.1610133    30.985945    30.985945    30.985945    29750.497 
 1851000    298.82013    103.20736   -23191.918   -25068.678    1876.7598    1.1610133    30.985945    30.985945    30.985945    29750.497 
 1852000    289.47556    970.97822   -23296.057   -25114.127    1818.0706    1.1610133    30.985945    30.985945    30.985945    29750.497 
 1853000    300.95004   -4.9470143    -23155.58   -25045.717    1890.1368    1.1610133    30.985945    30.985945    30.985945    29750.497 
 1854000    300.92597    131.96712    -23128.95   -25018.936    1889.9857    1.1610133    30.985945    30.985945    30.985945    29750.497 
 1855000    295.29433    13.891048   -23181.881   -25036.497    1854.6157    1.1610133    30.985945    30.985945    30.985945    29750.497 
 1856000    306.67943   -26.567452   -23226.225   -25152.345    1926.1206    1.1610133    30.985945    30.985945    30.985945    29750.497 
 1857000    299.97181    287.96185   -23115.664   -24999.657     1883.993    1.1610133    30.985945    30.985945    30.985945    29750.497 
 1858000    299.35213   -542.56411   -23244.311   -25124.413     1880.101    1.1610133    30.985945    30.985945    30.985945    29750.497 
 1859000    293.73388   -240.56125    -23226.77   -25071.586    1844.8153    1.1610133    30.985945    30.985945    30.985945    29750.497 
 1860000    306.00343    94.142877    -23042.24   -24964.115     1921.875    1.1610133    30.985945    30.985945    30.985945    29750.497 
 1861000     297.8749   -141.56409   -23191.966   -25062.789    1870.8232    1.1610133    30.985945    30.985945    30.985945    29750.497 
 1862000    296.57042   -513.59935   -23176.507   -25039.138    1862.6303    1.1610133    30.985945    30.985945    30.985945    29750.497 
 1863000    303.43737   -827.93284   -23143.934   -25049.693    1905.7587    1.1610133    30.985945    30.985945    30.985945    29750.497 
 1864000    296.44935   -388.28144   -23141.756   -25003.626      1861.87    1.1610133    30.985945    30.985945    30.985945    29750.497 
 1865000    296.46718   -275.48992   -23132.444   -24994.426    1861.9819    1.1610133    30.985945    30.985945    30.985945    29750.497 
 1866000    302.47586   -540.06347   -23145.623   -25045.343    1899.7198    1.1610133    30.985945    30.985945    30.985945    29750.497 
 1867000     289.4782   -310.56229   -23301.146   -25119.233    1818.0872    1.1610133    30.985945    30.985945    30.985945    29750.497 
 1868000    292.75109   -758.06057   -23196.906   -25035.549    1838.6428    1.1610133    30.985945    30.985945    30.985945    29750.497 
 1869000    284.92051   -669.29436   -23295.284   -25084.747    1789.4623    1.1610133    30.985945    30.985945    30.985945    29750.497 
 1870000     295.9866   -365.22408   -23166.991   -25025.954    1858.9636    1.1610133    30.985945    30.985945    30.985945    29750.497 
 1871000    300.39073    299.36804   -23205.664   -25092.288     1886.624    1.1610133    30.985945    30.985945    30.985945    29750.497 
 1872000     298.7009   -476.64875   -23209.324   -25085.335     1876.011    1.1610133    30.985945    30.985945    30.985945    29750.497 
 1873000    291.19627   -135.18206   -23376.388   -25205.266    1828.8776    1.1610133    30.985945    30.985945    30.985945    29750.497 
 1874000     300.8105   -248.67698   -23199.055   -25088.316    1889.2605    1.1610133    30.985945    30.985945    30.985945    29750.497 
 1875000    296.43686   -1069.0863    -23343.55   -25205.341    1861.7915    1.1610133    30.985945    30.985945    30.985945    29750.497 
 1876000    303.08347    119.74611   -23187.272   -25090.808     1903.536    1.1610133    30.985945    30.985945    30.985945    29750.497 
 1877000    298.51804   -1296.0104   -23215.429   -25090.292    1874.8625    1.1610133    30.985945    30.985945    30.985945    29750.497 
 1878000    293.56501   -324.84318   -23275.329   -25119.084    1843.7547    1.1610133    30.985945    30.985945    30.985945    29750.497 
 1879000    295.18216    -906.0205   -23316.781   -25170.693    1853.9113    1.1610133    30.985945    30.985945    30.985945    29750.497 
 1880000    297.11261   -382.62911    -23185.32   -25051.355    1866.0356    1.1610133    30.985945    30.985945    30.985945    29750.497 
 1881000     297.9771   -1058.1921   -23261.694   -25133.159    1871.4651    1.1610133    30.985945    30.985945    30.985945    29750.497 
 1882000      298.534   -406.88658   -23189.324   -25064.287    1874.9627    1.1610133    30.985945    30.985945    30.985945    29750.497 
 1883000     294.9501   -631.12717   -23278.655   -25131.109    1852.4538    1.1610133    30.985945    30.985945    30.985945    29750.497 
 1884000    300.06946   -6.4149465   -23097.835   -24982.441    1884.6063    1.1610133    30.985945    30.985945    30.985945    29750.497 
 1885000    293.32274   -1129.1813   -23235.582   -25077.815    1842.2331    1.1610133    30.985945    30.985945    30.985945    29750.497 
 1886000      294.779   -1536.0522   -23290.682   -25142.061    1851.3792    1.1610133    30.985945    30.985945    30.985945    29750.497 
 1887000    301.88329   -238.41443   -23167.743   -25063.741    1895.9982    1.1610133    30.985945    30.985945    30.985945    29750.497 
 1888000    302.38015    208.81341    -23246.93   -25146.049    1899.1187    1.1610133    30.985945    30.985945    30.985945    29750.497 
 1889000      295.552   -686.44143    -23178.22   -25034.454    1856.2341    1.1610133    30.985945    30.985945    30.985945    29750.497 
 1890000    298.86223    123.93519   -23228.437   -25105.461    1877.0242    1.1610133    30.985945    30.985945    30.985945    29750.497 
 1891000    306.30112   -424.73995   -23197.092   -25120.837    1923.7446    1.1610133    30.985945    30.985945    30.985945    29750.497 
 1892000    299.07205   -983.38909   -23185.649   -25063.991     1878.342    1.1610133    30.985945    30.985945    30.985945    29750.497 
 1893000    295.19821   -128.90177   -23280.378    -25134.39    1854.0121    1.1610133    30.985945    30.985945    30.985945    29750.497 
 1894000    294.95808   -412.73336   -23202.758   -25055.262    1852.5039    1.1610133    30.985945    30.985945    30.985945    29750.497 
 1895000    298.01545   -1199.5782   -23229.218   -25100.924    1871.7059    1.1610133    30.985945    30.985945    30.985945    29750.497 
 1896000     306.7941    191.74851   -23132.209   -25059.049    1926.8408    1.1610133    30.985945    30.985945    30.985945    29750.497 
 1897000    287.67694   -622.60712   -23254.416   -25061.191    1806.7743    1.1610133    30.985945    30.985945    30.985945    29750.497 
 1898000    305.92655   -1195.0099   -23180.255   -25101.647    1921.3921    1.1610133    30.985945    30.985945    30.985945    29750.497 
 1899000    304.21145   -691.30627   -23143.686   -25054.307    1910.6203    1.1610133    30.985945    30.985945    30.985945    29750.497 
 1900000    298.97884    576.23492    -23282.54   -25160.297    1877.7565    1.1610133    30.985945    30.985945    30.985945    29750.497 
 1901000    288.44079    -390.1072   -23268.766   -25080.338    1811.5716    1.1610133    30.985945    30.985945    30.985945    29750.497 
 1902000    303.14207   -783.96969   -23132.158   -25036.062     1903.904    1.1610133    30.985945    30.985945    30.985945    29750.497 
 1903000    293.21576   -878.11418   -23225.948   -25067.509    1841.5611    1.1610133    30.985945    30.985945    30.985945    29750.497 
 1904000    295.36821    -384.3241   -23202.294   -25057.374    1855.0797    1.1610133    30.985945    30.985945    30.985945    29750.497 
 1905000    299.25335   -301.65905   -23158.386   -25037.867    1879.4807    1.1610133    30.985945    30.985945    30.985945    29750.497 
 1906000    301.42714   -1155.4233   -23204.546   -25097.679    1893.1333    1.1610133    30.985945    30.985945    30.985945    29750.497 
 1907000    313.85191   -480.80986   -23114.225   -25085.393    1971.1679    1.1610133    30.985945    30.985945    30.985945    29750.497 
 1908000    302.74989   -185.45939   -23144.742   -25046.183    1901.4409    1.1610133    30.985945    30.985945    30.985945    29750.497 
 1909000    294.28057   -183.28227   -23248.007   -25096.256    1848.2488    1.1610133    30.985945    30.985945    30.985945    29750.497 
 1910000     291.9705   -64.645336   -23238.967   -25072.707    1833.7402    1.1610133    30.985945    30.985945    30.985945    29750.497 
 1911000    296.47814   -277.93875   -23209.597   -25071.648    1862.0508    1.1610133    30.985945    30.985945    30.985945    29750.497 
 1912000    305.67085    25.063336   -23079.162   -24998.948    1919.7862    1.1610133    30.985945    30.985945    30.985945    29750.497 
 1913000    289.35548   -454.93821   -23243.118   -25060.435    1817.3164    1.1610133    30.985945    30.985945    30.985945    29750.497 
 1914000     297.7949   -481.65323   -23250.767   -25121.088    1870.3207    1.1610133    30.985945    30.985945    30.985945    29750.497 
 1915000     289.0393   -280.47113   -23202.246   -25017.576    1815.3306    1.1610133    30.985945    30.985945    30.985945    29750.497 
 1916000     301.7253     307.4488   -23212.399   -25107.405    1895.0059    1.1610133    30.985945    30.985945    30.985945    29750.497 
 1917000    301.40839    -840.8131   -23215.857   -25108.872    1893.0155    1.1610133    30.985945    30.985945    30.985945    29750.497 
 1918000    288.80605   -338.77389   -23226.291   -25040.157    1813.8657    1.1610133    30.985945    30.985945    30.985945    29750.497 
 1919000    295.80699   -639.18011   -23241.147   -25098.983    1857.8356    1.1610133    30.985945    30.985945    30.985945    29750.497 
 1920000    307.67133    28.535069   -23157.419   -25089.769    1932.3503    1.1610133    30.985945    30.985945    30.985945    29750.497 
 1921000    296.95658   -544.15313   -23208.578   -25073.634    1865.0556    1.1610133    30.985945    30.985945    30.985945    29750.497 
 1922000    299.59854   -451.15967   -23187.275   -25068.923    1881.6487    1.1610133    30.985945    30.985945    30.985945    29750.497 
 1923000    295.27532   -474.24755    -23311.99   -25166.486    1854.4964    1.1610133    30.985945    30.985945    30.985945    29750.497 
 1924000    295.52382   -758.83126   -23219.565   -25075.622    1856.0571    1.1610133    30.985945    30.985945    30.985945    29750.497 
 1925000    296.31875   -1035.7729   -23251.114   -25112.164    1861.0497    1.1610133    30.985945    30.985945    30.985945    29750.497 
 1926000    306.52734   -547.11448   -23124.731   -25049.897    1925.1654    1.1610133    30.985945    30.985945    30.985945    29750.497 
 1927000    314.02574   -832.70725    -23144.24     -25116.5    1972.2596    1.1610133    30.985945    30.985945    30.985945    29750.497 
 1928000    296.99449   -340.01416   -23237.785   -25103.079    1865.2937    1.1610133    30.985945    30.985945    30.985945    29750.497 
 1929000    303.75917    165.43438   -23271.804   -25179.584    1907.7797    1.1610133    30.985945    30.985945    30.985945    29750.497 
 1930000    291.42476   -1575.4376   -23273.147    -25103.46    1830.3126    1.1610133    30.985945    30.985945    30.985945    29750.497 
 1931000    302.28833    95.522655    -23180.38   -25078.922     1898.542    1.1610133    30.985945    30.985945    30.985945    29750.497 
 1932000     296.8931   -848.83787   -23229.709   -25094.366     1864.657    1.1610133    30.985945    30.985945    30.985945    29750.497 
 1933000    298.27982   -371.12758   -23271.008   -25144.374    1873.3663    1.1610133    30.985945    30.985945    30.985945    29750.497 
 1934000    300.54793   -699.94926   -23147.571   -25035.182    1887.6113    1.1610133    30.985945    30.985945    30.985945    29750.497 
 1935000    291.20035   -572.77528   -23277.909   -25106.812    1828.9032    1.1610133    30.985945    30.985945    30.985945    29750.497 
 1936000    298.81735   -1315.0303   -23268.027    -25144.77    1876.7423    1.1610133    30.985945    30.985945    30.985945    29750.497 
 1937000    295.97908    342.21173   -23232.604    -25091.52    1858.9164    1.1610133    30.985945    30.985945    30.985945    29750.497 
 1938000    292.06593   -1008.1835   -23313.658   -25147.998    1834.3396    1.1610133    30.985945    30.985945    30.985945    29750.497 
 1939000    297.01671     9.950656   -23194.272   -25059.705    1865.4333    1.1610133    30.985945    30.985945    30.985945    29750.497 
 1940000    303.78681    27.535149   -23137.237    -25045.19    1907.9534    1.1610133    30.985945    30.985945    30.985945    29750.497 
 1941000    298.64572   -360.35951   -23234.209   -25109.874    1875.6644    1.1610133    30.985945    30.985945    30.985945    29750.497 
 1942000    298.89731   -6.3777125   -23190.637   -25067.881    1877.2445    1.1610133    30.985945    30.985945    30.985945    29750.497 
 1943000    301.48057    65.466401   -23114.315   -25007.784    1893.4688    1.1610133    30.985945    30.985945    30.985945    29750.497 
 1944000    300.68344   -272.55951   -23229.468    -25117.93    1888.4624    1.1610133    30.985945    30.985945    30.985945    29750.497 
 1945000    292.71933    531.54826   -23263.587    -25102.03    1838.4433    1.1610133    30.985945    30.985945    30.985945    29750.497 
 1946000     285.4693   -640.50868   -23283.418   -25076.327     1792.909    1.1610133    30.985945    30.985945    30.985945    29750.497 
 1947000    300.30295     462.0889   -23105.772   -24991.845    1886.0727    1.1610133    30.985945    30.985945    30.985945    29750.497 
 1948000    294.11846   -1076.5246   -23264.918   -25112.149    1847.2306    1.1610133    30.985945    30.985945    30.985945    29750.497 
 1949000    301.69944   -199.78567   -23206.306   -25101.149    1894.8435    1.1610133    30.985945    30.985945    30.985945    29750.497 
 1950000    291.88092   -80.508098   -23203.349   -25036.526    1833.1776    1.1610133    30.985945    30.985945    30.985945    29750.497 
 1951000    294.59428    819.66985   -23166.498   -25016.717     1850.219    1.1610133    30.985945    30.985945    30.985945    29750.497 
 1952000     291.5587   -597.68077     -23297.8   -25128.954    1831.1539    1.1610133    30.985945    30.985945    30.985945    29750.497 
 1953000    291.68895    -498.4512   -23239.899   -25071.871    1831.9719    1.1610133    30.985945    30.985945    30.985945    29750.497 
 1954000    295.19426   -871.95882   -23205.357   -25059.344    1853.9872    1.1610133    30.985945    30.985945    30.985945    29750.497 
 1955000    294.64296   -263.03207   -23231.802   -25082.327    1850.5248    1.1610133    30.985945    30.985945    30.985945    29750.497 
 1956000    298.35301   -799.00194   -23191.047   -25064.873     1873.826    1.1610133    30.985945    30.985945    30.985945    29750.497 
 1957000    298.72131   -807.05057   -23196.369   -25072.508    1876.1392    1.1610133    30.985945    30.985945    30.985945    29750.497 
 1958000    299.66901    965.74445   -23108.955   -24991.047    1882.0912    1.1610133    30.985945    30.985945    30.985945    29750.497 
 1959000    300.05091   -317.26116   -23224.514   -25109.004    1884.4898    1.1610133    30.985945    30.985945    30.985945    29750.497 
 1960000    296.04233    -506.1766    -23264.51   -25123.824    1859.3137    1.1610133    30.985945    30.985945    30.985945    29750.497 
 1961000    299.99988   -789.38866   -23149.989   -25034.158    1884.1692    1.1610133    30.985945    30.985945    30.985945    29750.497 
 1962000    301.69118    35.360568   -23225.034   -25119.825    1894.7916    1.1610133    30.985945    30.985945    30.985945    29750.497 
 1963000    302.17757    243.22896    -23191.05   -25088.897    1897.8464    1.1610133    30.985945    30.985945    30.985945    29750.497 
 1964000    299.57404   -814.08447   -23236.384   -25117.879    1881.4948    1.1610133    30.985945    30.985945    30.985945    29750.497 
 1965000    308.64243   -1274.7471    -23196.25   -25134.699    1938.4494    1.1610133    30.985945    30.985945    30.985945    29750.497 
 1966000    305.64124    832.16087   -23264.043   -25183.644    1919.6002    1.1610133    30.985945    30.985945    30.985945    29750.497 
 1967000    301.77367   -444.07237   -23219.803   -25115.113    1895.3097    1.1610133    30.985945    30.985945    30.985945    29750.497 
 1968000    294.64145   -476.75544   -23352.204   -25202.719    1850.5153    1.1610133    30.985945    30.985945    30.985945    29750.497 
 1969000     301.8709   -148.90194   -23248.205   -25144.126    1895.9204    1.1610133    30.985945    30.985945    30.985945    29750.497 
 1970000    290.43846   -674.92025   -23245.035   -25069.153    1824.1182    1.1610133    30.985945    30.985945    30.985945    29750.497 
 1971000     297.1657    -1055.724   -23146.558   -25012.927     1866.369    1.1610133    30.985945    30.985945    30.985945    29750.497 
 1972000    303.26688     -309.553   -23217.199   -25121.887    1904.6879    1.1610133    30.985945    30.985945    30.985945    29750.497 
 1973000    306.72173    85.486374   -23157.074   -25083.461    1926.3863    1.1610133    30.985945    30.985945    30.985945    29750.497 
 1974000    302.10471   -425.14916   -23224.251   -25121.639    1897.3888    1.1610133    30.985945    30.985945    30.985945    29750.497 
 1975000    292.84689   -760.00997   -23250.888   -25090.132    1839.2444    1.1610133    30.985945    30.985945    30.985945    29750.497 
 1976000    290.58558   -296.52813   -23261.628   -25086.671    1825.0421    1.1610133    30.985945    30.985945    30.985945    29750.497 
 1977000    293.12797   -354.95632   -23348.507   -25189.517    1841.0098    1.1610133    30.985945    30.985945    30.985945    29750.497 
 1978000    294.22106   -641.91771   -23272.351   -25120.226     1847.875    1.1610133    30.985945    30.985945    30.985945    29750.497 
 1979000    298.47056   -118.96483   -23307.049   -25181.613    1874.5643    1.1610133    30.985945    30.985945    30.985945    29750.497 
 1980000    306.54132   -98.015446   -23217.615   -25142.868    1925.2532    1.1610133    30.985945    30.985945    30.985945    29750.497 
 1981000    297.23791    147.30953   -23236.736   -25103.559    1866.8225    1.1610133    30.985945    30.985945    30.985945    29750.497 
 1982000    296.25322   -876.84534   -23301.161   -25161.799    1860.6381    1.1610133    30.985945    30.985945    30.985945    29750.497 
 1983000    294.49181   -1530.5922   -23296.113   -25145.689    1849.5755    1.1610133    30.985945    30.985945    30.985945    29750.497 
 1984000    296.99979    454.98869   -23328.137   -25193.464     1865.327    1.1610133    30.985945    30.985945    30.985945    29750.497 
 1985000    295.21033   -981.08624   -23236.593   -25090.682    1854.0882    1.1610133    30.985945    30.985945    30.985945    29750.497 
 1986000    300.66738   -625.22238   -23259.955   -25148.317    1888.3616    1.1610133    30.985945    30.985945    30.985945    29750.497 
 1987000    292.41695    8.5595908   -23199.703   -25036.247    1836.5442    1.1610133    30.985945    30.985945    30.985945    29750.497 
 1988000    296.91132    807.33552   -23259.747   -25124.518    1864.7714    1.1610133    30.985945    30.985945    30.985945    29750.497 
 1989000    299.46449    174.59748   -23255.755   -25136.562    1880.8067    1.1610133    30.985945    30.985945    30.985945    29750.497 
 1990000    298.30102   -474.65723   -23251.292   -25124.791    1873.4995    1.1610133    30.985945    30.985945    30.985945    29750.497 
 1991000    299.09481   -429.09449   -23234.703   -25113.187    1878.4849    1.1610133    30.985945    30.985945    30.985945    29750.497 
 1992000    293.86381   -1121.6788   -23297.702   -25143.334    1845.6313    1.1610133    30.985945    30.985945    30.985945    29750.497 
 1993000    303.48039   -61.714776   -23175.846   -25081.875    1906.0289    1.1610133    30.985945    30.985945    30.985945    29750.497 
 1994000    300.22912   -857.27107   -23134.477   -25020.086    1885.6091    1.1610133    30.985945    30.985945    30.985945    29750.497 
 1995000    301.86292   -1275.7938     -23175.4    -25071.27    1895.8702    1.1610133    30.985945    30.985945    30.985945    29750.497 
 1996000    299.39727   -632.94637   -23248.551   -25128.936    1880.3845    1.1610133    30.985945    30.985945    30.985945    29750.497 
 1997000    294.89059   -443.38165   -23257.379   -25109.459      1852.08    1.1610133    30.985945    30.985945    30.985945    29750.497 
 1998000    308.00212   -21.119953   -23163.159   -25097.587    1934.4279    1.1610133    30.985945    30.985945    30.985945    29750.497 
 1999000    288.17378    66.136238   -23320.419   -25130.314    1809.8947    1.1610133    30.985945    30.985945    30.985945    29750.497 
 2000000    302.01447   -397.31405   -23194.008    -25090.83     1896.822    1.1610133    30.985945    30.985945    30.985945    29750.497 
 2001000    295.81484   -441.66024   -23201.575    -25059.46    1857.8848    1.1610133    30.985945    30.985945    30.985945    29750.497 
 2002000    302.49859    19.537186   -23133.522   -25033.384    1899.8626    1.1610133    30.985945    30.985945    30.985945    29750.497 
 2003000    297.28497   -381.29603   -23245.322    -25112.44    1867.1181    1.1610133    30.985945    30.985945    30.985945    29750.497 
 2004000    297.08318   -3.4280069   -23238.734   -25104.585    1865.8508    1.1610133    30.985945    30.985945    30.985945    29750.497 
 2005000    291.97194    383.64477   -23309.625   -25143.374    1833.7493    1.1610133    30.985945    30.985945    30.985945    29750.497 
 2006000    305.01584   -606.05643   -23224.706   -25140.378    1915.6723    1.1610133    30.985945    30.985945    30.985945    29750.497 
 2007000    296.96292    101.72163   -23225.476   -25090.572    1865.0955    1.1610133    30.985945    30.985945    30.985945    29750.497 
 2008000    308.02718   -331.25234   -23155.711   -25090.296    1934.5853    1.1610133    30.985945    30.985945    30.985945    29750.497 
 2009000    295.79022   -787.69146   -23246.399   -25104.129    1857.7302    1.1610133    30.985945    30.985945    30.985945    29750.497 
 2010000    292.17918   -1043.3331   -23200.784   -25035.834    1835.0509    1.1610133    30.985945    30.985945    30.985945    29750.497 
 2011000     302.1826   -30.509234   -23130.454   -25028.332     1897.878    1.1610133    30.985945    30.985945    30.985945    29750.497 
 2012000    305.05701   -548.09513   -23189.512   -25105.443    1915.9309    1.1610133    30.985945    30.985945    30.985945    29750.497 
 2013000    298.04972   -805.09505   -23252.288   -25124.209    1871.9212    1.1610133    30.985945    30.985945    30.985945    29750.497 
 2014000    302.96358   -907.87953   -23220.953   -25123.736     1902.783    1.1610133    30.985945    30.985945    30.985945    29750.497 
 2015000     295.2849   -684.16485   -23238.811   -25093.367    1854.5565    1.1610133    30.985945    30.985945    30.985945    29750.497 
 2016000    300.95149   -395.48984   -23120.307   -25010.453    1890.1459    1.1610133    30.985945    30.985945    30.985945    29750.497 
 2017000    300.88437   -1345.2636   -23208.786    -25098.51    1889.7243    1.1610133    30.985945    30.985945    30.985945    29750.497 
 2018000    298.43441    244.15295   -23119.968   -24994.306    1874.3372    1.1610133    30.985945    30.985945    30.985945    29750.497 
 2019000    298.94421   -197.87233   -23079.244   -24956.783    1877.5391    1.1610133    30.985945    30.985945    30.985945    29750.497 
 2020000    298.67606   -743.30521   -23138.929   -25014.784    1875.8549    1.1610133    30.985945    30.985945    30.985945    29750.497 
 2021000    287.34658   -517.85804   -23312.634   -25117.334    1804.6994    1.1610133    30.985945    30.985945    30.985945    29750.497 
 2022000    296.14634    -1287.258   -23263.671   -25123.638    1859.9669    1.1610133    30.985945    30.985945    30.985945    29750.497 
 2023000    302.41238   -461.81049   -23232.182   -25131.503    1899.3211    1.1610133    30.985945    30.985945    30.985945    29750.497 
 2024000    303.04084    -292.5301   -23217.458   -25120.727    1903.2682    1.1610133    30.985945    30.985945    30.985945    29750.497 
 2025000    303.27743   -1319.7641   -23133.371   -25038.125    1904.7542    1.1610133    30.985945    30.985945    30.985945    29750.497 
 2026000     290.1631    342.62249   -23211.835   -25034.223    1822.3887    1.1610133    30.985945    30.985945    30.985945    29750.497 
 2027000     299.0649   -329.95397   -23219.611   -25097.908    1878.2971    1.1610133    30.985945    30.985945    30.985945    29750.497 
 2028000     303.3956    -230.5719   -23208.264    -25113.76    1905.4964    1.1610133    30.985945    30.985945    30.985945    29750.497 
 2029000    292.97324   -199.96385   -23258.375   -25098.413     1840.038    1.1610133    30.985945    30.985945    30.985945    29750.497 
 2030000     290.0315    -12.41944   -23267.952   -25089.514    1821.5622    1.1610133    30.985945    30.985945    30.985945    29750.497 
 2031000    292.15891    -492.2111    -23341.52   -25176.444    1834.9235    1.1610133    30.985945    30.985945    30.985945    29750.497 
 2032000    291.39045    199.52816    -23266.97   -25097.068    1830.0972    1.1610133    30.985945    30.985945    30.985945    29750.497 
 2033000    305.13149   -317.02442   -23285.627   -25202.026    1916.3987    1.1610133    30.985945    30.985945    30.985945    29750.497 
 2034000    304.30603    -585.2047   -23249.692   -25160.906    1911.2144    1.1610133    30.985945    30.985945    30.985945    29750.497 
 2035000    288.86556   -1532.5552   -23248.815   -25063.054    1814.2394    1.1610133    30.985945    30.985945    30.985945    29750.497 
 2036000     295.1871    1147.6944   -23118.367    -24972.31    1853.9423    1.1610133    30.985945    30.985945    30.985945    29750.497 
 2037000    299.15512   -550.45473   -23171.701   -25050.565    1878.8637    1.1610133    30.985945    30.985945    30.985945    29750.497 
 2038000     300.6789   -437.45244   -23189.186    -25077.62    1888.4339    1.1610133    30.985945    30.985945    30.985945    29750.497 
 2039000    292.59942   -938.29682   -23291.662   -25129.352    1837.6902    1.1610133    30.985945    30.985945    30.985945    29750.497 
 2040000    291.82352   -296.10817   -23288.468   -25121.285    1832.8171    1.1610133    30.985945    30.985945    30.985945    29750.497 
 2041000    303.25882   -413.41094   -23154.898   -25059.535    1904.6372    1.1610133    30.985945    30.985945    30.985945    29750.497 
 2042000    303.51562   -842.94358   -23176.964   -25083.214    1906.2501    1.1610133    30.985945    30.985945    30.985945    29750.497 
 2043000    300.40556   -518.64751   -23236.595   -25123.313    1886.7172    1.1610133    30.985945    30.985945    30.985945    29750.497 
 2044000     297.4883    88.254434   -23192.687   -25061.083    1868.3951    1.1610133    30.985945    30.985945    30.985945    29750.497 
 2045000    303.60714   -42.934297   -23269.157   -25175.982    1906.8249    1.1610133    30.985945    30.985945    30.985945    29750.497 
 2046000    292.71455   -280.57204   -23280.147    -25118.56    1838.4133    1.1610133    30.985945    30.985945    30.985945    29750.497 
 2047000    297.00485   -481.91898    -23310.13   -25175.489    1865.3588    1.1610133    30.985945    30.985945    30.985945    29750.497 
 2048000    304.01541    275.67965   -23167.453   -25076.842    1909.3891    1.1610133    30.985945    30.985945    30.985945    29750.497 
 2049000    285.81231   -818.70949   -23316.958   -25112.021    1795.0633    1.1610133    30.985945    30.985945    30.985945    29750.497 
 2050000     290.2496   -663.03593   -23240.332   -25063.264     1822.932    1.1610133    30.985945    30.985945    30.985945    29750.497 
 2051000    292.63347    278.88681     -23170.9   -25008.804    1837.9041    1.1610133    30.985945    30.985945    30.985945    29750.497 
 2052000    291.61188    15.006934   -23313.749   -25145.237    1831.4879    1.1610133    30.985945    30.985945    30.985945    29750.497 
 2053000     300.8542    -785.4627   -23202.061   -25091.596    1889.5349    1.1610133    30.985945    30.985945    30.985945    29750.497 
 2054000    301.58629   -829.81111    -23185.71   -25079.843    1894.1328    1.1610133    30.985945    30.985945    30.985945    29750.497 
 2055000    291.77231   -18.971788   -23365.389   -25197.884    1832.4955    1.1610133    30.985945    30.985945    30.985945    29750.497 
 2056000    291.51521   -1557.6122   -23317.039    -25147.92    1830.8807    1.1610133    30.985945    30.985945    30.985945    29750.497 
 2057000    299.14449   -538.60628   -23260.314   -25139.111     1878.797    1.1610133    30.985945    30.985945    30.985945    29750.497 
 2058000    292.47336   -876.29388   -23225.587   -25062.485    1836.8985    1.1610133    30.985945    30.985945    30.985945    29750.497 
 2059000    298.67595    -491.8463   -23279.801   -25155.655    1875.8543    1.1610133    30.985945    30.985945    30.985945    29750.497 
 2060000    300.23702    -427.3185    -23216.04   -25101.699    1885.6587    1.1610133    30.985945    30.985945    30.985945    29750.497 
 2061000    303.57433    51.975299   -23161.657   -25068.276    1906.6188    1.1610133    30.985945    30.985945    30.985945    29750.497 
 2062000    300.42901    426.81776   -23176.165   -25063.029    1886.8645    1.1610133    30.985945    30.985945    30.985945    29750.497 
 2063000     301.6969    1062.0979   -23140.386   -25035.213    1894.8275    1.1610133    30.985945    30.985945    30.985945    29750.497 
 2064000    296.86468   -39.499423   -23194.607   -25059.086    1864.4784    1.1610133    30.985945    30.985945    30.985945    29750.497 
 2065000    307.50405   -115.38961   -23134.239   -25065.538    1931.2997    1.1610133    30.985945    30.985945    30.985945    29750.497 
 2066000    294.42208   -637.41736   -23188.475   -25037.613    1849.1375    1.1610133    30.985945    30.985945    30.985945    29750.497 
 2067000    301.17796      -312.38   -23154.868   -25046.436    1891.5683    1.1610133    30.985945    30.985945    30.985945    29750.497 
 2068000    295.18397   -372.94203   -23144.937   -24998.859    1853.9227    1.1610133    30.985945    30.985945    30.985945    29750.497 
 2069000    310.10154   -892.90715    -23086.12   -25033.733    1947.6134    1.1610133    30.985945    30.985945    30.985945    29750.497 
 2070000    299.14783   -1123.4351   -23191.686   -25070.504    1878.8179    1.1610133    30.985945    30.985945    30.985945    29750.497 
 2071000    299.47965   -558.01616   -23183.099   -25064.001    1880.9019    1.1610133    30.985945    30.985945    30.985945    29750.497 
 2072000    298.36158   -316.64274   -23153.716   -25027.595    1873.8798    1.1610133    30.985945    30.985945    30.985945    29750.497 
 2073000    308.89335   -422.80484   -23047.768   -24987.793    1940.0253    1.1610133    30.985945    30.985945    30.985945    29750.497 
 2074000     299.3203    170.61093   -23163.908   -25043.809    1879.9012    1.1610133    30.985945    30.985945    30.985945    29750.497 
 2075000    301.17757   -1114.8533   -23171.126   -25062.691    1891.5658    1.1610133    30.985945    30.985945    30.985945    29750.497 
 2076000     304.5616   -378.04092   -23133.411   -25046.231    1912.8195    1.1610133    30.985945    30.985945    30.985945    29750.497 
 2077000    298.52318   -1245.0329   -23189.698   -25064.593    1874.8948    1.1610133    30.985945    30.985945    30.985945    29750.497 
 2078000    300.65595   -419.60509   -23173.941    -25062.23    1888.2898    1.1610133    30.985945    30.985945    30.985945    29750.497 
 2079000    302.58655    192.92863   -23105.289   -25005.704     1900.415    1.1610133    30.985945    30.985945    30.985945    29750.497 
 2080000    302.41077    -289.9811   -23192.098   -25091.409    1899.3111    1.1610133    30.985945    30.985945    30.985945    29750.497 
 2081000     305.4838   -480.10998   -23142.859   -25061.471    1918.6114    1.1610133    30.985945    30.985945    30.985945    29750.497 
 2082000    294.98495   -737.98433   -23287.936   -25140.608    1852.6727    1.1610133    30.985945    30.985945    30.985945    29750.497 
 2083000     305.0886    -182.1756   -23169.255   -25085.384    1916.1293    1.1610133    30.985945    30.985945    30.985945    29750.497 
 2084000    294.79602   -226.40523   -23199.651   -25051.137    1851.4861    1.1610133    30.985945    30.985945    30.985945    29750.497 
 2085000    293.76017   -277.21272   -23195.782   -25040.763    1844.9804    1.1610133    30.985945    30.985945    30.985945    29750.497 
 2086000    287.04674   -677.17486   -23264.008   -25066.825    1802.8162    1.1610133    30.985945    30.985945    30.985945    29750.497 
 2087000    296.28086   -418.64268   -23221.539    -25082.35    1860.8117    1.1610133    30.985945    30.985945    30.985945    29750.497 
 2088000     297.8733   -361.52339   -23257.487     -25128.3    1870.8132    1.1610133    30.985945    30.985945    30.985945    29750.497 
 2089000    299.42819   -371.60659   -23161.229   -25041.808    1880.5788    1.1610133    30.985945    30.985945    30.985945    29750.497 
 2090000    300.83918   -835.01227   -23185.517   -25074.958    1889.4405    1.1610133    30.985945    30.985945    30.985945    29750.497 
 2091000    300.70847   -309.73579   -23185.414   -25074.034    1888.6196    1.1610133    30.985945    30.985945    30.985945    29750.497 
 2092000    306.92963   -947.42001   -23201.735   -25129.427     1927.692    1.1610133    30.985945    30.985945    30.985945    29750.497 
 2093000    307.99465    235.73446   -23144.527   -25078.908     1934.381    1.1610133    30.985945    30.985945    30.985945    29750.497 
 2094000    293.17522   -190.57116   -23290.509   -25131.816    1841.3066    1.1610133    30.985945    30.985945    30.985945    29750.497 
 2095000    308.72253   -1083.6249   -23146.252   -25085.204    1938.9525    1.1610133    30.985945    30.985945    30.985945    29750.497 
 2096000    312.41574   -564.05057   -23081.279   -25043.427    1962.1479    1.1610133    30.985945    30.985945    30.985945    29750.497 
 2097000    298.61557   -362.43063   -23213.746   -25089.221     1875.475    1.1610133    30.985945    30.985945    30.985945    29750.497 
 2098000    297.58357    41.124198   -23257.134   -25126.127    1868.9935    1.1610133    30.985945    30.985945    30.985945    29750.497 
 2099000    302.15237    393.91363   -23232.488   -25130.176    1897.6881    1.1610133    30.985945    30.985945    30.985945    29750.497 
 2100000    301.92156   -479.90465   -23263.664   -25159.903    1896.2385    1.1610133    30.985945    30.985945    30.985945    29750.497 
 2101000    290.65248    865.03183   -23224.917    -25050.38    1825.4623    1.1610133    30.985945    30.985945    30.985945    29750.497 
 2102000    301.38118   -1421.1381   -23168.518   -25061.362    1892.8446    1.1610133    30.985945    30.985945    30.985945    29750.497 
 2103000     298.0028   -727.27148   -23242.468   -25114.094    1871.6265    1.1610133    30.985945    30.985945    30.985945    29750.497 
 2104000    295.07653   -805.64717    -23250.54   -25103.788    1853.2479    1.1610133    30.985945    30.985945    30.985945    29750.497 
 2105000     292.0301    154.51883   -23242.122   -25076.237    1834.1145    1.1610133    30.985945    30.985945    30.985945    29750.497 
 2106000    299.65093   -189.56373   -23162.407   -25044.385    1881.9777    1.1610133    30.985945    30.985945    30.985945    29750.497 
 2107000    297.71023   -233.30483   -23206.282   -25076.071     1869.789    1.1610133    30.985945    30.985945    30.985945    29750.497 
 2108000    294.68454   -1177.2023   -23276.448   -25127.234    1850.7859    1.1610133    30.985945    30.985945    30.985945    29750.497 
 2109000    298.73935   -90.946301   -23265.819   -25142.071    1876.2525    1.1610133    30.985945    30.985945    30.985945    29750.497 
 2110000    303.62794   -1051.3102    -23148.44   -25055.395    1906.9555    1.1610133    30.985945    30.985945    30.985945    29750.497 
 2111000     298.4086   -105.86632    -23288.32   -25162.495    1874.1751    1.1610133    30.985945    30.985945    30.985945    29750.497 
 2112000    302.07153   -190.10979   -23060.379    -24957.56    1897.1804    1.1610133    30.985945    30.985945    30.985945    29750.497 
 2113000    294.25937   -711.20853   -23228.486   -25076.602    1848.1156    1.1610133    30.985945    30.985945    30.985945    29750.497 
 2114000    305.87259   -749.47794   -23163.916   -25084.969    1921.0532    1.1610133    30.985945    30.985945    30.985945    29750.497 
 2115000    291.53833   -609.95249   -23232.618   -25063.644     1831.026    1.1610133    30.985945    30.985945    30.985945    29750.497 
 2116000     298.6555   -535.28281   -23169.636   -25045.362    1875.7258    1.1610133    30.985945    30.985945    30.985945    29750.497 
 2117000    300.54462   -424.04981   -23189.058   -25076.648    1887.5906    1.1610133    30.985945    30.985945    30.985945    29750.497 
 2118000    287.68573   -1280.7041    -23246.46   -25053.289    1806.8295    1.1610133    30.985945    30.985945    30.985945    29750.497 
 2119000    287.64164   -644.91462   -23317.756   -25124.309    1806.5525    1.1610133    30.985945    30.985945    30.985945    29750.497 
 2120000    303.92287   -429.20802   -23170.077   -25078.885    1908.8079    1.1610133    30.985945    30.985945    30.985945    29750.497 
 2121000    294.20855    -695.8946    -23168.03   -25015.827    1847.7964    1.1610133    30.985945    30.985945    30.985945    29750.497 
 2122000    298.66831   -106.06106   -23242.531   -25118.337    1875.8063    1.1610133    30.985945    30.985945    30.985945    29750.497 
 2123000    302.33631   -1001.2332   -23183.746    -25082.59    1898.8434    1.1610133    30.985945    30.985945    30.985945    29750.497 
 2124000    295.62715    -674.7417   -23290.723   -25147.429    1856.7061    1.1610133    30.985945    30.985945    30.985945    29750.497 
 2125000    298.16987    247.27041   -23202.019   -25074.695    1872.6758    1.1610133    30.985945    30.985945    30.985945    29750.497 
 2126000    294.91783   -1419.5434   -23256.923   -25109.174    1852.2511    1.1610133    30.985945    30.985945    30.985945    29750.497 
 2127000    301.07479   -127.29315   -23236.975   -25127.895    1890.9203    1.1610133    30.985945    30.985945    30.985945    29750.497 
 2128000    299.92914   -54.287463   -23142.034   -25025.759     1883.725    1.1610133    30.985945    30.985945    30.985945    29750.497 
 2129000    299.94803   -296.00018   -23185.299   -25069.142    1883.8436    1.1610133    30.985945    30.985945    30.985945    29750.497 
 2130000     310.7635   -417.67785   -22993.197   -24944.968    1951.7709    1.1610133    30.985945    30.985945    30.985945    29750.497 
 2131000    299.93037    279.23049   -23177.849   -25061.582    1883.7327    1.1610133    30.985945    30.985945    30.985945    29750.497 
 2132000    297.43427   -14.829554   -23146.412   -25014.468    1868.0558    1.1610133    30.985945    30.985945    30.985945    29750.497 
 2133000    296.93781    229.53766   -23257.133    -25122.07    1864.9378    1.1610133    30.985945    30.985945    30.985945    29750.497 
 2134000    303.61215   -251.59811   -23171.058   -25077.914    1906.8564    1.1610133    30.985945    30.985945    30.985945    29750.497 
 2135000    296.55863   -245.20547   -23235.344     -25097.9    1862.5563    1.1610133    30.985945    30.985945    30.985945    29750.497 
 2136000    298.85123    12.601673   -23106.738   -24983.693    1876.9551    1.1610133    30.985945    30.985945    30.985945    29750.497 
 2137000    297.88379   -53.584281   -23279.954   -25150.833     1870.879    1.1610133    30.985945    30.985945    30.985945    29750.497 
 2138000    292.62527    -159.5505   -23272.182   -25110.035    1837.8525    1.1610133    30.985945    30.985945    30.985945    29750.497 
 2139000    306.37772   -844.27456   -23145.821   -25070.046    1924.2257    1.1610133    30.985945    30.985945    30.985945    29750.497 
 2140000    291.71428   -699.99994   -23184.439    -25016.57     1832.131    1.1610133    30.985945    30.985945    30.985945    29750.497 
 2141000    294.85466   -43.399434   -23207.838   -25059.693    1851.8544    1.1610133    30.985945    30.985945    30.985945    29750.497 
 2142000     292.8429   -121.86626   -23120.024   -24959.244    1839.2194    1.1610133    30.985945    30.985945    30.985945    29750.497 
 2143000    297.90005   -580.05807   -23193.242   -25064.223    1870.9812    1.1610133    30.985945    30.985945    30.985945    29750.497 
 2144000    292.64981   -213.18539   -23238.511   -25076.518    1838.0067    1.1610133    30.985945    30.985945    30.985945    29750.497 
 2145000    311.49412   -583.45915   -23097.954   -25054.314    1956.3596    1.1610133    30.985945    30.985945    30.985945    29750.497 
 2146000    297.00478   -460.36841   -23194.733   -25060.092    1865.3583    1.1610133    30.985945    30.985945    30.985945    29750.497 
 2147000    291.14258   -667.05173   -23226.614   -25055.154    1828.5404    1.1610133    30.985945    30.985945    30.985945    29750.497 
 2148000    297.54297    -1596.141   -23162.873   -25031.611    1868.7385    1.1610133    30.985945    30.985945    30.985945    29750.497 
 2149000    294.36963   -80.755205    -23229.27   -25078.078    1848.8081    1.1610133    30.985945    30.985945    30.985945    29750.497 
 2150000    298.85831   -915.85491   -23141.716   -25018.715    1876.9995    1.1610133    30.985945    30.985945    30.985945    29750.497 
 2151000    299.77002   -1030.1384    -23166.15   -25048.876    1882.7256    1.1610133    30.985945    30.985945    30.985945    29750.497 
 2152000    299.86366     13.44383   -23262.435   -25145.749    1883.3137    1.1610133    30.985945    30.985945    30.985945    29750.497 
 2153000    300.63964    -975.3525   -23210.516   -25098.703    1888.1874    1.1610133    30.985945    30.985945    30.985945    29750.497 
 2154000     304.2111   -604.97803   -23257.111   -25167.729    1910.6182    1.1610133    30.985945    30.985945    30.985945    29750.497 
 2155000    291.09403   -510.10936   -23236.402   -25064.638    1828.2355    1.1610133    30.985945    30.985945    30.985945    29750.497 
 2156000    302.61269   -85.686884   -23150.175   -25050.754    1900.5792    1.1610133    30.985945    30.985945    30.985945    29750.497 
 2157000    301.87541   -245.67453   -23246.169   -25142.118    1895.9486    1.1610133    30.985945    30.985945    30.985945    29750.497 
 2158000    304.40106    368.27419   -23180.766   -25092.577    1911.8112    1.1610133    30.985945    30.985945    30.985945    29750.497 
 2159000    297.07931   -452.40072   -23313.612   -25179.438    1865.8265    1.1610133    30.985945    30.985945    30.985945    29750.497 
 2160000    295.06131   -682.91961   -23219.217   -25072.369    1853.1523    1.1610133    30.985945    30.985945    30.985945    29750.497 
 2161000    303.39375    406.20287   -23193.263   -25098.747    1905.4847    1.1610133    30.985945    30.985945    30.985945    29750.497 
 2162000    289.69661   -1030.6655   -23285.633   -25105.092    1819.4589    1.1610133    30.985945    30.985945    30.985945    29750.497 
 2163000    302.23945    717.92528   -23185.719   -25083.954    1898.2351    1.1610133    30.985945    30.985945    30.985945    29750.497 
 2164000    291.30794     171.8021   -23271.218   -25100.797     1829.579    1.1610133    30.985945    30.985945    30.985945    29750.497 
 2165000     286.4526   -341.83248   -23305.353   -25104.437    1799.0847    1.1610133    30.985945    30.985945    30.985945    29750.497 
 2166000    294.24228   -1048.5705   -23221.189   -25069.198    1848.0083    1.1610133    30.985945    30.985945    30.985945    29750.497 
 2167000    302.15755    125.25427   -23103.058   -25000.779    1897.7207    1.1610133    30.985945    30.985945    30.985945    29750.497 
 2168000    294.44369    -82.07333   -23299.569   -25148.842    1849.2732    1.1610133    30.985945    30.985945    30.985945    29750.497 
 2169000    286.61525   -188.88986   -23284.318   -25084.425    1800.1062    1.1610133    30.985945    30.985945    30.985945    29750.497 
 2170000    297.42884   -50.503727   -23185.636   -25053.657    1868.0217    1.1610133    30.985945    30.985945    30.985945    29750.497 
 2171000    290.60825    57.516575   -23288.197   -25113.382    1825.1845    1.1610133    30.985945    30.985945    30.985945    29750.497 
 2172000    306.30499   -261.30555   -23149.792   -25073.561    1923.7689    1.1610133    30.985945    30.985945    30.985945    29750.497 
 2173000    298.77343   -146.03216   -23174.032   -25050.499    1876.4665    1.1610133    30.985945    30.985945    30.985945    29750.497 
 2174000    287.63193   -442.83772   -23219.493   -25025.985    1806.4915    1.1610133    30.985945    30.985945    30.985945    29750.497 
 2175000    297.63989   -735.25899   -23138.996   -25008.343    1869.3472    1.1610133    30.985945    30.985945    30.985945    29750.497 
 2176000    293.11697   -78.158876   -23164.492   -25005.433    1840.9407    1.1610133    30.985945    30.985945    30.985945    29750.497 
 2177000    297.70117    328.95778   -23152.068     -25021.8    1869.7321    1.1610133    30.985945    30.985945    30.985945    29750.497 
 2178000    296.29473   -426.36958   -23291.088   -25151.987    1860.8989    1.1610133    30.985945    30.985945    30.985945    29750.497 
 2179000    302.87789   -118.71137   -23230.826   -25133.071    1902.2448    1.1610133    30.985945    30.985945    30.985945    29750.497 
 2180000     300.2803   -985.47024   -23179.098   -25065.028    1885.9305    1.1610133    30.985945    30.985945    30.985945    29750.497 
 2181000    296.21014   -241.92587   -23267.755   -25128.122    1860.3675    1.1610133    30.985945    30.985945    30.985945    29750.497 
 2182000    295.24771   -381.15933    -23298.35   -25152.673    1854.3229    1.1610133    30.985945    30.985945    30.985945    29750.497 
 2183000     296.0523   -521.93513   -23120.755   -24980.131    1859.3762    1.1610133    30.985945    30.985945    30.985945    29750.497 
 2184000    297.52365   -160.78939   -23238.793    -25107.41    1868.6172    1.1610133    30.985945    30.985945    30.985945    29750.497 
 2185000    302.64851    -135.9498   -23086.446    -24987.25    1900.8042    1.1610133    30.985945    30.985945    30.985945    29750.497 
 2186000    295.62776   -548.91836   -23201.571    -25058.28    1856.7099    1.1610133    30.985945    30.985945    30.985945    29750.497 
 2187000    296.94763    -324.7326   -23237.776   -25102.776    1864.9994    1.1610133    30.985945    30.985945    30.985945    29750.497 
 2188000    302.03652   -666.46464   -23143.739   -25040.699    1896.9606    1.1610133    30.985945    30.985945    30.985945    29750.497 
 2189000    300.12875   -849.65174   -23207.434   -25092.413    1884.9786    1.1610133    30.985945    30.985945    30.985945    29750.497 
 2190000    286.32082    164.50444   -23328.661   -25126.918     1798.257    1.1610133    30.985945    30.985945    30.985945    29750.497 
 2191000    299.73184   -766.94295   -23295.479   -25177.965    1882.4858    1.1610133    30.985945    30.985945    30.985945    29750.497 
 2192000    301.79849   -712.89045    -23209.76   -25105.226    1895.4656    1.1610133    30.985945    30.985945    30.985945    29750.497 
 2193000    291.20198   -481.67493   -23224.699   -25053.613    1828.9135    1.1610133    30.985945    30.985945    30.985945    29750.497 
 2194000    296.83745   -684.01541   -23269.883    -25134.19    1864.3075    1.1610133    30.985945    30.985945    30.985945    29750.497 
 2195000    301.62226   -438.96987   -23109.785   -25004.143    1894.3587    1.1610133    30.985945    30.985945    30.985945    29750.497 
 2196000    292.21201   -755.52009     -23191.3   -25026.557     1835.257    1.1610133    30.985945    30.985945    30.985945    29750.497 
 2197000    301.84761   -530.68663   -23178.713   -25074.487    1895.7741    1.1610133    30.985945    30.985945    30.985945    29750.497 
 2198000    304.74124   -1473.4586   -23143.528   -25057.475    1913.9477    1.1610133    30.985945    30.985945    30.985945    29750.497 
 2199000    291.91016   -1150.3991   -23210.869   -25044.231    1833.3613    1.1610133    30.985945    30.985945    30.985945    29750.497 
 2200000    294.34629   -531.94516   -23251.461   -25100.123    1848.6616    1.1610133    30.985945    30.985945    30.985945    29750.497 
 2201000    294.38988   -68.235275    -23207.02   -25055.955    1848.9353    1.1610133    30.985945    30.985945    30.985945    29750.497 
 2202000    308.35783    -1034.079   -23201.581   -25138.243     1936.662    1.1610133    30.985945    30.985945    30.985945    29750.497 
 2203000    301.31917    227.25787   -23250.248   -25142.703    1892.4552    1.1610133    30.985945    30.985945    30.985945    29750.497 
 2204000    304.36198   -584.55845   -23282.478   -25194.044    1911.5657    1.1610133    30.985945    30.985945    30.985945    29750.497 
 2205000    294.02575   -361.56111   -23223.579   -25070.228    1846.6484    1.1610133    30.985945    30.985945    30.985945    29750.497 
 2206000    302.92018   -759.83204   -23189.436   -25091.947    1902.5104    1.1610133    30.985945    30.985945    30.985945    29750.497 
 2207000    296.43872   -310.81762   -23152.074   -25013.877    1861.8032    1.1610133    30.985945    30.985945    30.985945    29750.497 
 2208000    299.00901   -654.96076    -23269.91   -25147.856     1877.946    1.1610133    30.985945    30.985945    30.985945    29750.497 
 2209000    295.86387   -339.74717   -23153.133   -25011.326    1858.1928    1.1610133    30.985945    30.985945    30.985945    29750.497 
 2210000    298.74939   -1415.3073   -23248.658   -25124.974    1876.3155    1.1610133    30.985945    30.985945    30.985945    29750.497 
 2211000     300.3098   -859.96444   -23114.985   -25001.101    1886.1157    1.1610133    30.985945    30.985945    30.985945    29750.497 
 2212000    293.42527   -777.06568   -23232.772   -25075.649     1842.877    1.1610133    30.985945    30.985945    30.985945    29750.497 
 2213000    297.54857   -633.35307   -23195.388   -25064.161    1868.7737    1.1610133    30.985945    30.985945    30.985945    29750.497 
 2214000    295.49025   -252.68814   -23227.291   -25083.137    1855.8462    1.1610133    30.985945    30.985945    30.985945    29750.497 
 2215000    298.58375   -704.73613   -23197.106   -25072.382    1875.2752    1.1610133    30.985945    30.985945    30.985945    29750.497 
 2216000    299.91787   -453.13303   -23146.628   -25030.282    1883.6542    1.1610133    30.985945    30.985945    30.985945    29750.497 
 2217000    303.89104   -132.52882   -23096.347   -25004.955     1908.608    1.1610133    30.985945    30.985945    30.985945    29750.497 
 2218000    294.92486   -1414.4401   -23152.232   -25004.528    1852.2953    1.1610133    30.985945    30.985945    30.985945    29750.497 
 2219000    299.10886    61.884288   -23208.444   -25087.017    1878.5732    1.1610133    30.985945    30.985945    30.985945    29750.497 
 2220000    292.75987   -283.49379   -23237.845   -25076.543    1838.6979    1.1610133    30.985945    30.985945    30.985945    29750.497 
 2221000    301.63708    198.72761   -23117.659   -25012.111    1894.4518    1.1610133    30.985945    30.985945    30.985945    29750.497 
 2222000    298.30466   -495.43961   -23272.444   -25145.966    1873.5224    1.1610133    30.985945    30.985945    30.985945    29750.497 
 2223000    295.76443   -377.45003   -23211.764   -25069.333    1857.5683    1.1610133    30.985945    30.985945    30.985945    29750.497 
 2224000    300.59044   -775.54432   -23128.271   -25016.149    1887.8783    1.1610133    30.985945    30.985945    30.985945    29750.497 
 2225000    303.12707   -588.25843    -23292.97    -25196.78    1903.8098    1.1610133    30.985945    30.985945    30.985945    29750.497 
 2226000     291.6557   -550.26541   -23201.162   -25032.925    1831.7631    1.1610133    30.985945    30.985945    30.985945    29750.497 
 2227000    290.60128    275.04679   -23280.255   -25105.396    1825.1407    1.1610133    30.985945    30.985945    30.985945    29750.497 
 2228000    299.14702   -611.14071   -23221.356   -25100.169    1878.8128    1.1610133    30.985945    30.985945    30.985945    29750.497 
 2229000    298.10442   -819.15657   -23174.305    -25046.57    1872.2647    1.1610133    30.985945    30.985945    30.985945    29750.497 
 2230000    302.64352   -160.33165   -23103.112   -25003.885    1900.7729    1.1610133    30.985945    30.985945    30.985945    29750.497 
 2231000    295.97194    225.96502   -23275.894   -25134.765    1858.8716    1.1610133    30.985945    30.985945    30.985945    29750.497 
 2232000    302.51715    911.82998   -23220.896   -25120.875    1899.9791    1.1610133    30.985945    30.985945    30.985945    29750.497 
 2233000     296.3197    147.20971   -23280.976   -25142.032    1861.0557    1.1610133    30.985945    30.985945    30.985945    29750.497 
 2234000     303.9844   -99.758696   -23113.517   -25022.711    1909.1943    1.1610133    30.985945    30.985945    30.985945    29750.497 
 2235000    303.78203   -304.02088   -23228.045   -25135.969    1907.9233    1.1610133    30.985945    30.985945    30.985945    29750.497 
 2236000    297.35382    176.66649   -23229.179   -25096.729    1867.5505    1.1610133    30.985945    30.985945    30.985945    29750.497 
 2237000    282.01102   -1016.7225   -23294.418   -25065.607     1771.189    1.1610133    30.985945    30.985945    30.985945    29750.497 
 2238000    300.44639    336.65944   -23167.862   -25054.836    1886.9736    1.1610133    30.985945    30.985945    30.985945    29750.497 
 2239000    295.22038   -503.17165   -23254.072   -25108.223    1854.1513    1.1610133    30.985945    30.985945    30.985945    29750.497 
 2240000    299.87576   -928.02521   -23208.779   -25092.168    1883.3897    1.1610133    30.985945    30.985945    30.985945    29750.497 
 2241000    302.62535   -860.72541   -23114.766   -25015.425    1900.6587    1.1610133    30.985945    30.985945    30.985945    29750.497 
 2242000    289.78322    -1220.154   -23288.185   -25108.188    1820.0028    1.1610133    30.985945    30.985945    30.985945    29750.497 
 2243000    300.74758   -641.32605   -23226.798   -25115.663    1888.8652    1.1610133    30.985945    30.985945    30.985945    29750.497 
 2244000    295.14553    162.31412   -23283.297   -25136.978    1853.6812    1.1610133    30.985945    30.985945    30.985945    29750.497 
 2245000    302.17495   -102.36751   -23126.861   -25024.691      1897.83    1.1610133    30.985945    30.985945    30.985945    29750.497 
 2246000    293.75527    -531.7381   -23215.611    -25060.56    1844.9496    1.1610133    30.985945    30.985945    30.985945    29750.497 
 2247000    290.39337    94.865992   -23140.114   -24963.949     1823.835    1.1610133    30.985945    30.985945    30.985945    29750.497 
 2248000    298.71309   -453.25685   -23125.748   -25001.835    1876.0875    1.1610133    30.985945    30.985945    30.985945    29750.497 
 2249000    300.41189   -501.72902   -23111.852   -24998.609     1886.757    1.1610133    30.985945    30.985945    30.985945    29750.497 
 2250000    296.57731   -382.18202   -23138.681   -25001.354    1862.6736    1.1610133    30.985945    30.985945    30.985945    29750.497 
 2251000    298.60266   -1379.8856    -23285.46   -25160.854    1875.3939    1.1610133    30.985945    30.985945    30.985945    29750.497 
 2252000    301.91235   -1337.3068   -23140.602   -25036.782    1896.1807    1.1610133    30.985945    30.985945    30.985945    29750.497 
 2253000    296.07161   -420.10403   -23194.056   -25053.554    1859.4975    1.1610133    30.985945    30.985945    30.985945    29750.497 
 2254000    297.66514   -6.2056054   -23256.792   -25126.297    1869.5058    1.1610133    30.985945    30.985945    30.985945    29750.497 
 2255000    300.73118   -572.83467   -23254.743   -25143.505    1888.7623    1.1610133    30.985945    30.985945    30.985945    29750.497 
 2256000    302.68814   -1030.8499   -23237.166   -25138.219    1901.0531    1.1610133    30.985945    30.985945    30.985945    29750.497 
 2257000     296.1973   -922.60239   -23216.499   -25076.786    1860.2869    1.1610133    30.985945    30.985945    30.985945    29750.497 
 2258000     303.2768   -1246.3174   -23149.094   -25053.844    1904.7502    1.1610133    30.985945    30.985945    30.985945    29750.497 
 2259000    296.39871    -315.9727   -23240.901   -25102.453    1861.5519    1.1610133    30.985945    30.985945    30.985945    29750.497 
 2260000    296.49431    7.2791669   -23207.163   -25069.315    1862.1523    1.1610133    30.985945    30.985945    30.985945    29750.497 
 2261000    300.65029    102.57698   -23254.201   -25142.455    1888.2542    1.1610133    30.985945    30.985945    30.985945    29750.497 
 2262000    293.59453   -1714.0402   -23205.401   -25049.341    1843.9401    1.1610133    30.985945    30.985945    30.985945    29750.497 
 2263000    302.69047   -593.15151   -23088.853   -24989.921    1901.0677    1.1610133    30.985945    30.985945    30.985945    29750.497 
 2264000    289.09638   -758.43405   -23140.166   -24955.855    1815.6891    1.1610133    30.985945    30.985945    30.985945    29750.497 
 2265000    292.32072   -986.82044   -23296.415   -25132.355    1835.9398    1.1610133    30.985945    30.985945    30.985945    29750.497 
 2266000    300.63784   -71.577525   -23097.001   -24985.177    1888.1761    1.1610133    30.985945    30.985945    30.985945    29750.497 
 2267000     309.1658   -841.88279   -23081.285   -25023.022    1941.7365    1.1610133    30.985945    30.985945    30.985945    29750.497 
 2268000    292.84536    102.65819   -23148.469   -24987.704    1839.2349    1.1610133    30.985945    30.985945    30.985945    29750.497 
 2269000    304.76285    107.87511   -23088.611   -25002.694    1914.0834    1.1610133    30.985945    30.985945    30.985945    29750.497 
 2270000    294.72469   -681.29649   -23094.532    -24945.57    1851.0381    1.1610133    30.985945    30.985945    30.985945    29750.497 
 2271000    299.82612    247.31571    -23189.65   -25072.728     1883.078    1.1610133    30.985945    30.985945    30.985945    29750.497 
 2272000    304.12147    528.76696   -23065.116   -24975.171    1910.0552    1.1610133    30.985945    30.985945    30.985945    29750.497 
 2273000    300.04673   -582.19353   -23163.936     -25048.4    1884.4635    1.1610133    30.985945    30.985945    30.985945    29750.497 
 2274000    295.12376   -615.33067   -23213.855   -25067.399    1853.5445    1.1610133    30.985945    30.985945    30.985945    29750.497 
 2275000    297.71549   -609.68864   -23277.628    -25147.45     1869.822    1.1610133    30.985945    30.985945    30.985945    29750.497 
 2276000    305.07948   -1345.4443   -23145.019   -25061.091     1916.072    1.1610133    30.985945    30.985945    30.985945    29750.497 
 2277000    304.54904   -1239.4341   -23099.242   -25011.983    1912.7406    1.1610133    30.985945    30.985945    30.985945    29750.497 
 2278000    297.23384   -367.13889   -23211.821   -25078.618     1866.797    1.1610133    30.985945    30.985945    30.985945    29750.497 
 2279000    294.94641   -1081.1886   -23207.592   -25060.022    1852.4306    1.1610133    30.985945    30.985945    30.985945    29750.497 
 2280000    298.08438   -651.06961    -23141.47   -25013.609    1872.1389    1.1610133    30.985945    30.985945    30.985945    29750.497 
 2281000    303.51823     226.5533   -23164.708   -25070.975    1906.2665    1.1610133    30.985945    30.985945    30.985945    29750.497 
 2282000    303.04227   -937.81587   -23060.523     -24963.8    1903.2772    1.1610133    30.985945    30.985945    30.985945    29750.497 
 2283000    298.57419   -1415.0385   -23093.685     -24968.9    1875.2152    1.1610133    30.985945    30.985945    30.985945    29750.497 
 2284000    303.38736   -812.57062   -23129.073   -25034.517    1905.4446    1.1610133    30.985945    30.985945    30.985945    29750.497 
 2285000     304.6155   -747.92948   -23145.014   -25058.172     1913.158    1.1610133    30.985945    30.985945    30.985945    29750.497 
 2286000    296.16784    202.80255   -23187.857   -25047.959    1860.1019    1.1610133    30.985945    30.985945    30.985945    29750.497 
 2287000    302.88306    255.03639   -23108.909   -25011.186    1902.2773    1.1610133    30.985945    30.985945    30.985945    29750.497 
 2288000     296.4699   -1042.3345   -23221.588   -25083.587     1861.999    1.1610133    30.985945    30.985945    30.985945    29750.497 
 2289000    295.65411   -378.88657   -23140.981   -24997.857    1856.8754    1.1610133    30.985945    30.985945    30.985945    29750.497 
 2290000    300.33863   -265.84816   -23120.999   -25007.295    1886.2968    1.1610133    30.985945    30.985945    30.985945    29750.497 
 2291000    300.04592   -289.84709    -23175.72   -25060.179    1884.4585    1.1610133    30.985945    30.985945    30.985945    29750.497 
 2292000    294.60067   -284.86546   -23179.722   -25029.981    1850.2592    1.1610133    30.985945    30.985945    30.985945    29750.497 
 2293000    301.04322   -317.26266   -23218.751   -25109.473    1890.7221    1.1610133    30.985945    30.985945    30.985945    29750.497 
 2294000    301.91083    -542.2846   -23202.608   -25098.779    1896.1711    1.1610133    30.985945    30.985945    30.985945    29750.497 
 2295000    304.93168   -95.825483   -23097.637   -25012.781    1915.1438    1.1610133    30.985945    30.985945    30.985945    29750.497 
 2296000    300.04499    37.771955   -23116.115   -25000.568    1884.4526    1.1610133    30.985945    30.985945    30.985945    29750.497 
 2297000    298.09598   -596.24425   -23144.166   -25016.378    1872.2117    1.1610133    30.985945    30.985945    30.985945    29750.497 
 2298000    306.22772   -1410.3083   -23135.458   -25058.742    1923.2836    1.1610133    30.985945    30.985945    30.985945    29750.497 
 2299000    296.88337   -615.29751   -23241.832   -25106.428    1864.5958    1.1610133    30.985945    30.985945    30.985945    29750.497 
 2300000    297.96374    43.044003    -23231.53   -25102.911    1871.3812    1.1610133    30.985945    30.985945    30.985945    29750.497 
 2301000    297.91714   -1000.6814   -23287.545   -25158.633    1871.0885    1.1610133    30.985945    30.985945    30.985945    29750.497 
 2302000    300.67835    48.832039   -23272.676   -25161.107    1888.4304    1.1610133    30.985945    30.985945    30.985945    29750.497 
 2303000    300.63108   -366.27557   -23206.962   -25095.096    1888.1336    1.1610133    30.985945    30.985945    30.985945    29750.497 
 2304000    299.93522    -555.8617   -23172.663   -25056.426    1883.7632    1.1610133    30.985945    30.985945    30.985945    29750.497 
 2305000    303.39902   -970.06097   -23252.883   -25158.401    1905.5178    1.1610133    30.985945    30.985945    30.985945    29750.497 
 2306000    289.73599   -1177.2971   -23235.231   -25054.937    1819.7063    1.1610133    30.985945    30.985945    30.985945    29750.497 
 2307000    297.56081   -641.33691   -23172.992   -25041.843    1868.8505    1.1610133    30.985945    30.985945    30.985945    29750.497 
 2308000    298.38418   -746.23509   -23150.212   -25024.234    1874.0218    1.1610133    30.985945    30.985945    30.985945    29750.497 
 2309000    298.41463     136.3766    -23221.63   -25095.843     1874.213    1.1610133    30.985945    30.985945    30.985945    29750.497 
 2310000    298.04379   -141.07045   -23218.966    -25090.85     1871.884    1.1610133    30.985945    30.985945    30.985945    29750.497 
 2311000    303.38855   -251.50939   -23197.686   -25103.138     1905.452    1.1610133    30.985945    30.985945    30.985945    29750.497 
 2312000    292.09449   -530.47665     -23130.2   -24964.719    1834.5189    1.1610133    30.985945    30.985945    30.985945    29750.497 
 2313000    294.63502    338.68698   -23219.163   -25069.638    1850.4749    1.1610133    30.985945    30.985945    30.985945    29750.497 
 2314000    311.92535    9.3022415   -23133.772    -25092.84     1959.068    1.1610133    30.985945    30.985945    30.985945    29750.497 
 2315000    296.77559   -1253.3931   -23254.949   -25118.868    1863.9189    1.1610133    30.985945    30.985945    30.985945    29750.497 
 2316000    298.21726   -978.42695   -23263.838   -25136.811    1872.9734    1.1610133    30.985945    30.985945    30.985945    29750.497 
 2317000    301.26657   -53.743134    -23131.81   -25023.935    1892.1248    1.1610133    30.985945    30.985945    30.985945    29750.497 
 2318000    290.63016   -1061.1096   -23371.582   -25196.905    1825.3221    1.1610133    30.985945    30.985945    30.985945    29750.497 
 2319000    301.45314   -314.30664   -23184.913    -25078.21    1893.2966    1.1610133    30.985945    30.985945    30.985945    29750.497 
 2320000    299.87227    -7.067557   -23193.422    -25076.79    1883.3678    1.1610133    30.985945    30.985945    30.985945    29750.497 
 2321000    305.33932    161.98417   -23130.862   -25048.566     1917.704    1.1610133    30.985945    30.985945    30.985945    29750.497 
 2322000    284.89136   -1172.1958   -23272.701    -25061.98    1789.2792    1.1610133    30.985945    30.985945    30.985945    29750.497 
 2323000    302.74043   -1342.4193   -23114.975   -25016.357    1901.3815    1.1610133    30.985945    30.985945    30.985945    29750.497 
 2324000     296.8665   -1055.9757   -23260.187   -25124.676    1864.4899    1.1610133    30.985945    30.985945    30.985945    29750.497 
 2325000    299.22518    956.54903   -23249.452   -25128.756    1879.3037    1.1610133    30.985945    30.985945    30.985945    29750.497 
 2326000    296.44709   -1176.9565   -23250.555   -25112.411    1861.8558    1.1610133    30.985945    30.985945    30.985945    29750.497 
 2327000     301.2719    -652.8796   -23137.573   -25029.731    1892.1583    1.1610133    30.985945    30.985945    30.985945    29750.497 
 2328000     295.1938   -488.57542   -23201.831   -25055.816    1853.9844    1.1610133    30.985945    30.985945    30.985945    29750.497 
 2329000     292.1074   -839.13219   -23265.793   -25100.393    1834.6001    1.1610133    30.985945    30.985945    30.985945    29750.497 
 2330000    299.55449   -443.01411   -23199.842   -25081.214     1881.372    1.1610133    30.985945    30.985945    30.985945    29750.497 
 2331000    300.69303     104.6504   -23167.535   -25056.057    1888.5227    1.1610133    30.985945    30.985945    30.985945    29750.497 
 2332000    297.01673   -1436.4207   -23243.919   -25109.352    1865.4334    1.1610133    30.985945    30.985945    30.985945    29750.497 
 2333000    304.25817   -361.79964   -23211.403   -25122.317    1910.9138    1.1610133    30.985945    30.985945    30.985945    29750.497 
 2334000    304.59721   -176.08195   -23144.435   -25057.478    1913.0431    1.1610133    30.985945    30.985945    30.985945    29750.497 
 2335000    302.67292    338.13707   -23155.606   -25056.563    1900.9575    1.1610133    30.985945    30.985945    30.985945    29750.497 
 2336000    305.46265   -68.161663   -23101.809   -25020.288    1918.4786    1.1610133    30.985945    30.985945    30.985945    29750.497 
 2337000    301.21601     170.9675   -23205.896   -25097.704    1891.8072    1.1610133    30.985945    30.985945    30.985945    29750.497 
 2338000    297.81351    -478.5366   -23314.923    -25185.36    1870.4377    1.1610133    30.985945    30.985945    30.985945    29750.497 
 2339000    291.54188   -841.56063   -23265.245   -25096.294    1831.0482    1.1610133    30.985945    30.985945    30.985945    29750.497 
 2340000    306.47173   -479.62402   -23198.978   -25123.794    1924.8162    1.1610133    30.985945    30.985945    30.985945    29750.497 
 2341000    303.18069   -971.64327   -23202.427   -25106.574    1904.1466    1.1610133    30.985945    30.985945    30.985945    29750.497 
 2342000     296.4506   -526.79386   -23245.807   -25107.685    1861.8778    1.1610133    30.985945    30.985945    30.985945    29750.497 
 2343000    311.51636   -741.04184   -23090.097   -25046.596    1956.4993    1.1610133    30.985945    30.985945    30.985945    29750.497 
 2344000    298.05359   -500.72747   -23108.851   -24980.796    1871.9455    1.1610133    30.985945    30.985945    30.985945    29750.497 
 2345000    298.92631   -1044.8522   -23213.257   -25090.683    1877.4266    1.1610133    30.985945    30.985945    30.985945    29750.497 
 2346000    303.22968   -643.73978   -23167.869   -25072.323    1904.4542    1.1610133    30.985945    30.985945    30.985945    29750.497 
 2347000    299.44936   -585.37759   -23122.843   -25003.555    1880.7117    1.1610133    30.985945    30.985945    30.985945    29750.497 
 2348000    286.91913   -70.682396   -23280.547   -25082.562    1802.0148    1.1610133    30.985945    30.985945    30.985945    29750.497 
 2349000    296.00247   -1022.0885   -23125.589   -24984.652    1859.0633    1.1610133    30.985945    30.985945    30.985945    29750.497 
 2350000    307.97634   -969.43466   -23069.583   -25003.849     1934.266    1.1610133    30.985945    30.985945    30.985945    29750.497 
 2351000    294.91722   -1107.6438   -23243.592   -25095.839    1852.2473    1.1610133    30.985945    30.985945    30.985945    29750.497 
 2352000    297.12877    1364.0714   -23171.298   -25037.435    1866.1371    1.1610133    30.985945    30.985945    30.985945    29750.497 
 2353000    296.87574   -204.27471   -23204.144   -25068.692    1864.5479    1.1610133    30.985945    30.985945    30.985945    29750.497 
 2354000    307.45015   -242.06744   -23223.667   -25154.628    1930.9612    1.1610133    30.985945    30.985945    30.985945    29750.497 
 2355000    296.54477    870.92108   -23272.645   -25135.114    1862.4692    1.1610133    30.985945    30.985945    30.985945    29750.497 
 2356000    293.14534   -813.67224    -23326.89   -25168.009    1841.1189    1.1610133    30.985945    30.985945    30.985945    29750.497 
 2357000     294.3541   -612.02927   -23183.258   -25031.968    1848.7106    1.1610133    30.985945    30.985945    30.985945    29750.497 
 2358000    299.63718    271.29121    -23081.45   -24963.341    1881.8913    1.1610133    30.985945    30.985945    30.985945    29750.497 
 2359000     297.6849    295.14038   -23183.841   -25053.471    1869.6299    1.1610133    30.985945    30.985945    30.985945    29750.497 
 2360000    297.88805   -86.855895   -23162.066   -25032.972    1870.9058    1.1610133    30.985945    30.985945    30.985945    29750.497 
 2361000    298.58684    309.98903   -23162.361   -25037.656    1875.2946    1.1610133    30.985945    30.985945    30.985945    29750.497 
 2362000    302.25205   -1091.4812   -23193.372   -25091.686    1898.3142    1.1610133    30.985945    30.985945    30.985945    29750.497 
 2363000    293.76825    -957.3423    -23264.27   -25109.301    1845.0311    1.1610133    30.985945    30.985945    30.985945    29750.497 
 2364000    302.02823   -315.36772   -23151.427   -25048.335    1896.9084    1.1610133    30.985945    30.985945    30.985945    29750.497 
 2365000    293.19328    290.28065   -23167.193   -25008.613    1841.4199    1.1610133    30.985945    30.985945    30.985945    29750.497 
 2366000    292.35911    376.08618   -23220.508   -25056.689    1836.1809    1.1610133    30.985945    30.985945    30.985945    29750.497 
 2367000    305.27459   -1026.9048   -23117.005   -25034.302    1917.2974    1.1610133    30.985945    30.985945    30.985945    29750.497 
 2368000    302.78705   -331.23792   -23229.198   -25130.873    1901.6743    1.1610133    30.985945    30.985945    30.985945    29750.497 
 2369000    298.93768   -858.28694   -23236.455   -25113.953    1877.4981    1.1610133    30.985945    30.985945    30.985945    29750.497 
 2370000    290.48683   -421.76269   -23158.067   -24982.489     1824.422    1.1610133    30.985945    30.985945    30.985945    29750.497 
 2371000    297.44626   -615.48939    -23128.92   -24997.051    1868.1311    1.1610133    30.985945    30.985945    30.985945    29750.497 
 2372000    289.37958   -495.91786   -23257.384   -25074.851    1817.4677    1.1610133    30.985945    30.985945    30.985945    29750.497 
 2373000     289.8278   -85.885568   -23217.789   -25038.071    1820.2828    1.1610133    30.985945    30.985945    30.985945    29750.497 
 2374000     295.1567   -1531.3598   -23305.267   -25159.018    1853.7514    1.1610133    30.985945    30.985945    30.985945    29750.497 
 2375000     303.5739   -127.34894   -23158.196   -25064.812    1906.6162    1.1610133    30.985945    30.985945    30.985945    29750.497 
 2376000    300.99747   -376.70493   -23176.531   -25066.966    1890.4347    1.1610133    30.985945    30.985945    30.985945    29750.497 
 2377000    300.14969   -264.46481   -23214.706   -25099.816    1885.1102    1.1610133    30.985945    30.985945    30.985945    29750.497 
 2378000    296.22201    474.81573   -23152.712   -25013.154    1860.4421    1.1610133    30.985945    30.985945    30.985945    29750.497 
 2379000    295.81161    649.39825   -23185.306    -25043.17    1857.8646    1.1610133    30.985945    30.985945    30.985945    29750.497 
 2380000    292.30776    -184.3298   -23227.353   -25063.212    1835.8584    1.1610133    30.985945    30.985945    30.985945    29750.497 
 2381000    290.61801    400.02685   -23283.966   -25109.212    1825.2458    1.1610133    30.985945    30.985945    30.985945    29750.497 
 2382000    298.40702   -412.40612   -23191.545   -25065.711    1874.1652    1.1610133    30.985945    30.985945    30.985945    29750.497 
 2383000    292.04445   -36.055009   -23292.336    -25126.54    1834.2047    1.1610133    30.985945    30.985945    30.985945    29750.497 
 2384000    294.78953   -1566.6727   -23178.814    -25030.26    1851.4453    1.1610133    30.985945    30.985945    30.985945    29750.497 
 2385000    294.07894   -563.79095   -23186.148    -25033.13    1846.9824    1.1610133    30.985945    30.985945    30.985945    29750.497 
 2386000    293.86182   -930.99373   -23218.506   -25064.124    1845.6188    1.1610133    30.985945    30.985945    30.985945    29750.497 
 2387000    296.33718   -830.82993   -23312.011   -25173.177    1861.1655    1.1610133    30.985945    30.985945    30.985945    29750.497 
 2388000    294.18945   -576.64968   -23194.363    -25042.04    1847.6765    1.1610133    30.985945    30.985945    30.985945    29750.497 
 2389000    289.88848    900.14023   -23231.171   -25051.835    1820.6639    1.1610133    30.985945    30.985945    30.985945    29750.497 
 2390000    303.96818   -979.81508   -23152.114   -25061.207    1909.0925    1.1610133    30.985945    30.985945    30.985945    29750.497 
 2391000    290.79578   -639.66963   -23297.667   -25124.029    1826.3623    1.1610133    30.985945    30.985945    30.985945    29750.497 
 2392000    299.07621    332.77331    -23212.86   -25091.228    1878.3681    1.1610133    30.985945    30.985945    30.985945    29750.497 
 2393000    297.69839   -1191.3453   -23235.366   -25105.081    1869.7146    1.1610133    30.985945    30.985945    30.985945    29750.497 
 2394000    301.82501   -1009.3914   -23144.201   -25039.833    1895.6321    1.1610133    30.985945    30.985945    30.985945    29750.497 
 2395000    300.44118    -844.4569   -23222.797   -25109.738    1886.9409    1.1610133    30.985945    30.985945    30.985945    29750.497 
 2396000    296.69408   -1601.7762   -23252.619   -25116.026     1863.407    1.1610133    30.985945    30.985945    30.985945    29750.497 
 2397000    306.93735   -704.92991   -23122.491   -25050.231    1927.7405    1.1610133    30.985945    30.985945    30.985945    29750.497 
 2398000    295.14135   -1040.8772   -23215.307   -25068.962     1853.655    1.1610133    30.985945    30.985945    30.985945    29750.497 
 2399000    296.21263   -1258.3282   -23222.599   -25082.982    1860.3832    1.1610133    30.985945    30.985945    30.985945    29750.497 
 2400000    302.44733   -310.73088   -23068.321   -24967.862    1899.5406    1.1610133    30.985945    30.985945    30.985945    29750.497 
 2401000    296.20376   -244.71009   -23189.023    -25049.35    1860.3275    1.1610133    30.985945    30.985945    30.985945    29750.497 
 2402000    300.32263   -873.82679   -23118.396   -25004.593    1886.1963    1.1610133    30.985945    30.985945    30.985945    29750.497 
 2403000    306.65649   -122.70385   -23166.642   -25092.619    1925.9766    1.1610133    30.985945    30.985945    30.985945    29750.497 
 2404000     288.3107   -452.49225   -23173.008   -24983.763    1810.7546    1.1610133    30.985945    30.985945    30.985945    29750.497 
 2405000    297.15113   -1382.7967   -23149.435   -25015.712    1866.2775    1.1610133    30.985945    30.985945    30.985945    29750.497 
 2406000    288.98944   -739.42909   -23191.906   -25006.924    1815.0174    1.1610133    30.985945    30.985945    30.985945    29750.497 
 2407000    288.63806   -963.28216   -23285.635   -25098.446    1812.8106    1.1610133    30.985945    30.985945    30.985945    29750.497 
 2408000    293.99393    879.26624   -23152.101   -24998.549    1846.4485    1.1610133    30.985945    30.985945    30.985945    29750.497 
 2409000    299.22639   -631.28436   -23263.167   -25142.478    1879.3113    1.1610133    30.985945    30.985945    30.985945    29750.497 
 2410000    300.36459    49.131634   -23146.346   -25032.806    1886.4599    1.1610133    30.985945    30.985945    30.985945    29750.497 
 2411000    301.96021   -468.77662   -23169.131   -25065.612    1896.4813    1.1610133    30.985945    30.985945    30.985945    29750.497 
 2412000    302.03062   -44.904102   -23122.626   -25019.549    1896.9235    1.1610133    30.985945    30.985945    30.985945    29750.497 
 2413000    304.55672   -937.71489   -23142.703   -25055.491    1912.7888    1.1610133    30.985945    30.985945    30.985945    29750.497 
 2414000    302.28814   -1080.7619   -23193.399    -25091.94    1898.5408    1.1610133    30.985945    30.985945    30.985945    29750.497 
 2415000    299.51959   -326.44383   -23196.678   -25077.831    1881.1528    1.1610133    30.985945    30.985945    30.985945    29750.497 
 2416000    304.95571    647.05424   -23109.089   -25024.383    1915.2947    1.1610133    30.985945    30.985945    30.985945    29750.497 
 2417000    297.35181   -878.90267   -23225.504   -25093.042    1867.5379    1.1610133    30.985945    30.985945    30.985945    29750.497 
 2418000    294.82278   -88.668177   -23091.369   -24943.023    1851.6541    1.1610133    30.985945    30.985945    30.985945    29750.497 
 2419000    287.87933    136.99461   -23194.955   -25003.001    1808.0454    1.1610133    30.985945    30.985945    30.985945    29750.497 
 2420000    295.03701    -407.1897    -23164.97    -25017.97    1852.9996    1.1610133    30.985945    30.985945    30.985945    29750.497 
 2421000    309.97876   -469.34196   -23026.549   -24973.391    1946.8423    1.1610133    30.985945    30.985945    30.985945    29750.497 
 2422000    292.44232   -861.72326   -23228.429   -25065.133    1836.7035    1.1610133    30.985945    30.985945    30.985945    29750.497 
 2423000     296.0128    226.03386    -23161.17   -25020.298    1859.1282    1.1610133    30.985945    30.985945    30.985945    29750.497 
 2424000    299.80019   -414.76792   -23110.764   -24993.679    1882.9151    1.1610133    30.985945    30.985945    30.985945    29750.497 
 2425000      292.895   -1147.7149   -23270.763    -25110.31    1839.5466    1.1610133    30.985945    30.985945    30.985945    29750.497 
 2426000    307.10588    345.81352   -23146.562   -25075.361     1928.799    1.1610133    30.985945    30.985945    30.985945    29750.497 
 2427000    295.41227   -169.62738   -23233.293    -25088.65    1855.3565    1.1610133    30.985945    30.985945    30.985945    29750.497 
 2428000    290.71928   -308.45323   -23254.147   -25080.029    1825.8819    1.1610133    30.985945    30.985945    30.985945    29750.497 
 2429000    298.32475   -268.06637   -23242.283   -25115.932    1873.6485    1.1610133    30.985945    30.985945    30.985945    29750.497 
 2430000    306.64602   -679.35361   -23129.459    -25055.37    1925.9108    1.1610133    30.985945    30.985945    30.985945    29750.497 
 2431000    303.58234   -978.06457   -23142.722   -25049.391    1906.6692    1.1610133    30.985945    30.985945    30.985945    29750.497 
 2432000    289.31761   -568.88698   -23206.743   -25023.821    1817.0786    1.1610133    30.985945    30.985945    30.985945    29750.497 
 2433000    303.95823   -586.39551   -23253.283   -25162.313    1909.0299    1.1610133    30.985945    30.985945    30.985945    29750.497 
 2434000    296.13872    252.55388   -23246.772   -25106.691     1859.919    1.1610133    30.985945    30.985945    30.985945    29750.497 
 2435000    297.77582    -756.2596   -23170.425   -25040.626    1870.2009    1.1610133    30.985945    30.985945    30.985945    29750.497 
 2436000    293.56613   -261.88251   -23275.627   -25119.388    1843.7617    1.1610133    30.985945    30.985945    30.985945    29750.497 
 2437000    303.89421   -359.25227   -23131.533   -25040.161    1908.6279    1.1610133    30.985945    30.985945    30.985945    29750.497 
 2438000    299.11397   -1044.1426   -23238.566   -25117.171    1878.6052    1.1610133    30.985945    30.985945    30.985945    29750.497 
 2439000    290.98134   -336.12937   -23236.978   -25064.506    1827.5277    1.1610133    30.985945    30.985945    30.985945    29750.497 
 2440000    291.68555   -526.94201   -23244.567   -25076.517    1831.9506    1.1610133    30.985945    30.985945    30.985945    29750.497 
 2441000    302.01407   -347.60628   -23135.266   -25032.085    1896.8196    1.1610133    30.985945    30.985945    30.985945    29750.497 
 2442000    304.36263   -1723.7808   -23237.213   -25148.783    1911.5698    1.1610133    30.985945    30.985945    30.985945    29750.497 
 2443000    293.75711    -411.4763   -23149.106   -24994.067    1844.9612    1.1610133    30.985945    30.985945    30.985945    29750.497 
 2444000    303.19487    -207.0916   -23171.882   -25076.118    1904.2356    1.1610133    30.985945    30.985945    30.985945    29750.497 
 2445000    297.19836    1014.1548   -23220.884   -25087.458    1866.5741    1.1610133    30.985945    30.985945    30.985945    29750.497 
 2446000     292.5255   -1181.6364   -23188.635   -25025.861    1837.2259    1.1610133    30.985945    30.985945    30.985945    29750.497 
 2447000    301.96311   -537.35026   -23193.086   -25089.585    1896.4995    1.1610133    30.985945    30.985945    30.985945    29750.497 
 2448000    297.58025    94.314845   -23194.526   -25063.499    1868.9726    1.1610133    30.985945    30.985945    30.985945    29750.497 
 2449000    297.77174   -801.19799    -23139.84   -25010.015    1870.1753    1.1610133    30.985945    30.985945    30.985945    29750.497 
 2450000    290.83562   -1036.3353   -23291.466   -25118.079    1826.6125    1.1610133    30.985945    30.985945    30.985945    29750.497 
 2451000    298.56539    364.45352   -23225.187   -25100.347    1875.1598    1.1610133    30.985945    30.985945    30.985945    29750.497 
 2452000    296.43301   -30.622756   -23223.627   -25085.395    1861.7673    1.1610133    30.985945    30.985945    30.985945    29750.497 
 2453000    306.20533   -700.06743   -23239.023   -25162.166     1923.143    1.1610133    30.985945    30.985945    30.985945    29750.497 
 2454000    293.91424   -619.45466    -23308.11   -25154.058     1845.948    1.1610133    30.985945    30.985945    30.985945    29750.497 
 2455000    297.41428   -951.60221   -23199.113   -25067.043    1867.9303    1.1610133    30.985945    30.985945    30.985945    29750.497 
 2456000    302.82187   -26.069717   -23131.722   -25033.615     1901.893    1.1610133    30.985945    30.985945    30.985945    29750.497 
 2457000    301.66345   -924.52284    -23160.74   -25055.357    1894.6174    1.1610133    30.985945    30.985945    30.985945    29750.497 
 2458000    295.44547    -367.5143   -23236.604   -25092.169     1855.565    1.1610133    30.985945    30.985945    30.985945    29750.497 
 2459000    291.03036   -1314.1775   -23270.902   -25098.738    1827.8356    1.1610133    30.985945    30.985945    30.985945    29750.497 
 2460000    300.65469   -845.26523   -23233.503   -25121.785    1888.2819    1.1610133    30.985945    30.985945    30.985945    29750.497 
 2461000    302.08966    683.14828   -23172.318   -25069.612    1897.2943    1.1610133    30.985945    30.985945    30.985945    29750.497 
 2462000    292.80706   -427.93308   -23295.526   -25134.521    1838.9943    1.1610133    30.985945    30.985945    30.985945    29750.497 
 2463000    302.67409   -257.42109    -23149.29   -25050.255    1900.9648    1.1610133    30.985945    30.985945    30.985945    29750.497 
 2464000     295.8032      129.849   -23318.349   -25176.161    1857.8117    1.1610133    30.985945    30.985945    30.985945    29750.497 
 2465000    301.76958   -53.678802   -23195.073   -25090.357     1895.284    1.1610133    30.985945    30.985945    30.985945    29750.497 
 2466000    302.63285     303.2192   -23147.239   -25047.945    1900.7058    1.1610133    30.985945    30.985945    30.985945    29750.497 
 2467000    296.54226    -643.1303   -23213.857   -25076.311    1862.4535    1.1610133    30.985945    30.985945    30.985945    29750.497 
 2468000    307.25522    -229.9721   -23149.583    -25079.32    1929.7369    1.1610133    30.985945    30.985945    30.985945    29750.497 
 2469000    300.76268    84.464909   -23289.163   -25178.123    1888.9601    1.1610133    30.985945    30.985945    30.985945    29750.497 
 2470000    301.41601   -592.67609   -23186.955   -25080.018    1893.0633    1.1610133    30.985945    30.985945    30.985945    29750.497 
 2471000    296.94468   -809.91824   -23282.555   -25147.536    1864.9809    1.1610133    30.985945    30.985945    30.985945    29750.497 
 2472000    293.02427   -383.84024   -23309.766   -25150.124    1840.3585    1.1610133    30.985945    30.985945    30.985945    29750.497 
 2473000    291.30174   -757.51046   -23324.083   -25153.623      1829.54    1.1610133    30.985945    30.985945    30.985945    29750.497 
 2474000    294.56904   -861.27828    -23247.95    -25098.01    1850.0606    1.1610133    30.985945    30.985945    30.985945    29750.497 
 2475000    291.96418   -614.05631   -23223.422   -25057.123    1833.7005    1.1610133    30.985945    30.985945    30.985945    29750.497 
 2476000    298.58857   -295.48591   -23108.359   -24983.665    1875.3055    1.1610133    30.985945    30.985945    30.985945    29750.497 
 2477000     293.6933    -222.4927   -23188.378   -25032.939    1844.5604    1.1610133    30.985945    30.985945    30.985945    29750.497 
 2478000    296.28084   -1134.2868   -23190.158   -25050.969    1860.8116    1.1610133    30.985945    30.985945    30.985945    29750.497 
 2479000    298.36264   -1608.4364   -23239.446   -25113.333    1873.8865    1.1610133    30.985945    30.985945    30.985945    29750.497 
 2480000    294.77966   -648.40259   -23157.568   -25008.951    1851.3833    1.1610133    30.985945    30.985945    30.985945    29750.497 
 2481000    287.58703   -30.373718    -23347.99   -25154.199    1806.2095    1.1610133    30.985945    30.985945    30.985945    29750.497 
 2482000    301.70294   -162.12132   -23153.033   -25047.898    1894.8655    1.1610133    30.985945    30.985945    30.985945    29750.497 
 2483000    297.81111     144.7388   -23213.722   -25084.145    1870.4226    1.1610133    30.985945    30.985945    30.985945    29750.497 
 2484000    300.98699   -429.00164   -23200.554   -25090.923    1890.3689    1.1610133    30.985945    30.985945    30.985945    29750.497 
 2485000    291.30318   -534.53572   -23239.539   -25069.088    1829.5491    1.1610133    30.985945    30.985945    30.985945    29750.497 
 2486000    299.83705    72.960416   -23166.386   -25049.532    1883.1466    1.1610133    30.985945    30.985945    30.985945    29750.497 
 2487000     293.2117   -643.96437   -23269.112   -25110.648    1841.5356    1.1610133    30.985945    30.985945    30.985945    29750.497 
 2488000    306.27833   -484.16468   -23077.877   -25001.478    1923.6015    1.1610133    30.985945    30.985945    30.985945    29750.497 
 2489000    297.18294   -741.75853    -23112.08   -24978.557    1866.4773    1.1610133    30.985945    30.985945    30.985945    29750.497 
 2490000    291.30828    -1544.174   -23243.958   -25073.539    1829.5811    1.1610133    30.985945    30.985945    30.985945    29750.497 
 2491000    296.72505   -696.15686   -23185.219    -25048.82    1863.6015    1.1610133    30.985945    30.985945    30.985945    29750.497 
 2492000    290.53396   -59.252963   -23206.693   -25031.411    1824.7179    1.1610133    30.985945    30.985945    30.985945    29750.497 
 2493000    301.71832   -272.69367   -23147.744   -25042.706     1894.962    1.1610133    30.985945    30.985945    30.985945    29750.497 
 2494000    306.76514    -840.4344   -23161.052   -25087.711    1926.6589    1.1610133    30.985945    30.985945    30.985945    29750.497 
 2495000    301.74156   -610.26096    -23108.43   -25003.538     1895.108    1.1610133    30.985945    30.985945    30.985945    29750.497 
 2496000    297.69976    112.45686   -23175.396   -25045.119    1869.7232    1.1610133    30.985945    30.985945    30.985945    29750.497 
 2497000    292.56558   -605.31838    -23205.69   -25043.168    1837.4777    1.1610133    30.985945    30.985945    30.985945    29750.497 
 2498000    299.31666    -678.7439   -23178.943   -25058.821    1879.8782    1.1610133    30.985945    30.985945    30.985945    29750.497 
 2499000    302.10534   -733.20522    -23197.96   -25095.353    1897.3927    1.1610133    30.985945    30.985945    30.985945    29750.497 
 2500000    300.31735   -92.503143   -23216.598   -25102.761    1886.1632    1.1610133    30.985945    30.985945    30.985945    29750.497 
 2501000    310.46219    105.86824   -23144.905   -25094.784    1949.8785    1.1610133    30.985945    30.985945    30.985945    29750.497 
 2502000    300.01625    111.53856   -23236.332   -25120.604    1884.2721    1.1610133    30.985945    30.985945    30.985945    29750.497 
 2503000    297.25776   -74.977892   -23230.797   -25097.744    1866.9472    1.1610133    30.985945    30.985945    30.985945    29750.497 
 2504000    301.58548   -303.21683   -23159.641   -25053.769    1894.1277    1.1610133    30.985945    30.985945    30.985945    29750.497 
 2505000    294.30139   -1236.4669    -23250.86    -25099.24    1848.3795    1.1610133    30.985945    30.985945    30.985945    29750.497 
 2506000    294.28988   -708.84534   -23297.943    -25146.25    1848.3073    1.1610133    30.985945    30.985945    30.985945    29750.497 
 2507000    305.11316    -486.6571   -23142.865   -25059.149    1916.2836    1.1610133    30.985945    30.985945    30.985945    29750.497 
 2508000    294.38453   -230.19272   -23241.373   -25090.275    1848.9017    1.1610133    30.985945    30.985945    30.985945    29750.497 
 2509000    292.61092   -1106.2647   -23300.038     -25137.8    1837.7624    1.1610133    30.985945    30.985945    30.985945    29750.497 
 2510000    302.25544    -189.0557   -23178.157   -25076.493    1898.3355    1.1610133    30.985945    30.985945    30.985945    29750.497 
 2511000    296.26245   -606.58639   -23183.528   -25044.224    1860.6961    1.1610133    30.985945    30.985945    30.985945    29750.497 
 2512000    295.14254   -255.41217    -23230.01   -25083.672    1853.6625    1.1610133    30.985945    30.985945    30.985945    29750.497 
 2513000    309.66193   -277.98519   -23115.397    -25060.25    1944.8524    1.1610133    30.985945    30.985945    30.985945    29750.497 
 2514000    302.11611   -35.395373   -23177.303   -25074.764    1897.4604    1.1610133    30.985945    30.985945    30.985945    29750.497 
 2515000     301.9157   -431.99339   -23235.576   -25131.778    1896.2017    1.1610133    30.985945    30.985945    30.985945    29750.497 
 2516000    298.84292    -678.1794    -23177.37   -25054.273    1876.9029    1.1610133    30.985945    30.985945    30.985945    29750.497 
 2517000    302.50661   -277.91804   -23207.333   -25107.246    1899.9129    1.1610133    30.985945    30.985945    30.985945    29750.497 
 2518000    298.70737   -733.32015   -23286.212   -25162.263    1876.0516    1.1610133    30.985945    30.985945    30.985945    29750.497 
 2519000    295.02036   -637.04148   -23153.001   -25005.896    1852.8951    1.1610133    30.985945    30.985945    30.985945    29750.497 
 2520000    293.69381   -658.56722   -23285.887    -25130.45    1844.5636    1.1610133    30.985945    30.985945    30.985945    29750.497 
 2521000      293.878   -850.48193   -23258.283   -25104.003    1845.7204    1.1610133    30.985945    30.985945    30.985945    29750.497 
 2522000    297.28307   -401.76986    -23190.48   -25057.587    1867.1062    1.1610133    30.985945    30.985945    30.985945    29750.497 
 2523000    294.73797    -1150.256   -23223.077   -25074.199    1851.1215    1.1610133    30.985945    30.985945    30.985945    29750.497 
 2524000    304.17182    96.668419   -23187.513   -25097.885    1910.3714    1.1610133    30.985945    30.985945    30.985945    29750.497 
 2525000    291.51815   -506.55585   -23272.731   -25103.631    1830.8992    1.1610133    30.985945    30.985945    30.985945    29750.497 
 2526000    310.66351   -793.01975   -23090.292   -25041.435    1951.1429    1.1610133    30.985945    30.985945    30.985945    29750.497 
 2527000    287.43042    563.75699   -23204.355   -25009.581    1805.2259    1.1610133    30.985945    30.985945    30.985945    29750.497 
 2528000    297.05149   -684.66601   -23204.191   -25069.843    1865.6517    1.1610133    30.985945    30.985945    30.985945    29750.497 
 2529000    295.36636   -271.47767   -23280.924   -25135.992    1855.0682    1.1610133    30.985945    30.985945    30.985945    29750.497 
 2530000    297.27949   -874.81432    -23203.46   -25070.544    1867.0837    1.1610133    30.985945    30.985945    30.985945    29750.497 
 2531000    298.52378   -701.69376    -23193.28   -25068.179    1874.8985    1.1610133    30.985945    30.985945    30.985945    29750.497 
 2532000    284.24379   -715.08582   -23225.338    -25010.55    1785.2121    1.1610133    30.985945    30.985945    30.985945    29750.497 
 2533000    294.81644   -53.997809   -23220.049   -25071.663    1851.6144    1.1610133    30.985945    30.985945    30.985945    29750.497 
 2534000    294.06423    18.247434   -23253.093   -25099.983    1846.8901    1.1610133    30.985945    30.985945    30.985945    29750.497 
 2535000    295.20374   -276.09395   -23182.995   -25037.042    1854.0468    1.1610133    30.985945    30.985945    30.985945    29750.497 
 2536000    297.79642   -1100.2216   -23237.167   -25107.497    1870.3303    1.1610133    30.985945    30.985945    30.985945    29750.497 
 2537000    302.34875    264.25538   -23063.276   -24962.197    1898.9215    1.1610133    30.985945    30.985945    30.985945    29750.497 
 2538000    298.01007     -605.002   -23244.261   -25115.933    1871.6721    1.1610133    30.985945    30.985945    30.985945    29750.497 
 2539000    306.19321    143.87844   -23102.571   -25025.638    1923.0669    1.1610133    30.985945    30.985945    30.985945    29750.497 
 2540000    301.41191   -810.88798   -23253.637   -25146.675    1893.0376    1.1610133    30.985945    30.985945    30.985945    29750.497 
 2541000    290.47968    12.067841   -23299.097   -25123.474     1824.377    1.1610133    30.985945    30.985945    30.985945    29750.497 
 2542000    297.40786   -1070.0759   -23288.472   -25156.361    1867.8899    1.1610133    30.985945    30.985945    30.985945    29750.497 
 2543000    289.52115    62.831303   -23270.104   -25088.461    1818.3569    1.1610133    30.985945    30.985945    30.985945    29750.497 
 2544000    298.69469    357.15175   -23214.994   -25090.966     1875.972    1.1610133    30.985945    30.985945    30.985945    29750.497 
 2545000    299.66401    18.668325    -23310.67    -25192.73    1882.0598    1.1610133    30.985945    30.985945    30.985945    29750.497 
 2546000    292.21797   -385.73964   -23205.249   -25040.544    1835.2945    1.1610133    30.985945    30.985945    30.985945    29750.497 
 2547000    308.06531    -208.2965   -23134.798   -25069.623    1934.8248    1.1610133    30.985945    30.985945    30.985945    29750.497 
 2548000     292.4589   -198.88448   -23260.562    -25097.37    1836.8077    1.1610133    30.985945    30.985945    30.985945    29750.497 
 2549000    290.05387   -1110.8893   -23183.324   -25005.026    1821.7027    1.1610133    30.985945    30.985945    30.985945    29750.497 
 2550000    300.88048   -378.71509   -23186.119   -25075.819       1889.7    1.1610133    30.985945    30.985945    30.985945    29750.497 
 2551000    294.20313   -184.33309   -23175.699   -25023.462    1847.7624    1.1610133    30.985945    30.985945    30.985945    29750.497 
 2552000    294.34623   -734.62477   -23288.746   -25137.408    1848.6612    1.1610133    30.985945    30.985945    30.985945    29750.497 
 2553000    295.01787   -269.78212    -23272.14    -25125.02    1852.8794    1.1610133    30.985945    30.985945    30.985945    29750.497 
 2554000    285.24431   -352.21541   -23377.119   -25168.615     1791.496    1.1610133    30.985945    30.985945    30.985945    29750.497 
 2555000     296.3771   -181.59279   -23281.515   -25142.931    1861.4161    1.1610133    30.985945    30.985945    30.985945    29750.497 
 2556000    307.45099   -685.05145   -23144.382   -25075.349    1930.9665    1.1610133    30.985945    30.985945    30.985945    29750.497 
 2557000    305.59282    449.66175   -23205.252   -25124.548    1919.2961    1.1610133    30.985945    30.985945    30.985945    29750.497 
 2558000    306.60964    295.84438   -23169.732   -25095.415    1925.6823    1.1610133    30.985945    30.985945    30.985945    29750.497 
 2559000    289.08035   -171.36892   -23316.917   -25132.506    1815.5884    1.1610133    30.985945    30.985945    30.985945    29750.497 
 2560000    297.17094   -132.62469   -23230.452   -25096.854    1866.4019    1.1610133    30.985945    30.985945    30.985945    29750.497 
 2561000    292.64376   -526.07728   -23128.667   -24966.636    1837.9687    1.1610133    30.985945    30.985945    30.985945    29750.497 
 2562000    297.61963    -465.2855   -23129.832   -24999.052      1869.22    1.1610133    30.985945    30.985945    30.985945    29750.497 
 2563000    289.54778    510.97499   -23335.357   -25153.881    1818.5241    1.1610133    30.985945    30.985945    30.985945    29750.497 
 2564000    300.31682   -198.67223    -23150.22    -25036.38    1886.1599    1.1610133    30.985945    30.985945    30.985945    29750.497 
 2565000    301.92658   -674.84978   -23151.954   -25048.224    1896.2701    1.1610133    30.985945    30.985945    30.985945    29750.497 
 2566000    297.88243    288.24815   -23120.601   -24991.472    1870.8705    1.1610133    30.985945    30.985945    30.985945    29750.497 
 2567000    292.53804   -793.09179   -23111.956    -24949.26    1837.3047    1.1610133    30.985945    30.985945    30.985945    29750.497 
 2568000    282.02306   -831.96414   -23245.352   -25016.617    1771.2647    1.1610133    30.985945    30.985945    30.985945    29750.497 
 2569000     291.3664   -762.53037   -23170.859   -25000.806    1829.9462    1.1610133    30.985945    30.985945    30.985945    29750.497 
 2570000    292.89295   -1118.8009   -23172.446    -25011.98    1839.5338    1.1610133    30.985945    30.985945    30.985945    29750.497 
 2571000    297.02954   -298.15037   -23128.013   -24993.527    1865.5138    1.1610133    30.985945    30.985945    30.985945    29750.497 
 2572000    298.12772   -698.61787   -23180.411   -25052.822     1872.411    1.1610133    30.985945    30.985945    30.985945    29750.497 
 2573000    297.00365   -263.24552   -23238.561   -25103.912    1865.3512    1.1610133    30.985945    30.985945    30.985945    29750.497 
 2574000    298.26888   -432.94899   -23238.572    -25111.87    1873.2976    1.1610133    30.985945    30.985945    30.985945    29750.497 
 2575000    289.68854    235.56995   -23209.842    -25029.25    1819.4082    1.1610133    30.985945    30.985945    30.985945    29750.497 
 2576000    302.35832   -120.67513   -23154.468    -25053.45    1898.9816    1.1610133    30.985945    30.985945    30.985945    29750.497 
 2577000    296.30818   -1040.2208   -23197.308   -25058.291    1860.9833    1.1610133    30.985945    30.985945    30.985945    29750.497 
 2578000    302.06904    127.28665   -23157.759   -25054.924    1897.1648    1.1610133    30.985945    30.985945    30.985945    29750.497 
 2579000    288.78399   -307.26806   -23270.723   -25084.451    1813.7271    1.1610133    30.985945    30.985945    30.985945    29750.497 
 2580000    298.23173   -1061.9361    -23194.75   -25067.814    1873.0643    1.1610133    30.985945    30.985945    30.985945    29750.497 
 2581000    295.07056    -537.8072   -23219.631   -25072.841    1853.2103    1.1610133    30.985945    30.985945    30.985945    29750.497 
 2582000    307.29578   -820.28763   -23119.911   -25049.903    1929.9917    1.1610133    30.985945    30.985945    30.985945    29750.497 
 2583000    294.89988    562.66323   -23177.858   -25029.997    1852.1384    1.1610133    30.985945    30.985945    30.985945    29750.497 
 2584000    284.88438    -512.1547   -23170.107   -24959.342    1789.2354    1.1610133    30.985945    30.985945    30.985945    29750.497 
 2585000     297.6246   -473.71162   -23114.306   -24983.557    1869.2511    1.1610133    30.985945    30.985945    30.985945    29750.497 
 2586000    302.58145   -696.28631    -23172.91   -25073.293     1900.383    1.1610133    30.985945    30.985945    30.985945    29750.497 
 2587000    305.85123   -764.49518   -23178.079   -25098.998    1920.9191    1.1610133    30.985945    30.985945    30.985945    29750.497 
 2588000    306.40879   -1119.1669   -23062.573   -24986.993    1924.4208    1.1610133    30.985945    30.985945    30.985945    29750.497 
 2589000    290.23146   -1458.1864    -23213.19   -25036.008    1822.8181    1.1610133    30.985945    30.985945    30.985945    29750.497 
 2590000    300.62889   -178.88515   -23185.266   -25073.386    1888.1198    1.1610133    30.985945    30.985945    30.985945    29750.497 
 2591000      297.806   -754.08156   -23198.669   -25069.059    1870.3904    1.1610133    30.985945    30.985945    30.985945    29750.497 
 2592000    295.68536    209.64658   -23262.896   -25119.967    1857.0717    1.1610133    30.985945    30.985945    30.985945    29750.497 
 2593000    296.51931   -343.40805   -23206.344   -25068.653    1862.3093    1.1610133    30.985945    30.985945    30.985945    29750.497 
 2594000    291.95988   -458.47176   -23250.451   -25084.124    1833.6735    1.1610133    30.985945    30.985945    30.985945    29750.497 
 2595000    309.92832    443.46507   -23128.266   -25074.792    1946.5255    1.1610133    30.985945    30.985945    30.985945    29750.497 
 2596000    289.48623   -276.80904   -23295.751   -25113.889    1818.1376    1.1610133    30.985945    30.985945    30.985945    29750.497 
 2597000     299.1025   -914.30067   -23241.145   -25119.679    1878.5332    1.1610133    30.985945    30.985945    30.985945    29750.497 
 2598000    303.89301    696.74556   -23172.806   -25081.426    1908.6204    1.1610133    30.985945    30.985945    30.985945    29750.497 
 2599000    298.75034    -32.17403   -23119.806   -24996.127    1876.3215    1.1610133    30.985945    30.985945    30.985945    29750.497 
 2600000    297.90726   -757.11566   -23283.942   -25154.968    1871.0264    1.1610133    30.985945    30.985945    30.985945    29750.497 
 2601000    306.98601   -912.23974   -23161.426   -25089.473    1928.0462    1.1610133    30.985945    30.985945    30.985945    29750.497 
 2602000    301.14648   -297.28079   -23159.726   -25051.097    1891.3706    1.1610133    30.985945    30.985945    30.985945    29750.497 
 2603000    291.24253   -638.95381   -23256.193   -25085.361    1829.1682    1.1610133    30.985945    30.985945    30.985945    29750.497 
 2604000      284.545   -413.67865   -23257.409   -25044.513    1787.1039    1.1610133    30.985945    30.985945    30.985945    29750.497 
 2605000    302.96519    -383.3071   -23139.403   -25042.196    1902.7931    1.1610133    30.985945    30.985945    30.985945    29750.497 
 2606000    299.82319   -836.80092   -23150.741     -25033.8    1883.0595    1.1610133    30.985945    30.985945    30.985945    29750.497 
 2607000    301.85845    -801.0021   -23207.056   -25102.899    1895.8421    1.1610133    30.985945    30.985945    30.985945    29750.497 
 2608000    293.61184    -143.9688   -23158.426   -25002.475    1844.0488    1.1610133    30.985945    30.985945    30.985945    29750.497 
 2609000    296.31383   -480.17329   -23259.677   -25120.695    1861.0188    1.1610133    30.985945    30.985945    30.985945    29750.497 
 2610000    289.53227   -483.73685   -23200.521   -25018.948    1818.4267    1.1610133    30.985945    30.985945    30.985945    29750.497 
 2611000    296.61137    -23.09525   -23193.746   -25056.634    1862.8875    1.1610133    30.985945    30.985945    30.985945    29750.497 
 2612000    296.42517    15.042467   -23145.454   -25007.172    1861.7181    1.1610133    30.985945    30.985945    30.985945    29750.497 
 2613000    295.41363   -90.820373   -23169.642   -25025.007     1855.365    1.1610133    30.985945    30.985945    30.985945    29750.497 
 2614000    292.84615   -578.45895   -23256.688   -25095.928    1839.2398    1.1610133    30.985945    30.985945    30.985945    29750.497 
 2615000    299.75455    52.455451   -23218.124   -25100.753    1882.6285    1.1610133    30.985945    30.985945    30.985945    29750.497 
 2616000    294.09417   -1097.1611   -23256.273   -25103.351     1847.078    1.1610133    30.985945    30.985945    30.985945    29750.497 
 2617000    299.59987   -348.98968   -23234.645   -25116.302     1881.657    1.1610133    30.985945    30.985945    30.985945    29750.497 
 2618000    304.93965   -1232.2473   -23207.035   -25122.228    1915.1938    1.1610133    30.985945    30.985945    30.985945    29750.497 
 2619000    303.13069    346.67529   -23108.688    -25012.52    1903.8326    1.1610133    30.985945    30.985945    30.985945    29750.497 
 2620000     297.3166   -142.45404    -23100.67   -24967.987    1867.3168    1.1610133    30.985945    30.985945    30.985945    29750.497 
 2621000    303.65919    75.608076   -23138.293   -25045.445    1907.1518    1.1610133    30.985945    30.985945    30.985945    29750.497 
 2622000    294.62402   -747.60703   -23229.469   -25079.875    1850.4058    1.1610133    30.985945    30.985945    30.985945    29750.497 
 2623000    301.16229   -655.92276   -23193.046   -25084.516    1891.4699    1.1610133    30.985945    30.985945    30.985945    29750.497 
 2624000    306.65264   -999.96614   -23140.159   -25066.112    1925.9524    1.1610133    30.985945    30.985945    30.985945    29750.497 
 2625000    295.07428   -606.70068   -23203.989   -25057.223    1853.2337    1.1610133    30.985945    30.985945    30.985945    29750.497 
 2626000    305.52685   -1670.9415   -23168.473   -25087.355    1918.8818    1.1610133    30.985945    30.985945    30.985945    29750.497 
 2627000    299.47359    -602.4584   -23148.794   -25029.658    1880.8639    1.1610133    30.985945    30.985945    30.985945    29750.497 
 2628000    296.15346   -463.12788   -23206.969   -25066.981    1860.0116    1.1610133    30.985945    30.985945    30.985945    29750.497 
 2629000    297.99589   -189.65284   -23104.681   -24976.264    1871.5831    1.1610133    30.985945    30.985945    30.985945    29750.497 
 2630000    300.17977   -1781.7623   -23182.194   -25067.493    1885.2991    1.1610133    30.985945    30.985945    30.985945    29750.497 
 2631000    297.00802    -739.1067   -23236.734   -25102.113    1865.3787    1.1610133    30.985945    30.985945    30.985945    29750.497 
 2632000    296.38097   -610.85229   -23137.581   -24999.021    1861.4405    1.1610133    30.985945    30.985945    30.985945    29750.497 
 2633000    304.01316    -667.6663   -23174.858   -25084.233    1909.3749    1.1610133    30.985945    30.985945    30.985945    29750.497 
 2634000    297.01671    470.68874   -23144.162   -25009.595    1865.4333    1.1610133    30.985945    30.985945    30.985945    29750.497 
 2635000    299.03456    228.72953   -23213.859   -25091.966    1878.1065    1.1610133    30.985945    30.985945    30.985945    29750.497 
 2636000    302.40208    94.626128   -23018.827   -24918.084    1899.2565    1.1610133    30.985945    30.985945    30.985945    29750.497 
 2637000    298.78422   -970.61061   -23245.903   -25122.437    1876.5343    1.1610133    30.985945    30.985945    30.985945    29750.497 
 2638000    298.42222   -739.01111   -23304.808   -25179.068    1874.2607    1.1610133    30.985945    30.985945    30.985945    29750.497 
 2639000    297.39658   -532.10535   -23246.974   -25114.793    1867.8191    1.1610133    30.985945    30.985945    30.985945    29750.497 
 2640000    299.14426    873.97765    -23198.29   -25077.085    1878.7955    1.1610133    30.985945    30.985945    30.985945    29750.497 
 2641000    296.04323   -1302.5283    -23226.29   -25085.609    1859.3193    1.1610133    30.985945    30.985945    30.985945    29750.497 
 2642000    296.37435     168.5357   -23152.721    -25014.12    1861.3989    1.1610133    30.985945    30.985945    30.985945    29750.497 
 2643000    300.60171   -34.132951   -23175.315   -25063.264    1887.9491    1.1610133    30.985945    30.985945    30.985945    29750.497 
 2644000    300.40774   -212.65628    -23195.13   -25081.861    1886.7309    1.1610133    30.985945    30.985945    30.985945    29750.497 
 2645000    291.98782    377.61715   -23233.661    -25067.51     1833.849    1.1610133    30.985945    30.985945    30.985945    29750.497 
 2646000     306.5665   -1001.5641   -23070.105   -24995.516    1925.4114    1.1610133    30.985945    30.985945    30.985945    29750.497 
 2647000    296.49495   -111.94023   -23158.596   -25020.752    1862.1563    1.1610133    30.985945    30.985945    30.985945    29750.497 
 2648000    292.76023   -1579.7057   -23210.109    -25048.81    1838.7002    1.1610133    30.985945    30.985945    30.985945    29750.497 
 2649000    302.34884    92.797547   -23106.738    -25005.66    1898.9221    1.1610133    30.985945    30.985945    30.985945    29750.497 
 2650000    304.69027   -121.77043   -23072.432    -24986.06    1913.6276    1.1610133    30.985945    30.985945    30.985945    29750.497 
 2651000    298.17741   -546.11988   -23172.172   -25044.895    1872.7231    1.1610133    30.985945    30.985945    30.985945    29750.497 
 2652000     300.7453    588.10996   -23134.218   -25023.069     1888.851    1.1610133    30.985945    30.985945    30.985945    29750.497 
 2653000    296.09052   -1421.2235   -23187.939   -25047.555    1859.6163    1.1610133    30.985945    30.985945    30.985945    29750.497 
 2654000    293.61327   -955.90272   -23256.158   -25100.216    1844.0577    1.1610133    30.985945    30.985945    30.985945    29750.497 
 2655000    303.77516   -561.65419   -23234.041   -25141.921    1907.8802    1.1610133    30.985945    30.985945    30.985945    29750.497 
 2656000    301.36267   -1192.5055   -23204.573   -25097.301    1892.7284    1.1610133    30.985945    30.985945    30.985945    29750.497 
 2657000    301.96887    656.51673   -23241.032   -25137.568    1896.5357    1.1610133    30.985945    30.985945    30.985945    29750.497 
 2658000    306.78063   -623.74471   -23203.343   -25130.099    1926.7562    1.1610133    30.985945    30.985945    30.985945    29750.497 
 2659000     296.1448   -787.71557   -23162.291   -25022.248    1859.9572    1.1610133    30.985945    30.985945    30.985945    29750.497 
 2660000    299.25894   -240.63399   -23163.784     -25043.3    1879.5158    1.1610133    30.985945    30.985945    30.985945    29750.497 
 2661000    291.46005   -583.27734   -23348.088   -25178.622    1830.5343    1.1610133    30.985945    30.985945    30.985945    29750.497 
 2662000    293.26026   -1440.9931    -23231.05   -25072.891    1841.8406    1.1610133    30.985945    30.985945    30.985945    29750.497 
 2663000    295.93476   -973.89321   -23212.181   -25070.819    1858.6381    1.1610133    30.985945    30.985945    30.985945    29750.497 
 2664000    294.62754   -954.82033   -23041.918   -24892.345     1850.428    1.1610133    30.985945    30.985945    30.985945    29750.497 
 2665000    303.08871   -1077.1146   -23158.718   -25062.287    1903.5689    1.1610133    30.985945    30.985945    30.985945    29750.497 
 2666000     279.6898   -610.14961   -23385.503   -25142.113    1756.6105    1.1610133    30.985945    30.985945    30.985945    29750.497 
 2667000    300.16655   -18.423643   -23181.293   -25066.509    1885.2161    1.1610133    30.985945    30.985945    30.985945    29750.497 
 2668000    303.64764   -41.501741   -23185.656   -25092.735    1907.0793    1.1610133    30.985945    30.985945    30.985945    29750.497 
 2669000    300.23383    329.32544   -23209.074   -25094.713    1885.6386    1.1610133    30.985945    30.985945    30.985945    29750.497 
 2670000    289.83039    355.44825   -23287.249   -25107.548    1820.2991    1.1610133    30.985945    30.985945    30.985945    29750.497 
 2671000     289.5869   -389.79975   -23197.989   -25016.759    1818.7699    1.1610133    30.985945    30.985945    30.985945    29750.497 
 2672000    302.88927   -671.31891   -23165.557   -25067.874    1902.3163    1.1610133    30.985945    30.985945    30.985945    29750.497 
 2673000    307.01111   -52.429363   -23110.319   -25038.522    1928.2038    1.1610133    30.985945    30.985945    30.985945    29750.497 
 2674000    298.79113   -1444.9215   -23257.581   -25134.159    1876.5777    1.1610133    30.985945    30.985945    30.985945    29750.497 
 2675000    287.96232    -728.2289   -23191.683   -25000.249    1808.5666    1.1610133    30.985945    30.985945    30.985945    29750.497 
 2676000    301.63955    -523.7817   -23095.723    -24990.19    1894.4674    1.1610133    30.985945    30.985945    30.985945    29750.497 
 2677000    296.58076   -648.96799   -23200.397   -25063.093    1862.6952    1.1610133    30.985945    30.985945    30.985945    29750.497 
 2678000    305.64276   -946.99696   -23140.533   -25060.143    1919.6097    1.1610133    30.985945    30.985945    30.985945    29750.497 
 2679000    298.72726   -325.99487   -23199.334   -25075.511    1876.1765    1.1610133    30.985945    30.985945    30.985945    29750.497 
 2680000      298.812   -499.40357   -23228.712   -25105.421    1876.7087    1.1610133    30.985945    30.985945    30.985945    29750.497 
 2681000    300.44714   -1090.0112   -23193.422     -25080.4    1886.9783    1.1610133    30.985945    30.985945    30.985945    29750.497 
 2682000    292.82067     -787.568   -23285.645   -25124.724    1839.0798    1.1610133    30.985945    30.985945    30.985945    29750.497 
 2683000    297.69656    125.17065   -23183.703   -25053.406    1869.7032    1.1610133    30.985945    30.985945    30.985945    29750.497 
 2684000    296.54739   -394.79254   -23237.974    -25100.46    1862.4857    1.1610133    30.985945    30.985945    30.985945    29750.497 
 2685000    299.72853    61.028889   -23155.879   -25038.344    1882.4651    1.1610133    30.985945    30.985945    30.985945    29750.497 
 2686000      291.191   -843.80426   -23236.538   -25065.382    1828.8445    1.1610133    30.985945    30.985945    30.985945    29750.497 
 2687000    306.41161   -368.43895   -23106.635   -25031.073    1924.4386    1.1610133    30.985945    30.985945    30.985945    29750.497 
 2688000    285.08506    -1491.416   -23305.215   -25095.711    1790.4957    1.1610133    30.985945    30.985945    30.985945    29750.497 
 2689000    296.38003   -355.10348   -23225.404   -25086.838    1861.4346    1.1610133    30.985945    30.985945    30.985945    29750.497 
 2690000    296.79784   -336.26952   -23157.073   -25021.132    1864.0587    1.1610133    30.985945    30.985945    30.985945    29750.497 
 2691000    301.31652   -820.17561   -23217.949   -25110.387    1892.4385    1.1610133    30.985945    30.985945    30.985945    29750.497 
 2692000    297.48606   -481.69046   -23208.396   -25076.777    1868.3811    1.1610133    30.985945    30.985945    30.985945    29750.497 
 2693000    306.10095    277.01946   -23150.767   -25073.255    1922.4875    1.1610133    30.985945    30.985945    30.985945    29750.497 
 2694000     282.1729   -734.38424   -23292.869   -25065.075    1772.2057    1.1610133    30.985945    30.985945    30.985945    29750.497 
 2695000    304.79059   -305.22417   -23006.699   -24920.956    1914.2576    1.1610133    30.985945    30.985945    30.985945    29750.497 
 2696000     294.8574   -549.56439    -23179.89   -25031.762    1851.8716    1.1610133    30.985945    30.985945    30.985945    29750.497 
 2697000    295.65005   -1344.6514   -23197.407   -25054.257    1856.8499    1.1610133    30.985945    30.985945    30.985945    29750.497 
 2698000    293.35431   -689.19497   -23148.979   -24991.411    1842.4313    1.1610133    30.985945    30.985945    30.985945    29750.497 
 2699000    305.26688   -1412.3084   -23126.651     -25043.9    1917.2491    1.1610133    30.985945    30.985945    30.985945    29750.497 
 2700000    293.51353   -224.94735   -23241.753   -25085.185    1843.4313    1.1610133    30.985945    30.985945    30.985945    29750.497 
 2701000    293.88446   -1019.1875   -23210.485   -25056.246     1845.761    1.1610133    30.985945    30.985945    30.985945    29750.497 
 2702000    294.19812   -511.01723     -23157.6   -25005.331    1847.7309    1.1610133    30.985945    30.985945    30.985945    29750.497 
 2703000    293.66605   -792.93755   -23256.927   -25101.316    1844.3893    1.1610133    30.985945    30.985945    30.985945    29750.497 
 2704000    300.71087   -854.77392   -23190.368   -25079.003    1888.6347    1.1610133    30.985945    30.985945    30.985945    29750.497 
 2705000    297.95616   -753.20296   -23267.664   -25138.998    1871.3335    1.1610133    30.985945    30.985945    30.985945    29750.497 
 2706000    300.66871    45.058497   -23181.027   -25069.396    1888.3699    1.1610133    30.985945    30.985945    30.985945    29750.497 
 2707000    292.05913   -667.03946   -23321.381   -25155.678    1834.2969    1.1610133    30.985945    30.985945    30.985945    29750.497 
 2708000    301.14419   -363.37594   -23197.353    -25088.71    1891.3562    1.1610133    30.985945    30.985945    30.985945    29750.497 
 2709000    295.78314     460.9832   -23166.836   -25024.521    1857.6858    1.1610133    30.985945    30.985945    30.985945    29750.497 
 2710000    295.20357   -303.06252   -23281.382   -25135.428    1854.0457    1.1610133    30.985945    30.985945    30.985945    29750.497 
 2711000    304.96988   -715.34362   -23250.674   -25166.057    1915.3837    1.1610133    30.985945    30.985945    30.985945    29750.497 
 2712000    301.00239   -190.86716   -23101.264   -24991.729    1890.4656    1.1610133    30.985945    30.985945    30.985945    29750.497 
 2713000    305.71504   -729.34241   -23193.063   -25113.127    1920.0637    1.1610133    30.985945    30.985945    30.985945    29750.497 
 2714000     297.7151     -1105.05   -23176.904   -25046.724    1869.8196    1.1610133    30.985945    30.985945    30.985945    29750.497 
 2715000    299.39389   -158.63044   -23124.827    -25005.19    1880.3633    1.1610133    30.985945    30.985945    30.985945    29750.497 
 2716000    297.23451   -370.16639   -23118.282   -24985.083    1866.8012    1.1610133    30.985945    30.985945    30.985945    29750.497 
 2717000    292.60583     57.97975   -23145.594   -24983.325    1837.7305    1.1610133    30.985945    30.985945    30.985945    29750.497 
 2718000    297.61173   -321.62535   -23166.248   -25035.418    1869.1704    1.1610133    30.985945    30.985945    30.985945    29750.497 
 2719000    301.51839   -1132.9271   -23139.884   -25033.591    1893.7064    1.1610133    30.985945    30.985945    30.985945    29750.497 
 2720000     300.5083   -85.770473   -23165.931   -25053.294    1887.3625    1.1610133    30.985945    30.985945    30.985945    29750.497 
 2721000    301.69253   -465.75076   -23116.145   -25010.945    1894.8001    1.1610133    30.985945    30.985945    30.985945    29750.497 
 2722000    306.82606    424.04241   -23193.136   -25120.178    1927.0415    1.1610133    30.985945    30.985945    30.985945    29750.497 
 2723000    305.43627    353.73581   -23144.489   -25062.802    1918.3129    1.1610133    30.985945    30.985945    30.985945    29750.497 
 2724000    295.27049   -1129.8306   -23218.025   -25072.491     1854.466    1.1610133    30.985945    30.985945    30.985945    29750.497 
 2725000    300.84386   -109.43304   -23165.247   -25054.717    1889.4699    1.1610133    30.985945    30.985945    30.985945    29750.497 
 2726000     300.0795   -841.29698   -23255.906   -25140.575    1884.6693    1.1610133    30.985945    30.985945    30.985945    29750.497 
 2727000    300.13622   -257.18908   -23113.548   -24998.573    1885.0256    1.1610133    30.985945    30.985945    30.985945    29750.497 
 2728000    291.53781   -1335.2979   -23245.231   -25076.254    1831.0227    1.1610133    30.985945    30.985945    30.985945    29750.497 
 2729000    303.67647   -724.76865   -23096.791   -25004.051    1907.2603    1.1610133    30.985945    30.985945    30.985945    29750.497 
 2730000    298.19284    -232.5754   -23123.828   -24996.648      1872.82    1.1610133    30.985945    30.985945    30.985945    29750.497 
 2731000    291.76862   -263.70814   -23253.032   -25085.504    1832.4723    1.1610133    30.985945    30.985945    30.985945    29750.497 
 2732000    294.93298   -150.44802   -23215.592   -25067.938    1852.3463    1.1610133    30.985945    30.985945    30.985945    29750.497 
 2733000    294.51948   -432.17626   -23204.853   -25054.602    1849.7493    1.1610133    30.985945    30.985945    30.985945    29750.497 
 2734000    302.99518   -1828.9897   -23079.001   -24981.982    1902.9815    1.1610133    30.985945    30.985945    30.985945    29750.497 
 2735000    301.45303    145.28441   -23158.134    -25051.43    1893.2959    1.1610133    30.985945    30.985945    30.985945    29750.497 
 2736000    294.10737   -503.80701   -23250.121   -25097.282    1847.1609    1.1610133    30.985945    30.985945    30.985945    29750.497 
 2737000    298.12703    35.772576   -23224.302   -25096.708    1872.4067    1.1610133    30.985945    30.985945    30.985945    29750.497 
 2738000    299.14714   -362.27465   -23171.703   -25050.516    1878.8136    1.1610133    30.985945    30.985945    30.985945    29750.497 
 2739000    307.83788   -524.04285   -23186.843   -25120.239    1933.3964    1.1610133    30.985945    30.985945    30.985945    29750.497 
 2740000     296.6423   -596.63623   -23211.336   -25074.418    1863.0818    1.1610133    30.985945    30.985945    30.985945    29750.497 
 2741000      308.481   -771.82207   -23089.895   -25027.331    1937.4355    1.1610133    30.985945    30.985945    30.985945    29750.497 
 2742000    287.59019   -178.89334   -23299.128   -25105.357    1806.2294    1.1610133    30.985945    30.985945    30.985945    29750.497 
 2743000    298.43385    37.802565    -23179.95   -25054.283    1874.3337    1.1610133    30.985945    30.985945    30.985945    29750.497 
 2744000    295.89797   -795.75255   -23187.299   -25045.706    1858.4069    1.1610133    30.985945    30.985945    30.985945    29750.497 
 2745000    290.95755    -724.5975   -23265.265   -25092.643    1827.3783    1.1610133    30.985945    30.985945    30.985945    29750.497 
 2746000    295.75572   -152.82645   -23275.898   -25133.412    1857.5136    1.1610133    30.985945    30.985945    30.985945    29750.497 
 2747000    299.40962   -1250.9158   -23221.038     -25101.5    1880.4621    1.1610133    30.985945    30.985945    30.985945    29750.497 
 2748000    296.34126   -893.36454   -23176.993   -25038.184    1861.1911    1.1610133    30.985945    30.985945    30.985945    29750.497 
 2749000    303.22339   -616.77764   -23296.731   -25201.146    1904.4148    1.1610133    30.985945    30.985945    30.985945    29750.497 
 2750000    302.41971   -203.39822   -23079.885   -24979.252    1899.3672    1.1610133    30.985945    30.985945    30.985945    29750.497 
 2751000    289.64792   -634.79204   -23231.528   -25050.681    1819.1531    1.1610133    30.985945    30.985945    30.985945    29750.497 
 2752000    294.43133   -1331.7555   -23184.016   -25033.212    1849.1956    1.1610133    30.985945    30.985945    30.985945    29750.497 
 2753000    296.28581   -647.04219   -23235.606   -25096.449    1860.8428    1.1610133    30.985945    30.985945    30.985945    29750.497 
 2754000    299.29527   -752.38532   -23212.993   -25092.737    1879.7439    1.1610133    30.985945    30.985945    30.985945    29750.497 
 2755000    303.28182    144.82665   -23174.909   -25079.691    1904.7817    1.1610133    30.985945    30.985945    30.985945    29750.497 
 2756000    293.22061   -830.41793    -23229.85   -25071.442    1841.5916    1.1610133    30.985945    30.985945    30.985945    29750.497 
 2757000    301.05278   -1111.4976   -23141.742   -25032.524    1890.7821    1.1610133    30.985945    30.985945    30.985945    29750.497 
 2758000    304.31567   -354.31617   -23101.351   -25012.626    1911.2749    1.1610133    30.985945    30.985945    30.985945    29750.497 
 2759000    290.04345    107.72988   -23199.724   -25021.361    1821.6372    1.1610133    30.985945    30.985945    30.985945    29750.497 
 2760000    293.60621    215.86277   -23248.975   -25092.989    1844.0134    1.1610133    30.985945    30.985945    30.985945    29750.497 
 2761000    299.36623   -336.85032   -23273.329   -25153.519    1880.1896    1.1610133    30.985945    30.985945    30.985945    29750.497 
 2762000    290.30703   -974.63443   -23206.877    -25030.17    1823.2927    1.1610133    30.985945    30.985945    30.985945    29750.497 
 2763000    296.74596   -1079.6844   -23248.837    -25112.57    1863.7328    1.1610133    30.985945    30.985945    30.985945    29750.497 
 2764000    304.92056    -648.0425   -23158.931   -25074.005     1915.074    1.1610133    30.985945    30.985945    30.985945    29750.497 
 2765000    288.46436   -61.294406   -23306.174   -25117.893    1811.7197    1.1610133    30.985945    30.985945    30.985945    29750.497 
 2766000    307.25721    101.34986   -23082.934   -25012.683    1929.7494    1.1610133    30.985945    30.985945    30.985945    29750.497 
 2767000    291.12738   -6.7373256    -23265.61   -25094.055     1828.445    1.1610133    30.985945    30.985945    30.985945    29750.497 
 2768000    296.80794   -1272.7325   -23257.517   -25121.639    1864.1221    1.1610133    30.985945    30.985945    30.985945    29750.497 
 2769000    293.29159    -1149.701   -23263.315   -25105.352    1842.0374    1.1610133    30.985945    30.985945    30.985945    29750.497 
 2770000    299.27939   -653.60698   -23212.717   -25092.361    1879.6442    1.1610133    30.985945    30.985945    30.985945    29750.497 
 2771000    292.27498    -705.8216   -23231.747   -25067.399    1835.6525    1.1610133    30.985945    30.985945    30.985945    29750.497 
 2772000    299.33375    735.16558   -23238.222   -25118.207    1879.9856    1.1610133    30.985945    30.985945    30.985945    29750.497 
 2773000    294.35196   -859.11718   -23177.413    -25026.11    1848.6971    1.1610133    30.985945    30.985945    30.985945    29750.497 
 2774000    300.55563   -949.91244   -23191.674   -25079.334    1887.6597    1.1610133    30.985945    30.985945    30.985945    29750.497 
 2775000    298.18923   -576.29622   -23174.167   -25046.965    1872.7974    1.1610133    30.985945    30.985945    30.985945    29750.497 
 2776000    307.09536   -324.10022   -23123.463   -25052.196    1928.7329    1.1610133    30.985945    30.985945    30.985945    29750.497 
 2777000    291.65982   -513.10877   -23274.726   -25106.515     1831.789    1.1610133    30.985945    30.985945    30.985945    29750.497 
 2778000    300.61547   -455.26226    -23186.13   -25074.165    1888.0355    1.1610133    30.985945    30.985945    30.985945    29750.497 
 2779000    297.19555   -830.48937   -23250.307   -25116.864    1866.5565    1.1610133    30.985945    30.985945    30.985945    29750.497 
 2780000    297.24735   -941.63061   -23179.029   -25045.911    1866.8818    1.1610133    30.985945    30.985945    30.985945    29750.497 
 2781000    296.03755    -927.5928   -23261.942   -25121.226    1859.2836    1.1610133    30.985945    30.985945    30.985945    29750.497 
 2782000    296.33883    -288.5425   -23172.945    -25034.12    1861.1758    1.1610133    30.985945    30.985945    30.985945    29750.497 
 2783000    294.71426   -908.96416   -23279.457    -25130.43    1850.9726    1.1610133    30.985945    30.985945    30.985945    29750.497 
 2784000    299.18579     -897.049   -23220.375   -25099.431    1879.0564    1.1610133    30.985945    30.985945    30.985945    29750.497 
 2785000     305.2434    418.36582    -23169.16   -25086.262    1917.1015    1.1610133    30.985945    30.985945    30.985945    29750.497 
 2786000    292.52766    40.357886   -23231.463   -25068.703    1837.2395    1.1610133    30.985945    30.985945    30.985945    29750.497 
 2787000    300.85977    387.64919   -23186.192   -25075.761    1889.5699    1.1610133    30.985945    30.985945    30.985945    29750.497 
 2788000    302.77779    -1272.857   -23192.585   -25094.201    1901.6161    1.1610133    30.985945    30.985945    30.985945    29750.497 
 2789000    300.88675   -337.68602   -23127.162   -25016.901    1889.7393    1.1610133    30.985945    30.985945    30.985945    29750.497 
 2790000    293.11341   -156.22841   -23205.312   -25046.231    1840.9183    1.1610133    30.985945    30.985945    30.985945    29750.497 
 2791000    298.81341    -464.9625   -23216.216   -25092.934    1876.7176    1.1610133    30.985945    30.985945    30.985945    29750.497 
 2792000    299.70457   -168.57448   -23195.053   -25077.367    1882.3146    1.1610133    30.985945    30.985945    30.985945    29750.497 
 2793000    306.90212   -661.01636   -23160.321    -25087.84    1927.5193    1.1610133    30.985945    30.985945    30.985945    29750.497 
 2794000     293.1985   -674.08252   -23251.758    -25093.21    1841.4527    1.1610133    30.985945    30.985945    30.985945    29750.497 
 2795000     303.2205    16.282743   -23204.174   -25108.571    1904.3966    1.1610133    30.985945    30.985945    30.985945    29750.497 
 2796000    298.48801    560.80506   -23151.202   -25025.876    1874.6739    1.1610133    30.985945    30.985945    30.985945    29750.497 
 2797000    293.98586   -836.05549   -23305.334   -25151.732    1846.3978    1.1610133    30.985945    30.985945    30.985945    29750.497 
 2798000     293.6373    74.164198   -23280.486   -25124.694    1844.2086    1.1610133    30.985945    30.985945    30.985945    29750.497 
 2799000    295.73022   -7.0531999   -23200.607    -25057.96    1857.3534    1.1610133    30.985945    30.985945    30.985945    29750.497 
 2800000    298.66444    -1687.262   -23144.879   -25020.661     1875.782    1.1610133    30.985945    30.985945    30.985945    29750.497 
 2801000    293.89152    262.95994    -23280.14   -25125.945    1845.8053    1.1610133    30.985945    30.985945    30.985945    29750.497 
 2802000    300.72404   -474.21478   -23269.466   -25158.184    1888.7174    1.1610133    30.985945    30.985945    30.985945    29750.497 
 2803000    298.98868   -419.03869   -23190.069   -25067.887    1877.8183    1.1610133    30.985945    30.985945    30.985945    29750.497 
 2804000    290.29026   -183.35736   -23283.234   -25106.422    1823.1874    1.1610133    30.985945    30.985945    30.985945    29750.497 
 2805000    300.35733   -581.05827   -23153.028   -25039.443    1886.4143    1.1610133    30.985945    30.985945    30.985945    29750.497 
 2806000    294.46452   -374.54571   -23294.835   -25144.239    1849.4041    1.1610133    30.985945    30.985945    30.985945    29750.497 
 2807000    296.35038    892.13832    -23227.36   -25088.608    1861.2483    1.1610133    30.985945    30.985945    30.985945    29750.497 
 2808000    292.62513   -678.98252   -23307.623   -25145.475    1837.8517    1.1610133    30.985945    30.985945    30.985945    29750.497 
 2809000    305.44964   -79.143918   -23163.654   -25082.051    1918.3969    1.1610133    30.985945    30.985945    30.985945    29750.497 
 2810000    287.61252   -836.44551   -23288.388   -25094.757    1806.3697    1.1610133    30.985945    30.985945    30.985945    29750.497 
 2811000    307.95381   -593.47189   -23176.918   -25111.042    1934.1245    1.1610133    30.985945    30.985945    30.985945    29750.497 
 2812000    295.76418   -927.55519   -23251.276   -25108.843    1857.5667    1.1610133    30.985945    30.985945    30.985945    29750.497 
 2813000    296.71357    164.01699   -23142.433   -25005.962    1863.5294    1.1610133    30.985945    30.985945    30.985945    29750.497 
 2814000    295.92119    -23.59945   -23272.512   -25131.065    1858.5528    1.1610133    30.985945    30.985945    30.985945    29750.497 
 2815000      302.252   -492.94758   -23228.653   -25126.967    1898.3138    1.1610133    30.985945    30.985945    30.985945    29750.497 
 2816000    298.93291   -576.38488   -23157.379   -25034.848    1877.4681    1.1610133    30.985945    30.985945    30.985945    29750.497 
 2817000    303.26757    70.186484   -23170.837   -25075.529    1904.6922    1.1610133    30.985945    30.985945    30.985945    29750.497 
 2818000    300.79029   -987.50604   -23167.933   -25057.066    1889.1335    1.1610133    30.985945    30.985945    30.985945    29750.497 
 2819000     304.9846   -409.15815   -23178.271   -25093.747    1915.4761    1.1610133    30.985945    30.985945    30.985945    29750.497 
 2820000     295.5566   -75.045384   -23276.725   -25132.988     1856.263    1.1610133    30.985945    30.985945    30.985945    29750.497 
 2821000    292.43817   -95.583338    -23252.32   -25088.998    1836.6775    1.1610133    30.985945    30.985945    30.985945    29750.497 
 2822000    285.97883   -1051.4843   -23295.617   -25091.726    1796.1091    1.1610133    30.985945    30.985945    30.985945    29750.497 
 2823000    301.92688   -735.76814   -23243.401   -25139.673     1896.272    1.1610133    30.985945    30.985945    30.985945    29750.497 
 2824000    293.20125   -1031.2179   -23342.526   -25183.996      1841.47    1.1610133    30.985945    30.985945    30.985945    29750.497 
 2825000    292.00407   -550.40101   -23298.055   -25132.006    1833.9511    1.1610133    30.985945    30.985945    30.985945    29750.497 
 2826000    294.68885   -1024.3073   -23270.408   -25121.221     1850.813    1.1610133    30.985945    30.985945    30.985945    29750.497 
 2827000    310.89825   -892.64855   -23094.391   -25047.008    1952.6172    1.1610133    30.985945    30.985945    30.985945    29750.497 
 2828000    299.32439   -2070.2667   -23203.987   -25083.914    1879.9268    1.1610133    30.985945    30.985945    30.985945    29750.497 
 2829000    305.81719   -66.929998     -23158.8   -25079.505    1920.7053    1.1610133    30.985945    30.985945    30.985945    29750.497 
 2830000    294.27897   -713.62558   -23172.162     -25020.4    1848.2387    1.1610133    30.985945    30.985945    30.985945    29750.497 
 2831000    299.36234   -1561.0681   -23140.128   -25020.293    1880.1652    1.1610133    30.985945    30.985945    30.985945    29750.497 
 2832000    298.02218   -606.94462   -23196.519   -25068.267    1871.7482    1.1610133    30.985945    30.985945    30.985945    29750.497 
 2833000    301.99293   -377.31083   -23105.434    -25002.12    1896.6868    1.1610133    30.985945    30.985945    30.985945    29750.497 
 2834000     300.6654   -512.72055   -23140.796   -25029.145    1888.3492    1.1610133    30.985945    30.985945    30.985945    29750.497 
 2835000    296.15755   -726.39867   -23177.064   -25037.101    1860.0373    1.1610133    30.985945    30.985945    30.985945    29750.497 
 2836000    297.59476   -550.80032   -23172.305   -25041.369    1869.0637    1.1610133    30.985945    30.985945    30.985945    29750.497 
 2837000    301.23898   -968.50187   -23106.493   -24998.444    1891.9516    1.1610133    30.985945    30.985945    30.985945    29750.497 
 2838000    299.98749   -503.62329   -23188.907   -25072.999    1884.0914    1.1610133    30.985945    30.985945    30.985945    29750.497 
 2839000    290.38758   -478.10193   -23269.343   -25093.142    1823.7986    1.1610133    30.985945    30.985945    30.985945    29750.497 
 2840000    296.30262   -373.05084   -23223.888   -25084.836    1860.9484    1.1610133    30.985945    30.985945    30.985945    29750.497 
 2841000    293.76284   -936.41052   -23239.232    -25084.23    1844.9972    1.1610133    30.985945    30.985945    30.985945    29750.497 
 2842000    308.57295    155.17277   -23176.573   -25114.586     1938.013    1.1610133    30.985945    30.985945    30.985945    29750.497 
 2843000    296.89383   -649.05223   -23176.044   -25040.706    1864.6615    1.1610133    30.985945    30.985945    30.985945    29750.497 
 2844000    305.02851   -254.26408   -23090.277   -25006.028    1915.7519    1.1610133    30.985945    30.985945    30.985945    29750.497 
 2845000    298.03255   -734.95316   -23068.859   -24940.672    1871.8134    1.1610133    30.985945    30.985945    30.985945    29750.497 
 2846000    295.89795   -616.30655   -23234.219   -25092.625    1858.4068    1.1610133    30.985945    30.985945    30.985945    29750.497 
 2847000    295.75776    141.68185   -23242.657   -25100.184    1857.5264    1.1610133    30.985945    30.985945    30.985945    29750.497 
 2848000    298.48553   -644.82325   -23175.208   -25049.867    1874.6583    1.1610133    30.985945    30.985945    30.985945    29750.497 
 2849000    304.61013     418.9476   -23170.773   -25083.897    1913.1243    1.1610133    30.985945    30.985945    30.985945    29750.497 
 2850000    304.13241   -604.89633   -23308.848   -25218.972    1910.1239    1.1610133    30.985945    30.985945    30.985945    29750.497 
 2851000    296.95155   -756.81209   -23134.272   -24999.296    1865.0241    1.1610133    30.985945    30.985945    30.985945    29750.497 
 2852000    301.95795   -615.86625   -23245.173    -25141.64     1896.467    1.1610133    30.985945    30.985945    30.985945    29750.497 
 2853000    298.61633   -493.14156   -23218.215   -25093.695    1875.4798    1.1610133    30.985945    30.985945    30.985945    29750.497 
 2854000    294.76066    -731.4662   -23248.394   -25099.658     1851.264    1.1610133    30.985945    30.985945    30.985945    29750.497 
 2855000    311.27734   -53.007877   -23189.885   -25144.883    1954.9981    1.1610133    30.985945    30.985945    30.985945    29750.497 
 2856000     297.8692   -754.99635   -23302.812     -25173.6    1870.7874    1.1610133    30.985945    30.985945    30.985945    29750.497 
 2857000     291.1947   -2042.8106   -23240.588   -25069.456    1828.8677    1.1610133    30.985945    30.985945    30.985945    29750.497 
 2858000    305.48543   -1036.4446   -23151.172   -25069.793    1918.6217    1.1610133    30.985945    30.985945    30.985945    29750.497 
 2859000    304.61924   -343.68169   -23197.237   -25110.419    1913.1815    1.1610133    30.985945    30.985945    30.985945    29750.497 
 2860000    297.90617   -866.88582   -23219.293   -25090.313    1871.0196    1.1610133    30.985945    30.985945    30.985945    29750.497 
 2861000    292.46526   -271.11712   -23155.698   -24992.546    1836.8476    1.1610133    30.985945    30.985945    30.985945    29750.497 
 2862000    301.27725   -860.82546   -23224.022   -25116.214    1892.1919    1.1610133    30.985945    30.985945    30.985945    29750.497 
 2863000    288.60509   -103.65646   -23257.467    -25070.07    1812.6036    1.1610133    30.985945    30.985945    30.985945    29750.497 
 2864000    300.89422    -415.1672    -23167.05   -25056.836    1889.7862    1.1610133    30.985945    30.985945    30.985945    29750.497 
 2865000    293.64617   -281.22464   -23214.144   -25058.409    1844.2644    1.1610133    30.985945    30.985945    30.985945    29750.497 
 2866000    302.08376   -167.15606   -23195.088   -25092.345    1897.2572    1.1610133    30.985945    30.985945    30.985945    29750.497 
 2867000    299.03852   -498.50455   -23211.457   -25089.589    1878.1314    1.1610133    30.985945    30.985945    30.985945    29750.497 
 2868000    299.36815   -1230.6652   -23132.336   -25012.538    1880.2017    1.1610133    30.985945    30.985945    30.985945    29750.497 
 2869000    301.04643    -1184.553   -23157.692   -25048.435    1890.7422    1.1610133    30.985945    30.985945    30.985945    29750.497 
 2870000    297.61486    112.68746   -23253.373   -25122.563      1869.19    1.1610133    30.985945    30.985945    30.985945    29750.497 
 2871000    296.59393    111.32167    -23198.98   -25061.758     1862.778    1.1610133    30.985945    30.985945    30.985945    29750.497 
 2872000    301.81735   -877.72385   -23215.719   -25111.303     1895.584    1.1610133    30.985945    30.985945    30.985945    29750.497 
 2873000    294.88451   -392.75835    -23346.65   -25198.692    1852.0418    1.1610133    30.985945    30.985945    30.985945    29750.497 
 2874000    294.65054     43.76983   -23214.233   -25064.806    1850.5724    1.1610133    30.985945    30.985945    30.985945    29750.497 
 2875000    299.05409    314.50711   -23173.653   -25051.882    1878.2292    1.1610133    30.985945    30.985945    30.985945    29750.497 
 2876000    298.53566   -617.08629   -23281.494   -25156.467    1874.9732    1.1610133    30.985945    30.985945    30.985945    29750.497 
 2877000    294.25022    145.56014   -23259.286   -25107.344    1848.0582    1.1610133    30.985945    30.985945    30.985945    29750.497 
 2878000    300.20323   -651.37132   -23191.482   -25076.929    1885.4464    1.1610133    30.985945    30.985945    30.985945    29750.497 
 2879000    300.54902   -1305.2212   -23187.001   -25074.619    1887.6182    1.1610133    30.985945    30.985945    30.985945    29750.497 
 2880000    299.62875   -102.59216   -23193.913   -25075.751    1881.8384    1.1610133    30.985945    30.985945    30.985945    29750.497 
 2881000    289.24922   -1288.9439   -23263.278   -25079.927     1816.649    1.1610133    30.985945    30.985945    30.985945    29750.497 
 2882000    295.75914   -1056.4356   -23208.797   -25066.332     1857.535    1.1610133    30.985945    30.985945    30.985945    29750.497 
 2883000    294.48722   -787.91642   -23246.812   -25096.359    1849.5466    1.1610133    30.985945    30.985945    30.985945    29750.497 
 2884000    304.72704   -411.27892   -23140.753   -25054.611    1913.8585    1.1610133    30.985945    30.985945    30.985945    29750.497 
 2885000     298.9634   -223.23224   -23209.018   -25086.678    1877.6596    1.1610133    30.985945    30.985945    30.985945    29750.497 
 2886000    292.36305   -191.78607   -23194.299   -25030.505    1836.2057    1.1610133    30.985945    30.985945    30.985945    29750.497 
 2887000    295.97747   -286.23577   -23234.734    -25093.64    1858.9062    1.1610133    30.985945    30.985945    30.985945    29750.497 
 2888000    312.52118   -1203.3683   -23051.043   -25013.854    1962.8101    1.1610133    30.985945    30.985945    30.985945    29750.497 
 2889000    305.39928    247.09291   -23121.727   -25039.807    1918.0806    1.1610133    30.985945    30.985945    30.985945    29750.497 
 2890000    299.15632   -720.72202   -23180.163   -25059.035    1878.8712    1.1610133    30.985945    30.985945    30.985945    29750.497 
 2891000    294.05948   -218.72205   -23214.256   -25061.117    1846.8602    1.1610133    30.985945    30.985945    30.985945    29750.497 
 2892000    288.02379   -1339.7573   -23244.189   -25053.142    1808.9526    1.1610133    30.985945    30.985945    30.985945    29750.497 
 2893000    307.65458    -237.3433   -23168.662   -25100.907    1932.2452    1.1610133    30.985945    30.985945    30.985945    29750.497 
 2894000    306.61437    -698.6283     -23204.6   -25130.312     1925.712    1.1610133    30.985945    30.985945    30.985945    29750.497 
 2895000    303.32826    46.409774   -23145.077   -25050.151    1905.0734    1.1610133    30.985945    30.985945    30.985945    29750.497 
 2896000    305.70293   -1307.2405    -23190.55   -25110.537    1919.9877    1.1610133    30.985945    30.985945    30.985945    29750.497 
 2897000    307.45805    48.598851   -23214.834   -25145.845    1931.0108    1.1610133    30.985945    30.985945    30.985945    29750.497 
 2898000    302.16027   -756.81262    -23177.41   -25075.148    1897.7377    1.1610133    30.985945    30.985945    30.985945    29750.497 
 2899000    298.93289   -664.60821   -23245.655   -25123.123     1877.468    1.1610133    30.985945    30.985945    30.985945    29750.497 
 2900000    294.86351   -1405.8616   -23247.148   -25099.058    1851.9099    1.1610133    30.985945    30.985945    30.985945    29750.497 
 2901000    291.46595   -653.07881   -23236.166   -25066.738    1830.5714    1.1610133    30.985945    30.985945    30.985945    29750.497 
 2902000    304.09846   -1480.0819   -23175.789     -25085.7    1909.9107    1.1610133    30.985945    30.985945    30.985945    29750.497 
 2903000     296.3032    197.18093   -23270.389   -25131.341    1860.9521    1.1610133    30.985945    30.985945    30.985945    29750.497 
 2904000    302.92145    69.785517    -23151.55   -25054.068    1902.5184    1.1610133    30.985945    30.985945    30.985945    29750.497 
 2905000    295.62298   -781.55699   -23269.482   -25126.162    1856.6799    1.1610133    30.985945    30.985945    30.985945    29750.497 
 2906000    301.53147   -156.09763   -23147.892    -25041.68    1893.7885    1.1610133    30.985945    30.985945    30.985945    29750.497 
 2907000    296.85822   -199.51536   -23152.629   -25017.067    1864.4379    1.1610133    30.985945    30.985945    30.985945    29750.497 
 2908000    304.89232   -527.02039   -23108.419   -25023.316    1914.8966    1.1610133    30.985945    30.985945    30.985945    29750.497 
 2909000    302.23789    315.85593   -23187.705    -25085.93    1898.2253    1.1610133    30.985945    30.985945    30.985945    29750.497 
 2910000    292.73989   -62.434898   -23262.034   -25100.606    1838.5724    1.1610133    30.985945    30.985945    30.985945    29750.497 
 2911000    296.68245    -1153.355   -23150.797    -25014.13    1863.3339    1.1610133    30.985945    30.985945    30.985945    29750.497 
 2912000    306.28102   -1066.5002   -23151.338   -25074.956    1923.6184    1.1610133    30.985945    30.985945    30.985945    29750.497 
 2913000    305.16236    10.723144   -23070.785   -24987.377    1916.5926    1.1610133    30.985945    30.985945    30.985945    29750.497 
 2914000    298.53423   -441.11227   -23209.514   -25084.479    1874.9642    1.1610133    30.985945    30.985945    30.985945    29750.497 
 2915000    307.70938   -848.24785   -23117.605   -25050.194    1932.5893    1.1610133    30.985945    30.985945    30.985945    29750.497 
 2916000    290.95489   -356.53968   -23218.064   -25045.426    1827.3616    1.1610133    30.985945    30.985945    30.985945    29750.497 
 2917000    298.66035    235.41975    -23134.84   -25010.596    1875.7562    1.1610133    30.985945    30.985945    30.985945    29750.497 
 2918000    291.20351   -688.61906   -23213.495   -25042.418    1828.9231    1.1610133    30.985945    30.985945    30.985945    29750.497 
 2919000    296.10584   -968.22195   -23351.032   -25210.745    1859.7125    1.1610133    30.985945    30.985945    30.985945    29750.497 
 2920000    297.82231   -224.31308   -23287.618   -25158.111    1870.4929    1.1610133    30.985945    30.985945    30.985945    29750.497 
 2921000    294.60099   -1317.5049   -23168.769    -25019.03    1850.2612    1.1610133    30.985945    30.985945    30.985945    29750.497 
 2922000    295.53033    425.49832   -23199.695   -25055.793     1856.098    1.1610133    30.985945    30.985945    30.985945    29750.497 
 2923000    303.99627    46.344481    -23181.02   -25090.289    1909.2689    1.1610133    30.985945    30.985945    30.985945    29750.497 
 2924000    303.66533   -826.89252   -23068.711   -24975.901    1907.1904    1.1610133    30.985945    30.985945    30.985945    29750.497 
 2925000    297.85906   -1333.9131   -23172.859   -25043.583    1870.7237    1.1610133    30.985945    30.985945    30.985945    29750.497 
 2926000    302.14811     77.49816   -23231.816   -25129.477    1897.6614    1.1610133    30.985945    30.985945    30.985945    29750.497 
 2927000    299.88648   -198.04191   -23177.333   -25060.791    1883.4571    1.1610133    30.985945    30.985945    30.985945    29750.497 
 2928000    296.90533    -664.6419   -23261.734   -25126.468    1864.7338    1.1610133    30.985945    30.985945    30.985945    29750.497 
 2929000    300.65395    -1003.621   -23214.522   -25102.799    1888.2772    1.1610133    30.985945    30.985945    30.985945    29750.497 
 2930000    297.34832   -842.58242   -23230.627   -25098.143     1867.516    1.1610133    30.985945    30.985945    30.985945    29750.497 
 2931000    298.69174   -129.82835   -23192.484   -25068.438    1875.9534    1.1610133    30.985945    30.985945    30.985945    29750.497 
 2932000    293.98866   -822.56122   -23125.518   -24971.934    1846.4154    1.1610133    30.985945    30.985945    30.985945    29750.497 
 2933000    296.73199    83.700965   -23126.136   -24989.782    1863.6451    1.1610133    30.985945    30.985945    30.985945    29750.497 
 2934000    298.67211   -1152.5312   -23145.885   -25021.715    1875.8301    1.1610133    30.985945    30.985945    30.985945    29750.497 
 2935000    309.31562    24.138801     -23128.2   -25070.878    1942.6774    1.1610133    30.985945    30.985945    30.985945    29750.497 
 2936000    293.06012   -487.06199   -23174.938   -25015.522    1840.5836    1.1610133    30.985945    30.985945    30.985945    29750.497 
 2937000    318.63302    -815.2394   -23089.924    -25091.12    2001.1959    1.1610133    30.985945    30.985945    30.985945    29750.497 
 2938000     290.7799    1202.7689   -23185.338   -25011.601    1826.2626    1.1610133    30.985945    30.985945    30.985945    29750.497 
 2939000    299.98188    997.80759   -23131.734    -25015.79    1884.0562    1.1610133    30.985945    30.985945    30.985945    29750.497 
 2940000      302.207   -608.93197   -23222.018   -25120.049    1898.0312    1.1610133    30.985945    30.985945    30.985945    29750.497 
 2941000    302.99228   -414.25539    -23198.73   -25101.694    1902.9633    1.1610133    30.985945    30.985945    30.985945    29750.497 
 2942000    291.68931   -611.94602   -23262.149   -25094.123    1831.9742    1.1610133    30.985945    30.985945    30.985945    29750.497 
 2943000    302.26879   -457.02075    -23214.63    -25113.05    1898.4194    1.1610133    30.985945    30.985945    30.985945    29750.497 
 2944000    293.87204    278.75259   -23181.811   -25027.494     1845.683    1.1610133    30.985945    30.985945    30.985945    29750.497 
 2945000    296.22337   -904.09293   -23190.847   -25051.297    1860.4507    1.1610133    30.985945    30.985945    30.985945    29750.497 
 2946000    289.98377   -331.99146   -23215.501   -25036.763    1821.2625    1.1610133    30.985945    30.985945    30.985945    29750.497 
 2947000    302.21774   -1207.8019   -23198.217   -25096.316    1898.0987    1.1610133    30.985945    30.985945    30.985945    29750.497 
 2948000    295.15439   -461.15689   -23122.107   -24975.844    1853.7369    1.1610133    30.985945    30.985945    30.985945    29750.497 
 2949000    291.54992   -706.99119   -23263.933   -25095.031    1831.0988    1.1610133    30.985945    30.985945    30.985945    29750.497 
 2950000    297.84745   -443.69126   -23163.505   -25034.156    1870.6508    1.1610133    30.985945    30.985945    30.985945    29750.497 
 2951000    291.53189   -323.84457    -23198.32   -25029.306    1830.9855    1.1610133    30.985945    30.985945    30.985945    29750.497 
 2952000    291.12762   -807.79976    -23204.19   -25032.636    1828.4465    1.1610133    30.985945    30.985945    30.985945    29750.497 
 2953000     300.6045   -449.54408   -23224.581   -25112.548    1887.9666    1.1610133    30.985945    30.985945    30.985945    29750.497 
 2954000    303.21413    334.53391   -23047.745   -24952.101    1904.3566    1.1610133    30.985945    30.985945    30.985945    29750.497 
 2955000    300.38922   -752.93415    -23192.11   -25078.724    1886.6145    1.1610133    30.985945    30.985945    30.985945    29750.497 
 2956000    302.44823   -103.71253   -23149.071   -25048.617    1899.5463    1.1610133    30.985945    30.985945    30.985945    29750.497 
 2957000    296.15471   -498.81568   -23226.378   -25086.397    1860.0194    1.1610133    30.985945    30.985945    30.985945    29750.497 
 2958000    296.03049   -1392.1388   -23146.266   -25005.505    1859.2392    1.1610133    30.985945    30.985945    30.985945    29750.497 
 2959000    300.13534   -607.46917   -23249.408   -25134.428    1885.0201    1.1610133    30.985945    30.985945    30.985945    29750.497 
 2960000    294.31673   -638.94271   -23282.558   -25131.034    1848.4759    1.1610133    30.985945    30.985945    30.985945    29750.497 
 2961000    298.78777    422.72324   -23239.213    -25115.77    1876.5565    1.1610133    30.985945    30.985945    30.985945    29750.497 
 2962000    290.16577   -475.49714    -23318.57   -25140.975    1822.4055    1.1610133    30.985945    30.985945    30.985945    29750.497 
 2963000    304.70379   -80.878287   -23177.055   -25090.767    1913.7125    1.1610133    30.985945    30.985945    30.985945    29750.497 
 2964000    300.69905   -749.87928   -23201.225   -25089.786    1888.5605    1.1610133    30.985945    30.985945    30.985945    29750.497 
 2965000    297.88384    416.03617   -23089.605   -24960.484    1870.8794    1.1610133    30.985945    30.985945    30.985945    29750.497 
 2966000    306.03809    647.42537   -23202.515   -25124.608    1922.0927    1.1610133    30.985945    30.985945    30.985945    29750.497 
 2967000    296.08975   -922.65433   -23271.748   -25131.359    1859.6115    1.1610133    30.985945    30.985945    30.985945    29750.497 
 2968000    296.34462   -920.74876   -23186.039   -25047.251    1861.2122    1.1610133    30.985945    30.985945    30.985945    29750.497 
 2969000    303.99996   -1179.7859   -23164.544   -25073.836     1909.292    1.1610133    30.985945    30.985945    30.985945    29750.497 
 2970000    307.82214   -647.08241   -23060.035   -24993.333    1933.2975    1.1610133    30.985945    30.985945    30.985945    29750.497 
 2971000     300.3956   -1256.4008   -23055.643   -24942.298    1886.6546    1.1610133    30.985945    30.985945    30.985945    29750.497 
 2972000    287.41744   -676.51108   -23242.097   -25047.241    1805.1444    1.1610133    30.985945    30.985945    30.985945    29750.497 
 2973000    291.97071   -523.97492   -23212.903   -25046.645    1833.7415    1.1610133    30.985945    30.985945    30.985945    29750.497 
 2974000    296.72219   -354.27493   -23191.699   -25055.283    1863.5835    1.1610133    30.985945    30.985945    30.985945    29750.497 
 2975000    295.95036   -1085.2846   -23181.475   -25040.211     1858.736    1.1610133    30.985945    30.985945    30.985945    29750.497 
 2976000    300.11097   -503.22513   -23227.073    -25111.94     1884.867    1.1610133    30.985945    30.985945    30.985945    29750.497 
 2977000    295.13217    -1144.363   -23282.768   -25136.365    1853.5973    1.1610133    30.985945    30.985945    30.985945    29750.497 
 2978000    296.45667   -1117.4408   -23232.847   -25094.763    1861.9159    1.1610133    30.985945    30.985945    30.985945    29750.497 
 2979000    300.21833    124.81314   -23261.079    -25146.62    1885.5413    1.1610133    30.985945    30.985945    30.985945    29750.497 
 2980000    292.52618   -211.67125   -23276.743   -25113.973    1837.2302    1.1610133    30.985945    30.985945    30.985945    29750.497 
 2981000      302.909   -870.51484    -23178.82    -25081.26    1902.4402    1.1610133    30.985945    30.985945    30.985945    29750.497 
 2982000    291.74223   -930.23345   -23280.945   -25113.252    1832.3066    1.1610133    30.985945    30.985945    30.985945    29750.497 
 2983000    303.85463   -315.03678   -23262.129   -25170.508    1908.3793    1.1610133    30.985945    30.985945    30.985945    29750.497 
 2984000    296.66183   -640.81396   -23213.711   -25076.916    1863.2044    1.1610133    30.985945    30.985945    30.985945    29750.497 
 2985000    307.66583   -561.93531   -23093.861   -25026.177    1932.3158    1.1610133    30.985945    30.985945    30.985945    29750.497 
 2986000    291.88331   -53.306693   -23242.881   -25076.073    1833.1926    1.1610133    30.985945    30.985945    30.985945    29750.497 
 2987000    299.57797   -430.21889   -23105.884   -24987.403    1881.5194    1.1610133    30.985945    30.985945    30.985945    29750.497 
 2988000    304.41776   -104.22612   -23245.739   -25157.655    1911.9161    1.1610133    30.985945    30.985945    30.985945    29750.497 
 2989000    292.48986   -54.297886   -23281.854   -25118.856    1837.0021    1.1610133    30.985945    30.985945    30.985945    29750.497 
 2990000    304.55265   -396.64533     -23180.5   -25093.263    1912.7633    1.1610133    30.985945    30.985945    30.985945    29750.497 
 2991000    300.23338    155.14846   -23264.606   -25150.242    1885.6358    1.1610133    30.985945    30.985945    30.985945    29750.497 
 2992000     301.0313    832.25049   -23180.414   -25071.061    1890.6472    1.1610133    30.985945    30.985945    30.985945    29750.497 
 2993000    293.74537   -42.555445   -23283.531   -25128.418    1844.8874    1.1610133    30.985945    30.985945    30.985945    29750.497 
 2994000    295.24224   -148.66128   -23136.086   -24990.374    1854.2886    1.1610133    30.985945    30.985945    30.985945    29750.497 
 2995000    289.93025   -80.824714   -23235.352   -25056.278    1820.9263    1.1610133    30.985945    30.985945    30.985945    29750.497 
 2996000    301.08843   -948.62902   -23259.307   -25150.313     1891.006    1.1610133    30.985945    30.985945    30.985945    29750.497 
 2997000    306.70126     147.1891   -23124.179   -25050.437    1926.2578    1.1610133    30.985945    30.985945    30.985945    29750.497 
 2998000    304.25405   -817.88049   -23236.875   -25147.763    1910.8879    1.1610133    30.985945    30.985945    30.985945    29750.497 
 2999000     304.9139   -44.852966   -23168.014   -25083.046    1915.0321    1.1610133    30.985945    30.985945    30.985945    29750.497 
 3000000    296.19214   -1155.5325    -23295.65   -25155.904    1860.2545    1.1610133    30.985945    30.985945    30.985945    29750.497 
 3001000    297.18835   -61.792248   -23252.226   -25118.737    1866.5113    1.1610133    30.985945    30.985945    30.985945    29750.497 
 3002000    293.71292   -48.184918   -23186.186    -25030.87    1844.6836    1.1610133    30.985945    30.985945    30.985945    29750.497 
 3003000    301.10647   -1193.8189   -23191.956   -25083.076    1891.1193    1.1610133    30.985945    30.985945    30.985945    29750.497 
 3004000    291.41553   -1155.2545   -23280.492   -25110.747    1830.2547    1.1610133    30.985945    30.985945    30.985945    29750.497 
 3005000      303.666   -954.92296    -23213.88   -25121.075    1907.1946    1.1610133    30.985945    30.985945    30.985945    29750.497 
 3006000    287.70379   -1306.2942   -23298.042   -25104.985    1806.9429    1.1610133    30.985945    30.985945    30.985945    29750.497 
 3007000    297.91869   -668.18882     -23261.5   -25132.598    1871.0982    1.1610133    30.985945    30.985945    30.985945    29750.497 
 3008000    296.84845    317.92475   -23310.487   -25174.864    1864.3765    1.1610133    30.985945    30.985945    30.985945    29750.497 
 3009000      304.121   -1025.3534   -23247.663   -25157.716    1910.0523    1.1610133    30.985945    30.985945    30.985945    29750.497 
 3010000    292.62248   -1041.5171   -23252.287   -25090.122     1837.835    1.1610133    30.985945    30.985945    30.985945    29750.497 
 3011000    305.89993   -1192.9321   -23145.739   -25066.964    1921.2249    1.1610133    30.985945    30.985945    30.985945    29750.497 
 3012000    290.30422    -612.2304    -23296.46   -25119.735     1823.275    1.1610133    30.985945    30.985945    30.985945    29750.497 
 3013000     304.5696   -1007.6054   -23130.594   -25043.464    1912.8697    1.1610133    30.985945    30.985945    30.985945    29750.497 
 3014000    298.07583   -62.726542   -23254.016   -25126.102    1872.0852    1.1610133    30.985945    30.985945    30.985945    29750.497 
 3015000    295.82377   -1170.8459   -23185.535   -25043.476     1857.941    1.1610133    30.985945    30.985945    30.985945    29750.497 
 3016000    309.84445   -592.53528   -23164.936   -25110.935    1945.9988    1.1610133    30.985945    30.985945    30.985945    29750.497 
 3017000    295.50472   -509.59021   -23192.656   -25048.593    1855.9371    1.1610133    30.985945    30.985945    30.985945    29750.497 
 3018000    297.66186   -773.77115   -23230.246   -25099.731    1869.4852    1.1610133    30.985945    30.985945    30.985945    29750.497 
 3019000    301.88003   -1011.5165   -23217.507   -25113.485    1895.9777    1.1610133    30.985945    30.985945    30.985945    29750.497 
 3020000     305.7765    -788.2745   -23257.902   -25178.351    1920.4497    1.1610133    30.985945    30.985945    30.985945    29750.497 
 3021000    297.15979   -470.07329   -23169.721   -25036.053    1866.3319    1.1610133    30.985945    30.985945    30.985945    29750.497 
 3022000    293.67799   -180.71474   -23252.012   -25096.476    1844.4643    1.1610133    30.985945    30.985945    30.985945    29750.497 
 3023000    294.66914   -414.87142   -23272.724   -25123.413    1850.6892    1.1610133    30.985945    30.985945    30.985945    29750.497 
 3024000    290.34173   -1565.7089   -23271.523   -25095.033    1823.5106    1.1610133    30.985945    30.985945    30.985945    29750.497 
 3025000    297.67126   -489.01838   -23174.597   -25044.141    1869.5442    1.1610133    30.985945    30.985945    30.985945    29750.497 
 3026000     296.9189   -1302.0163    -23201.47   -25066.289    1864.8189    1.1610133    30.985945    30.985945    30.985945    29750.497 
 3027000    301.08082    301.87762   -23135.843   -25026.801    1890.9582    1.1610133    30.985945    30.985945    30.985945    29750.497 
 3028000    297.12944    41.197609   -23264.777   -25130.918    1866.1413    1.1610133    30.985945    30.985945    30.985945    29750.497 
 3029000    295.15995   -703.97731   -23140.216   -24993.988    1853.7718    1.1610133    30.985945    30.985945    30.985945    29750.497 
 3030000    295.03905   -316.06445   -23143.072   -24996.084    1853.0125    1.1610133    30.985945    30.985945    30.985945    29750.497 
 3031000    295.06441   -789.94736   -23199.369   -25052.541    1853.1717    1.1610133    30.985945    30.985945    30.985945    29750.497 
 3032000    295.22516   -510.69575   -23205.686   -25059.867    1854.1813    1.1610133    30.985945    30.985945    30.985945    29750.497 
 3033000    298.98608     -738.986   -23224.043   -25101.845    1877.8021    1.1610133    30.985945    30.985945    30.985945    29750.497 
 3034000     307.2588    -1137.235   -23142.705   -25072.465    1929.7594    1.1610133    30.985945    30.985945    30.985945    29750.497 
 3035000    293.94869    354.77072   -23186.433   -25032.598    1846.1644    1.1610133    30.985945    30.985945    30.985945    29750.497 
 3036000     313.2505    423.17283   -23093.833   -25061.224    1967.3907    1.1610133    30.985945    30.985945    30.985945    29750.497 
 3037000     302.2671   -172.64464   -23135.195   -25033.604    1898.4087    1.1610133    30.985945    30.985945    30.985945    29750.497 
 3038000    295.73589   -878.38777   -23239.234   -25096.623     1857.389    1.1610133    30.985945    30.985945    30.985945    29750.497 
 3039000    301.22019    -254.4022   -23235.265   -25127.099    1891.8335    1.1610133    30.985945    30.985945    30.985945    29750.497 
 3040000    298.40963    622.75663   -23162.566   -25036.747    1874.1816    1.1610133    30.985945    30.985945    30.985945    29750.497 
 3041000    291.07544   -754.64413   -23206.762    -25034.88    1828.1187    1.1610133    30.985945    30.985945    30.985945    29750.497 
 3042000    300.34998    77.748922   -23172.958   -25059.327    1886.3681    1.1610133    30.985945    30.985945    30.985945    29750.497 
 3043000     290.9416   -271.03225   -23188.189   -25015.467    1827.2781    1.1610133    30.985945    30.985945    30.985945    29750.497 
 3044000    295.56776   -135.33865   -23245.423   -25101.756     1856.333    1.1610133    30.985945    30.985945    30.985945    29750.497 
 3045000    297.55379   -912.61682   -23211.865   -25080.672    1868.8065    1.1610133    30.985945    30.985945    30.985945    29750.497 
 3046000    290.26578   -90.607086   -23314.722   -25137.756    1823.0336    1.1610133    30.985945    30.985945    30.985945    29750.497 
 3047000     299.8467   -893.67433   -23120.546   -25003.754    1883.2073    1.1610133    30.985945    30.985945    30.985945    29750.497 
 3048000    291.98779   -738.17873   -23186.937   -25020.786    1833.8488    1.1610133    30.985945    30.985945    30.985945    29750.497 
 3049000    300.15431    253.67287   -23194.916   -25080.055    1885.1392    1.1610133    30.985945    30.985945    30.985945    29750.497 
 3050000     307.1291   -670.10806   -23225.019   -25153.964    1928.9448    1.1610133    30.985945    30.985945    30.985945    29750.497 
 3051000    301.41617   -620.92316   -23145.309   -25038.373    1893.0644    1.1610133    30.985945    30.985945    30.985945    29750.497 
 3052000    296.89434   -816.38945   -23196.292   -25060.957    1864.6647    1.1610133    30.985945    30.985945    30.985945    29750.497 
 3053000    297.37484   -442.71863   -23237.383   -25105.066    1867.6826    1.1610133    30.985945    30.985945    30.985945    29750.497 
 3054000    304.21902   -1540.7988   -23150.019   -25060.687    1910.6679    1.1610133    30.985945    30.985945    30.985945    29750.497 
 3055000    302.79725   -651.16937   -23139.861     -25041.6    1901.7384    1.1610133    30.985945    30.985945    30.985945    29750.497 
 3056000    304.67352   -502.33817   -23141.479   -25055.002    1913.5224    1.1610133    30.985945    30.985945    30.985945    29750.497 
 3057000    304.11443   -781.28073   -23213.071   -25123.082     1910.011    1.1610133    30.985945    30.985945    30.985945    29750.497 
 3058000    297.40777   -214.72614   -23227.559   -25095.449    1867.8894    1.1610133    30.985945    30.985945    30.985945    29750.497 
 3059000    296.87578   -876.27242   -23261.696   -25126.244    1864.5482    1.1610133    30.985945    30.985945    30.985945    29750.497 
 3060000    297.73016   -6.9439243   -23165.325   -25035.239    1869.9142    1.1610133    30.985945    30.985945    30.985945    29750.497 
 3061000     297.6837   -208.80291   -23235.303   -25104.926    1869.6223    1.1610133    30.985945    30.985945    30.985945    29750.497 
 3062000    306.07301   -657.31126    -23129.38   -25051.692     1922.312    1.1610133    30.985945    30.985945    30.985945    29750.497 
 3063000    304.48963   -1125.6968    -23164.85   -25077.217    1912.3674    1.1610133    30.985945    30.985945    30.985945    29750.497 
 3064000    299.76296    173.47138   -23137.387   -25020.068    1882.6813    1.1610133    30.985945    30.985945    30.985945    29750.497 
 3065000    300.96061    -466.4087   -23229.557    -25119.76    1890.2032    1.1610133    30.985945    30.985945    30.985945    29750.497 
 3066000    297.41915    7.6935371   -23267.566   -25135.526    1867.9608    1.1610133    30.985945    30.985945    30.985945    29750.497 
 3067000    302.89001     -849.186   -23116.737   -25019.058    1902.3209    1.1610133    30.985945    30.985945    30.985945    29750.497 
 3068000    303.17215   -1019.6703   -23092.371   -24996.464    1904.0929    1.1610133    30.985945    30.985945    30.985945    29750.497 
 3069000    292.81355   -278.96005   -23196.008   -25035.043    1839.0351    1.1610133    30.985945    30.985945    30.985945    29750.497 
 3070000    299.90569   -366.64283   -23255.884   -25139.462    1883.5777    1.1610133    30.985945    30.985945    30.985945    29750.497 
 3071000    298.86069    -636.5032   -23190.424   -25067.439    1877.0145    1.1610133    30.985945    30.985945    30.985945    29750.497 
 3072000    294.92888   -1006.0516   -23241.719   -25094.039    1852.3206    1.1610133    30.985945    30.985945    30.985945    29750.497 
 3073000      291.498   -479.61344   -23138.546   -24969.319    1830.7727    1.1610133    30.985945    30.985945    30.985945    29750.497 
 3074000    296.13629   -90.576725   -23166.148   -25026.051    1859.9037    1.1610133    30.985945    30.985945    30.985945    29750.497 
 3075000     297.6913    -1138.146   -23264.209   -25133.879    1869.6701    1.1610133    30.985945    30.985945    30.985945    29750.497 
 3076000    294.21109   -1335.5669   -23236.438    -25084.25    1847.8124    1.1610133    30.985945    30.985945    30.985945    29750.497 
 3077000    301.82399   -897.87979   -23219.151   -25114.777    1895.6257    1.1610133    30.985945    30.985945    30.985945    29750.497 
 3078000    299.39823   -943.62487   -23264.115   -25144.506    1880.3906    1.1610133    30.985945    30.985945    30.985945    29750.497 
 3079000    298.81532   -233.54791   -23191.091   -25067.821    1876.7296    1.1610133    30.985945    30.985945    30.985945    29750.497 
 3080000    291.76933    -513.9674   -23309.743    -25142.22    1832.4767    1.1610133    30.985945    30.985945    30.985945    29750.497 
 3081000     300.4728   -627.67561   -23206.669   -25093.808    1887.1395    1.1610133    30.985945    30.985945    30.985945    29750.497 
 3082000    296.23603   -1084.4314   -23212.347   -25072.878    1860.5301    1.1610133    30.985945    30.985945    30.985945    29750.497 
 3083000    300.57343    144.33076   -23178.205   -25065.977    1887.7715    1.1610133    30.985945    30.985945    30.985945    29750.497 
 3084000    298.59472    -136.7179   -23233.346    -25108.69     1875.344    1.1610133    30.985945    30.985945    30.985945    29750.497 
 3085000    296.07825   -142.62262   -23207.812   -25067.352    1859.5392    1.1610133    30.985945    30.985945    30.985945    29750.497 
 3086000    290.60029   -813.61121   -23183.834   -25008.968    1825.1345    1.1610133    30.985945    30.985945    30.985945    29750.497 
 3087000    295.86705    27.702326   -23226.443   -25084.656    1858.2128    1.1610133    30.985945    30.985945    30.985945    29750.497 
 3088000    291.44879    9.8869502   -23258.967    -25089.43    1830.4636    1.1610133    30.985945    30.985945    30.985945    29750.497 
 3089000    300.69552    141.22899   -23150.894   -25039.432    1888.5383    1.1610133    30.985945    30.985945    30.985945    29750.497 
 3090000    301.04845   -401.77862   -23160.726   -25051.481    1890.7549    1.1610133    30.985945    30.985945    30.985945    29750.497 
 3091000    308.67987   -230.01033    -23138.34   -25077.024    1938.6845    1.1610133    30.985945    30.985945    30.985945    29750.497 
 3092000    311.65764   -587.49776   -23177.257   -25134.644    1957.3866    1.1610133    30.985945    30.985945    30.985945    29750.497 
 3093000    302.78017   -323.97534   -23180.967   -25082.598    1901.6311    1.1610133    30.985945    30.985945    30.985945    29750.497 
 3094000    299.65888     52.97348   -23273.281   -25155.308    1882.0276    1.1610133    30.985945    30.985945    30.985945    29750.497 
 3095000    306.61143   -116.67073   -23158.965   -25084.658    1925.6936    1.1610133    30.985945    30.985945    30.985945    29750.497 
 3096000    300.99566   -239.12364   -23235.012   -25125.435    1890.4233    1.1610133    30.985945    30.985945    30.985945    29750.497 
 3097000    300.55779   -460.91163   -23231.196   -25118.869    1887.6733    1.1610133    30.985945    30.985945    30.985945    29750.497 
 3098000    296.67457    -272.0118   -23307.832   -25171.117    1863.2845    1.1610133    30.985945    30.985945    30.985945    29750.497 
 3099000    296.84033   -234.39337   -23246.086   -25110.412    1864.3255    1.1610133    30.985945    30.985945    30.985945    29750.497 
 3100000      298.814   -860.01344   -23251.003   -25127.724    1876.7213    1.1610133    30.985945    30.985945    30.985945    29750.497 
 3101000    298.72977    2.3262134   -23244.437    -25120.63    1876.1923    1.1610133    30.985945    30.985945    30.985945    29750.497 
 3102000    293.29245   -162.74925       -23259   -25101.043    1842.0428    1.1610133    30.985945    30.985945    30.985945    29750.497 
 3103000    297.74479   -423.34455   -23245.158   -25115.164     1870.006    1.1610133    30.985945    30.985945    30.985945    29750.497 
 3104000    294.62204   -435.81449   -23158.804   -25009.197    1850.3934    1.1610133    30.985945    30.985945    30.985945    29750.497 
 3105000    294.24179    27.019825    -23250.79   -25098.795    1848.0052    1.1610133    30.985945    30.985945    30.985945    29750.497 
 3106000    304.71647    317.95662   -23194.535   -25108.327    1913.7921    1.1610133    30.985945    30.985945    30.985945    29750.497 
 3107000    309.06467   -320.40804   -23164.736   -25105.837    1941.1013    1.1610133    30.985945    30.985945    30.985945    29750.497 
 3108000    306.94841   -116.92711   -23145.948   -25073.758      1927.81    1.1610133    30.985945    30.985945    30.985945    29750.497 
 3109000    294.42243   -445.40578   -23211.461     -25060.6    1849.1397    1.1610133    30.985945    30.985945    30.985945    29750.497 
 3110000    295.25112   -1514.9241   -23249.228   -25103.572    1854.3444    1.1610133    30.985945    30.985945    30.985945    29750.497 
 3111000    298.97877   -1175.0008   -23227.563   -25105.319    1877.7561    1.1610133    30.985945    30.985945    30.985945    29750.497 
 3112000    297.50243   -762.39047    -23237.28   -25105.764    1868.4839    1.1610133    30.985945    30.985945    30.985945    29750.497 
 3113000    295.42587   -864.97332   -23165.322   -25020.764    1855.4419    1.1610133    30.985945    30.985945    30.985945    29750.497 
 3114000    291.07965   -903.04097   -23258.173   -25086.318    1828.1452    1.1610133    30.985945    30.985945    30.985945    29750.497 
 3115000    299.48965    195.21461   -23157.285    -25038.25    1880.9647    1.1610133    30.985945    30.985945    30.985945    29750.497 
 3116000    291.03205    -92.02543   -23254.632   -25082.478    1827.8462    1.1610133    30.985945    30.985945    30.985945    29750.497 
 3117000    290.89063   -1343.5634   -23277.462    -25104.42     1826.958    1.1610133    30.985945    30.985945    30.985945    29750.497 
 3118000    300.87049    153.37698   -23258.688   -25148.325    1889.6372    1.1610133    30.985945    30.985945    30.985945    29750.497 
 3119000     293.9721   -779.23706    -23283.06   -25129.371    1846.3114    1.1610133    30.985945    30.985945    30.985945    29750.497 
 3120000      295.789   -466.97349   -23203.328    -25061.05    1857.7226    1.1610133    30.985945    30.985945    30.985945    29750.497 
 3121000    295.51971   -1084.0045   -23198.545   -25054.577    1856.0313    1.1610133    30.985945    30.985945    30.985945    29750.497 
 3122000    300.16191    100.26289   -23169.593    -25054.78    1885.1869    1.1610133    30.985945    30.985945    30.985945    29750.497 
 3123000    309.13192   -232.15721   -23025.991   -24967.514    1941.5236    1.1610133    30.985945    30.985945    30.985945    29750.497 
 3124000    290.67621   -641.67605   -23259.627   -25085.238    1825.6113    1.1610133    30.985945    30.985945    30.985945    29750.497 
 3125000    306.94138   -1330.7232   -23095.658   -25023.423    1927.7658    1.1610133    30.985945    30.985945    30.985945    29750.497 
 3126000    299.40073     341.0775   -23132.372   -25012.778    1880.4063    1.1610133    30.985945    30.985945    30.985945    29750.497 
 3127000    306.54727   -911.69469   -23266.793   -25192.084    1925.2906    1.1610133    30.985945    30.985945    30.985945    29750.497 
 3128000    296.50525   -469.14556   -23236.882   -25099.103     1862.221    1.1610133    30.985945    30.985945    30.985945    29750.497 
 3129000    295.49112    310.07449   -23237.577   -25093.429    1855.8517    1.1610133    30.985945    30.985945    30.985945    29750.497 
 3130000    298.72447   -527.60452   -23227.357   -25103.516     1876.159    1.1610133    30.985945    30.985945    30.985945    29750.497 
 3131000    305.34974    372.59535   -23103.273   -25021.042    1917.7694    1.1610133    30.985945    30.985945    30.985945    29750.497 
 3132000    297.46003   -496.07137   -23156.485   -25024.702    1868.2176    1.1610133    30.985945    30.985945    30.985945    29750.497 
 3133000    297.39027   -470.41016   -23274.258   -25142.038    1867.7795    1.1610133    30.985945    30.985945    30.985945    29750.497 
 3134000    298.42499   -577.37537    -23197.23   -25071.508     1874.278    1.1610133    30.985945    30.985945    30.985945    29750.497 
 3135000     305.8057   -485.13179   -23109.109   -25029.742    1920.6331    1.1610133    30.985945    30.985945    30.985945    29750.497 
 3136000    289.89736   -379.27115    -23283.49    -25104.21    1820.7197    1.1610133    30.985945    30.985945    30.985945    29750.497 
 3137000    299.06948   -825.79579   -23184.413   -25062.739    1878.3258    1.1610133    30.985945    30.985945    30.985945    29750.497 
 3138000    294.45547    507.91001    -23228.97   -25078.317    1849.3473    1.1610133    30.985945    30.985945    30.985945    29750.497 
 3139000    296.38426    36.390201   -23136.146   -24997.607    1861.4611    1.1610133    30.985945    30.985945    30.985945    29750.497 
 3140000    307.35394   -702.34853   -23187.773   -25118.129    1930.3569    1.1610133    30.985945    30.985945    30.985945    29750.497 
 3141000    300.27002   -771.21559   -23178.852   -25064.718    1885.8659    1.1610133    30.985945    30.985945    30.985945    29750.497 
 3142000    291.31362   -342.55253   -23233.233   -25062.848    1829.6146    1.1610133    30.985945    30.985945    30.985945    29750.497 
 3143000    294.01564    18.317044   -23171.102   -25017.687    1846.5849    1.1610133    30.985945    30.985945    30.985945    29750.497 
 3144000    295.15451   -638.96516   -23212.996   -25066.734    1853.7376    1.1610133    30.985945    30.985945    30.985945    29750.497 
 3145000    297.45523   -784.58722   -23255.972   -25124.159    1868.1874    1.1610133    30.985945    30.985945    30.985945    29750.497 
 3146000    302.00092   -593.94167   -23197.268   -25094.005    1896.7369    1.1610133    30.985945    30.985945    30.985945    29750.497 
 3147000    295.11176    199.98027   -23109.701    -24963.17    1853.4691    1.1610133    30.985945    30.985945    30.985945    29750.497 
 3148000    297.74139   -299.07983   -23241.908   -25111.892    1869.9847    1.1610133    30.985945    30.985945    30.985945    29750.497 
 3149000    299.81389   -37.662805   -23134.064   -25017.066    1883.0011    1.1610133    30.985945    30.985945    30.985945    29750.497 
 3150000    307.76854   -39.147335    -23174.04   -25107.001    1932.9609    1.1610133    30.985945    30.985945    30.985945    29750.497 
 3151000    290.44123   -1006.3263   -23173.474   -24997.609    1824.1355    1.1610133    30.985945    30.985945    30.985945    29750.497 
 3152000    298.76189   -421.26531   -23144.023   -25020.417     1876.394    1.1610133    30.985945    30.985945    30.985945    29750.497 
 3153000     296.0198   -1019.6765   -23203.628     -25062.8    1859.1721    1.1610133    30.985945    30.985945    30.985945    29750.497 
 3154000    297.18817    442.33236   -23090.929    -24957.44    1866.5102    1.1610133    30.985945    30.985945    30.985945    29750.497 
 3155000    292.04644    515.35375   -23187.569   -25021.786    1834.2171    1.1610133    30.985945    30.985945    30.985945    29750.497 
 3156000    299.12872   -24.432513   -23202.505   -25081.203    1878.6979    1.1610133    30.985945    30.985945    30.985945    29750.497 
 3157000    294.41411   -660.14801   -23156.677   -25005.764    1849.0875    1.1610133    30.985945    30.985945    30.985945    29750.497 
 3158000     294.1854   -1323.9737   -23163.934   -25011.585     1847.651    1.1610133    30.985945    30.985945    30.985945    29750.497 
 3159000    309.39632   -153.78097   -23126.897   -25070.081    1943.1843    1.1610133    30.985945    30.985945    30.985945    29750.497 
 3160000    303.31796   -850.75118   -23093.477   -24998.486    1905.0087    1.1610133    30.985945    30.985945    30.985945    29750.497 
 3161000    299.43247   -816.66666    -23157.92   -25038.526    1880.6056    1.1610133    30.985945    30.985945    30.985945    29750.497 
 3162000    305.11325   -106.77868   -23149.882   -25066.166    1916.2841    1.1610133    30.985945    30.985945    30.985945    29750.497 
 3163000    295.46344   -1106.2451   -23203.766   -25059.444    1855.6778    1.1610133    30.985945    30.985945    30.985945    29750.497 
 3164000    293.33831    -735.2208   -23249.254   -25091.585    1842.3308    1.1610133    30.985945    30.985945    30.985945    29750.497 
 3165000    303.42892   -580.75172   -23097.521   -25003.227    1905.7056    1.1610133    30.985945    30.985945    30.985945    29750.497 
 3166000    298.67414   -455.07634   -23181.465   -25057.308    1875.8429    1.1610133    30.985945    30.985945    30.985945    29750.497 
 3167000    301.37017   -594.49732   -23200.323   -25093.098    1892.7755    1.1610133    30.985945    30.985945    30.985945    29750.497 
 3168000    289.30323   -1386.5074   -23265.507   -25082.495    1816.9882    1.1610133    30.985945    30.985945    30.985945    29750.497 
 3169000    298.16942    199.64052   -23250.439   -25123.112     1872.673    1.1610133    30.985945    30.985945    30.985945    29750.497 
 3170000    305.78458    -913.4266   -23192.695   -25113.195    1920.5005    1.1610133    30.985945    30.985945    30.985945    29750.497 
 3171000    296.01313   -951.37051   -23227.443   -25086.573    1859.1302    1.1610133    30.985945    30.985945    30.985945    29750.497 
 3172000    299.74117     280.0451   -23217.887   -25100.432    1882.5444    1.1610133    30.985945    30.985945    30.985945    29750.497 
 3173000    295.71781    783.86996   -23254.141   -25111.417    1857.2754    1.1610133    30.985945    30.985945    30.985945    29750.497 
 3174000    294.94728   -521.05713   -23215.837   -25068.273    1852.4361    1.1610133    30.985945    30.985945    30.985945    29750.497 
 3175000    290.84204   -307.08842   -23181.176   -25007.829    1826.6528    1.1610133    30.985945    30.985945    30.985945    29750.497 
 3176000    289.82665   -1362.1993   -23291.179   -25111.454    1820.2756    1.1610133    30.985945    30.985945    30.985945    29750.497 
 3177000     300.7754   -567.60102   -23173.538   -25062.578      1889.04    1.1610133    30.985945    30.985945    30.985945    29750.497 
 3178000     293.1364   -325.45513   -23163.501   -25004.564    1841.0627    1.1610133    30.985945    30.985945    30.985945    29750.497 
 3179000    291.55553    -419.1617   -23227.018   -25058.152     1831.134    1.1610133    30.985945    30.985945    30.985945    29750.497 
 3180000    299.89191   -13.416313   -23225.526   -25109.017    1883.4912    1.1610133    30.985945    30.985945    30.985945    29750.497 
 3181000    295.45419   -232.71823   -23218.916   -25074.535    1855.6198    1.1610133    30.985945    30.985945    30.985945    29750.497 
 3182000     303.0248   -389.35792   -23167.381   -25070.548    1903.1675    1.1610133    30.985945    30.985945    30.985945    29750.497 
 3183000    299.90939   -1160.7818   -23177.776   -25061.377     1883.601    1.1610133    30.985945    30.985945    30.985945    29750.497 
 3184000     291.0349   -357.63126   -23241.923   -25069.787    1827.8641    1.1610133    30.985945    30.985945    30.985945    29750.497 
 3185000    290.17898   -522.10301    -23341.34   -25163.829    1822.4885    1.1610133    30.985945    30.985945    30.985945    29750.497 
 3186000    299.14448   -425.67466   -23189.765   -25068.562    1878.7969    1.1610133    30.985945    30.985945    30.985945    29750.497 
 3187000    299.07635   -728.92624   -23160.189   -25038.558     1878.369    1.1610133    30.985945    30.985945    30.985945    29750.497 
 3188000    297.50566    379.30335   -23255.244   -25123.748    1868.5042    1.1610133    30.985945    30.985945    30.985945    29750.497 
 3189000    304.99262   -706.96099   -23174.912   -25090.439    1915.5265    1.1610133    30.985945    30.985945    30.985945    29750.497 
 3190000    302.51637    48.961426   -23191.394   -25091.368    1899.9743    1.1610133    30.985945    30.985945    30.985945    29750.497 
 3191000    292.10112   -127.64502   -23267.622   -25102.183    1834.5606    1.1610133    30.985945    30.985945    30.985945    29750.497 
 3192000     288.2495   -1140.3661   -23356.586   -25166.957    1810.3703    1.1610133    30.985945    30.985945    30.985945    29750.497 
 3193000    302.90459   -509.32513   -23193.924   -25096.337    1902.4125    1.1610133    30.985945    30.985945    30.985945    29750.497 
 3194000    295.04939    -428.1043   -23221.345   -25074.422    1853.0774    1.1610133    30.985945    30.985945    30.985945    29750.497 
 3195000    295.16202   -679.39742   -23285.798   -25139.582    1853.7848    1.1610133    30.985945    30.985945    30.985945    29750.497 
 3196000    298.63973   -519.12588   -23218.193   -25093.819    1875.6268    1.1610133    30.985945    30.985945    30.985945    29750.497 
 3197000    290.67882   -1162.4681   -23217.167   -25042.795    1825.6278    1.1610133    30.985945    30.985945    30.985945    29750.497 
 3198000    304.58019   -699.58856   -23198.538   -25111.474    1912.9362    1.1610133    30.985945    30.985945    30.985945    29750.497 
 3199000    294.77905   -281.78832   -23226.953   -25078.333    1851.3795    1.1610133    30.985945    30.985945    30.985945    29750.497 
 3200000    294.75258   -316.25141   -23215.118   -25066.332    1851.2133    1.1610133    30.985945    30.985945    30.985945    29750.497 
 3201000    299.59808   -243.92273   -23086.617   -24968.263    1881.6458    1.1610133    30.985945    30.985945    30.985945    29750.497 
 3202000    299.37253    -102.1089   -23167.612   -25047.841    1880.2292    1.1610133    30.985945    30.985945    30.985945    29750.497 
 3203000    294.28851   -398.29243   -23219.606   -25067.904    1848.2987    1.1610133    30.985945    30.985945    30.985945    29750.497 
 3204000     302.5859    -387.5877   -23117.971   -25018.382     1900.411    1.1610133    30.985945    30.985945    30.985945    29750.497 
 3205000    290.27305   -77.093951    -23211.62     -25034.7    1823.0793    1.1610133    30.985945    30.985945    30.985945    29750.497 
 3206000    294.53307   -963.39563    -23227.76   -25077.594    1849.8346    1.1610133    30.985945    30.985945    30.985945    29750.497 
 3207000    292.36166   -861.41225   -23230.969   -25067.166    1836.1969    1.1610133    30.985945    30.985945    30.985945    29750.497 
 3208000    295.73177   -451.41616   -23283.593   -25140.956    1857.3632    1.1610133    30.985945    30.985945    30.985945    29750.497 
 3209000     295.6941   -540.61337    -23155.56   -25012.687    1857.1265    1.1610133    30.985945    30.985945    30.985945    29750.497 
 3210000    297.06412   -971.62053   -23226.378   -25092.109     1865.731    1.1610133    30.985945    30.985945    30.985945    29750.497 
 3211000    303.47281   -1406.2282   -23137.931   -25043.912    1905.9813    1.1610133    30.985945    30.985945    30.985945    29750.497 
 3212000    304.15809   -76.304718   -23169.426   -25079.711    1910.2852    1.1610133    30.985945    30.985945    30.985945    29750.497 
 3213000    294.60793   -524.77553    -23190.43   -25040.735    1850.3048    1.1610133    30.985945    30.985945    30.985945    29750.497 
 3214000    290.35608   -224.87259    -23172.71    -24996.31    1823.6007    1.1610133    30.985945    30.985945    30.985945    29750.497 
 3215000    305.70257   -552.41472   -23162.668   -25082.653    1919.9854    1.1610133    30.985945    30.985945    30.985945    29750.497 
 3216000    285.94959   -436.43783   -23275.832   -25071.758    1795.9255    1.1610133    30.985945    30.985945    30.985945    29750.497 
 3217000    302.23686   -565.86101   -23141.078   -25039.297    1898.2188    1.1610133    30.985945    30.985945    30.985945    29750.497 
 3218000    296.27482   -637.56166   -23241.555   -25102.329    1860.7738    1.1610133    30.985945    30.985945    30.985945    29750.497 
 3219000    298.57407   -801.26095   -23224.185     -25099.4    1875.2144    1.1610133    30.985945    30.985945    30.985945    29750.497 
 3220000    300.77769   -93.040634   -23121.659   -25010.713    1889.0543    1.1610133    30.985945    30.985945    30.985945    29750.497 
 3221000    296.67449    170.62037   -23228.486    -25091.77    1863.2839    1.1610133    30.985945    30.985945    30.985945    29750.497 
 3222000    297.37495   -304.56527   -23143.264   -25010.948    1867.6833    1.1610133    30.985945    30.985945    30.985945    29750.497 
 3223000    298.54693    57.802194    -23190.22   -25065.264    1875.0439    1.1610133    30.985945    30.985945    30.985945    29750.497 
 3224000    301.03388   -149.18641   -23228.932   -25119.596    1890.6634    1.1610133    30.985945    30.985945    30.985945    29750.497 
 3225000    292.76116   -155.14074    -23285.26   -25123.966     1838.706    1.1610133    30.985945    30.985945    30.985945    29750.497 
 3226000    295.56309    73.416426   -23135.531   -24991.835    1856.3037    1.1610133    30.985945    30.985945    30.985945    29750.497 
 3227000    294.57177   -919.67303   -23278.907   -25128.985    1850.0777    1.1610133    30.985945    30.985945    30.985945    29750.497 
 3228000    295.02765   -583.12964   -23275.363   -25128.303    1852.9409    1.1610133    30.985945    30.985945    30.985945    29750.497 
 3229000    291.87922   -1098.9734    -23230.97   -25064.137    1833.1669    1.1610133    30.985945    30.985945    30.985945    29750.497 
 3230000    294.14976   -1863.5488   -23184.512   -25031.939    1847.4272    1.1610133    30.985945    30.985945    30.985945    29750.497 
 3231000    299.90008   -2298.8207   -23184.759   -25068.301    1883.5425    1.1610133    30.985945    30.985945    30.985945    29750.497 
 3232000    297.24881   -1007.6217   -23123.147   -24990.038     1866.891    1.1610133    30.985945    30.985945    30.985945    29750.497 
 3233000    294.04391   -1087.6696   -23179.133   -25025.895    1846.7624    1.1610133    30.985945    30.985945    30.985945    29750.497 
 3234000      303.954    36.563696   -23146.892   -25055.895    1909.0034    1.1610133    30.985945    30.985945    30.985945    29750.497 
 3235000    297.87746   -538.33684   -23147.035   -25017.874    1870.8393    1.1610133    30.985945    30.985945    30.985945    29750.497 
 3236000    293.08338   -842.27386   -23234.405   -25075.135    1840.7297    1.1610133    30.985945    30.985945    30.985945    29750.497 
 3237000    309.58661    -486.7457   -23100.992   -25045.371    1944.3794    1.1610133    30.985945    30.985945    30.985945    29750.497 
 3238000    298.15147   -845.34158   -23159.595   -25032.155    1872.5602    1.1610133    30.985945    30.985945    30.985945    29750.497 
 3239000    294.63904   -560.39452   -23160.996   -25011.496    1850.5002    1.1610133    30.985945    30.985945    30.985945    29750.497 
 3240000    285.72922   -985.78306   -23304.177   -25098.718    1794.5414    1.1610133    30.985945    30.985945    30.985945    29750.497 
 3241000    288.51892   -38.683455   -23246.999   -25059.061    1812.0623    1.1610133    30.985945    30.985945    30.985945    29750.497 
 3242000    293.62276   -443.97446   -23142.288   -24986.405    1844.1174    1.1610133    30.985945    30.985945    30.985945    29750.497 
 3243000    296.92314   -68.127456   -23202.651   -25067.496    1864.8456    1.1610133    30.985945    30.985945    30.985945    29750.497 
 3244000    300.76056    471.30178   -23172.338   -25061.285    1888.9468    1.1610133    30.985945    30.985945    30.985945    29750.497 
 3245000    298.35743    347.62492   -23100.182   -24974.036    1873.8538    1.1610133    30.985945    30.985945    30.985945    29750.497 
 3246000    293.25098   -1136.2964   -23260.847   -25102.629    1841.7824    1.1610133    30.985945    30.985945    30.985945    29750.497 
 3247000    298.09984   -1656.9746   -23197.926   -25070.162     1872.236    1.1610133    30.985945    30.985945    30.985945    29750.497 
 3248000    296.93964   -896.64795    -23275.45     -25140.4    1864.9493    1.1610133    30.985945    30.985945    30.985945    29750.497 
 3249000    295.97566   -726.43464   -23153.488   -25012.383    1858.8949    1.1610133    30.985945    30.985945    30.985945    29750.497 
 3250000    303.19723   -171.39993   -23158.869   -25063.119    1904.2504    1.1610133    30.985945    30.985945    30.985945    29750.497 
 3251000    297.99508   -660.21816   -23261.687   -25133.265     1871.578    1.1610133    30.985945    30.985945    30.985945    29750.497 
 3252000    296.96114   -811.09659   -23185.218   -25050.303    1865.0843    1.1610133    30.985945    30.985945    30.985945    29750.497 
 3253000    300.44032   -220.74606   -23164.495    -25051.43    1886.9355    1.1610133    30.985945    30.985945    30.985945    29750.497 
 3254000    294.72759   -1213.9476    -23178.52   -25029.576    1851.0563    1.1610133    30.985945    30.985945    30.985945    29750.497 
 3255000     296.3946   -812.87429   -23178.903   -25040.429    1861.5261    1.1610133    30.985945    30.985945    30.985945    29750.497 
 3256000    299.14667   -680.71119   -23152.094   -25030.905    1878.8106    1.1610133    30.985945    30.985945    30.985945    29750.497 
 3257000    297.05856   -459.76889   -23190.434   -25056.131    1865.6961    1.1610133    30.985945    30.985945    30.985945    29750.497 
 3258000    303.78911   -980.23148   -23068.957   -24976.925    1907.9678    1.1610133    30.985945    30.985945    30.985945    29750.497 
 3259000    291.94277    73.817532   -23210.908   -25044.474    1833.5661    1.1610133    30.985945    30.985945    30.985945    29750.497 
 3260000    301.70745    274.20741   -23195.177   -25090.071    1894.8938    1.1610133    30.985945    30.985945    30.985945    29750.497 
 3261000    290.54368   -32.869304   -23231.961    -25056.74     1824.779    1.1610133    30.985945    30.985945    30.985945    29750.497 
 3262000    293.09579    275.45833   -23312.654   -25153.462    1840.8077    1.1610133    30.985945    30.985945    30.985945    29750.497 
 3263000     292.2487     121.6509   -23263.667   -25099.155    1835.4875    1.1610133    30.985945    30.985945    30.985945    29750.497 
 3264000    299.09982   -454.84045   -23129.045   -25007.561    1878.5164    1.1610133    30.985945    30.985945    30.985945    29750.497 
 3265000    294.26594   -783.50894   -23250.605   -25098.762    1848.1569    1.1610133    30.985945    30.985945    30.985945    29750.497 
 3266000    296.87436   -815.43719   -23175.871   -25040.411    1864.5392    1.1610133    30.985945    30.985945    30.985945    29750.497 
 3267000    288.17394   -351.20934   -23258.945    -25068.84    1809.8957    1.1610133    30.985945    30.985945    30.985945    29750.497 
 3268000    297.63222    -252.6135   -23125.773   -24995.072     1869.299    1.1610133    30.985945    30.985945    30.985945    29750.497 
 3269000    295.23284   -559.70328   -23232.143   -25086.373    1854.2296    1.1610133    30.985945    30.985945    30.985945    29750.497 
 3270000    298.83398   -1292.1141   -23198.747   -25075.594    1876.8467    1.1610133    30.985945    30.985945    30.985945    29750.497 
 3271000    298.29057   -65.730896   -23201.525   -25074.959    1873.4338    1.1610133    30.985945    30.985945    30.985945    29750.497 
 3272000     301.6383   -474.81718   -23165.071    -25059.53    1894.4595    1.1610133    30.985945    30.985945    30.985945    29750.497 
 3273000    296.02141   -76.269977   -23192.791   -25051.974    1859.1823    1.1610133    30.985945    30.985945    30.985945    29750.497 
 3274000     304.6006   -427.88438    -23150.94   -25064.005    1913.0644    1.1610133    30.985945    30.985945    30.985945    29750.497 
 3275000    296.85797    -199.4135   -23227.863   -25092.299    1864.4363    1.1610133    30.985945    30.985945    30.985945    29750.497 
 3276000    291.30493   -515.53441   -23304.905   -25134.465    1829.5601    1.1610133    30.985945    30.985945    30.985945    29750.497 
 3277000    300.73086   -553.48847   -23209.572   -25098.332    1888.7602    1.1610133    30.985945    30.985945    30.985945    29750.497 
 3278000    299.75624   -383.68425   -23150.277   -25032.916    1882.6391    1.1610133    30.985945    30.985945    30.985945    29750.497 
 3279000    295.79632   -1032.7194   -23186.612    -25044.38    1857.7685    1.1610133    30.985945    30.985945    30.985945    29750.497 
 3280000    303.63666   -900.09615   -23094.683   -25001.693    1907.0103    1.1610133    30.985945    30.985945    30.985945    29750.497 
 3281000    282.79467   -994.71844   -23249.593   -25025.704    1776.1108    1.1610133    30.985945    30.985945    30.985945    29750.497 
 3282000    295.24754    30.404567   -23214.343   -25068.664    1854.3219    1.1610133    30.985945    30.985945    30.985945    29750.497 
 3283000    300.82423   -244.68516   -23186.449   -25075.796    1889.3467    1.1610133    30.985945    30.985945    30.985945    29750.497 
 3284000    301.26004   -812.47307   -23237.834   -25129.918    1892.0838    1.1610133    30.985945    30.985945    30.985945    29750.497 
 3285000    297.58872   -464.84955   -23152.243   -25021.269    1869.0258    1.1610133    30.985945    30.985945    30.985945    29750.497 
 3286000    299.69863   -581.77927    -23096.54   -24978.817    1882.2773    1.1610133    30.985945    30.985945    30.985945    29750.497 
 3287000    299.81016    266.57006   -23262.098   -25145.076    1882.9777    1.1610133    30.985945    30.985945    30.985945    29750.497 
 3288000    289.58646   -339.76583   -23294.672   -25113.439    1818.7671    1.1610133    30.985945    30.985945    30.985945    29750.497 
 3289000    301.16415   -728.54887   -23200.766   -25092.248    1891.4815    1.1610133    30.985945    30.985945    30.985945    29750.497 
 3290000    298.62024   -487.23271    -23267.45   -25142.954    1875.5043    1.1610133    30.985945    30.985945    30.985945    29750.497 
 3291000    304.54766   -598.19351   -23172.578    -25085.31    1912.7319    1.1610133    30.985945    30.985945    30.985945    29750.497 
 3292000    301.46631   -1030.0956   -23179.766   -25073.145    1893.3793    1.1610133    30.985945    30.985945    30.985945    29750.497 
 3293000    293.85975   -201.32643   -23306.825   -25152.431    1845.6058    1.1610133    30.985945    30.985945    30.985945    29750.497 
 3294000    289.37328   -556.48427   -23289.684   -25107.112    1817.4282    1.1610133    30.985945    30.985945    30.985945    29750.497 
 3295000    302.81788    -757.0312   -23177.737   -25079.605    1901.8679    1.1610133    30.985945    30.985945    30.985945    29750.497 
 3296000    303.52339    -161.9889   -23104.436   -25010.735    1906.2989    1.1610133    30.985945    30.985945    30.985945    29750.497 
 3297000    304.95654    167.20965   -23102.983   -25018.283    1915.2999    1.1610133    30.985945    30.985945    30.985945    29750.497 
 3298000    293.68521    371.73322    -23199.16   -25043.669    1844.5096    1.1610133    30.985945    30.985945    30.985945    29750.497 
 3299000    304.72604   -283.53784   -23186.917   -25100.769    1913.8523    1.1610133    30.985945    30.985945    30.985945    29750.497 
 3300000    308.27282    272.14299   -23121.601   -25057.729    1936.1281    1.1610133    30.985945    30.985945    30.985945    29750.497 
 3301000    303.78748   -1536.2949   -23238.935   -25146.893    1907.9575    1.1610133    30.985945    30.985945    30.985945    29750.497 
 3302000    298.81507   -1012.7964   -23217.325   -25094.053     1876.728    1.1610133    30.985945    30.985945    30.985945    29750.497 
 3303000    288.44718   -823.57228   -23191.601   -25003.213    1811.6118    1.1610133    30.985945    30.985945    30.985945    29750.497 
 3304000    294.39319    188.98092   -23184.563   -25033.519    1848.9561    1.1610133    30.985945    30.985945    30.985945    29750.497 
 3305000    294.03999   -412.17108   -23185.715   -25032.453    1846.7378    1.1610133    30.985945    30.985945    30.985945    29750.497 
 3306000     295.0697   -547.43525   -23238.138   -25091.343     1853.205    1.1610133    30.985945    30.985945    30.985945    29750.497 
 3307000    295.53578   -714.13053   -23194.147   -25050.279    1856.1322    1.1610133    30.985945    30.985945    30.985945    29750.497 
 3308000    294.00121   -1123.2022   -23301.237   -25147.731    1846.4942    1.1610133    30.985945    30.985945    30.985945    29750.497 
 3309000    291.18973   -1181.7973   -23210.937   -25039.773    1828.8365    1.1610133    30.985945    30.985945    30.985945    29750.497 
 3310000    306.29027   -198.08289   -23037.137   -24960.813    1923.6765    1.1610133    30.985945    30.985945    30.985945    29750.497 
 3311000    307.17749    -494.8452   -23118.288   -25047.537    1929.2488    1.1610133    30.985945    30.985945    30.985945    29750.497 
 3312000    303.34191    -602.3355   -23173.767   -25078.926    1905.1591    1.1610133    30.985945    30.985945    30.985945    29750.497 
 3313000    304.19634   -890.32508   -23178.828   -25089.353    1910.5254    1.1610133    30.985945    30.985945    30.985945    29750.497 
 3314000    288.63887   -945.65823   -23242.936   -25055.752    1812.8157    1.1610133    30.985945    30.985945    30.985945    29750.497 
 3315000    308.05546   -1063.3296   -23175.661   -25110.424    1934.7629    1.1610133    30.985945    30.985945    30.985945    29750.497 
 3316000    291.75936   -1345.5035   -23260.104   -25092.518    1832.4141    1.1610133    30.985945    30.985945    30.985945    29750.497 
 3317000    285.70353   -257.03948   -23295.757   -25090.137    1794.3801    1.1610133    30.985945    30.985945    30.985945    29750.497 
 3318000    295.57665    274.98627   -23168.714   -25025.103    1856.3889    1.1610133    30.985945    30.985945    30.985945    29750.497 
 3319000    294.58836   -372.76122   -23256.076   -25106.257    1850.1819    1.1610133    30.985945    30.985945    30.985945    29750.497 
 3320000    306.91814   -802.43663   -23209.775   -25137.395    1927.6199    1.1610133    30.985945    30.985945    30.985945    29750.497 
 3321000    304.48632   -250.25187   -23185.925   -25098.271    1912.3466    1.1610133    30.985945    30.985945    30.985945    29750.497 
 3322000    306.72987   -249.67758   -23067.641   -24994.079    1926.4374    1.1610133    30.985945    30.985945    30.985945    29750.497 
 3323000    300.00004   -857.24263   -23148.827   -25032.997    1884.1703    1.1610133    30.985945    30.985945    30.985945    29750.497 
 3324000    297.18286   -431.16761   -23229.103    -25095.58    1866.4768    1.1610133    30.985945    30.985945    30.985945    29750.497 
 3325000    304.45936   -707.46514   -23205.131   -25117.308    1912.1773    1.1610133    30.985945    30.985945    30.985945    29750.497 
 3326000    295.86852   -870.63128   -23179.111   -25037.333     1858.222    1.1610133    30.985945    30.985945    30.985945    29750.497 
 3327000    302.08777   -323.18774   -23093.325   -24990.608    1897.2824    1.1610133    30.985945    30.985945    30.985945    29750.497 
 3328000     305.2833    20.512598    -23059.21   -24976.562    1917.3522    1.1610133    30.985945    30.985945    30.985945    29750.497 
 3329000    303.64477   -1766.7833   -23169.284   -25076.345    1907.0612    1.1610133    30.985945    30.985945    30.985945    29750.497 
 3330000    293.06221    468.94647   -23308.083    -25148.68    1840.5967    1.1610133    30.985945    30.985945    30.985945    29750.497 
 3331000    301.08922   -141.76614   -23165.781   -25056.792     1891.011    1.1610133    30.985945    30.985945    30.985945    29750.497 
 3332000    301.00988   -53.247124   -23154.668   -25045.181    1890.5126    1.1610133    30.985945    30.985945    30.985945    29750.497 
 3333000    298.15727   -772.95202   -23173.953   -25046.549    1872.5967    1.1610133    30.985945    30.985945    30.985945    29750.497 
 3334000    299.10845    -213.8832   -23135.463   -25014.034    1878.5706    1.1610133    30.985945    30.985945    30.985945    29750.497 
 3335000    298.77922    195.98585   -23212.286   -25088.789    1876.5028    1.1610133    30.985945    30.985945    30.985945    29750.497 
 3336000    304.82747   -138.91145   -23105.723   -25020.212    1914.4893    1.1610133    30.985945    30.985945    30.985945    29750.497 
 3337000     306.5366   -1218.5627   -23176.235   -25101.459    1925.2236    1.1610133    30.985945    30.985945    30.985945    29750.497 
 3338000    296.39209   -156.60032   -23321.717   -25183.227    1861.5103    1.1610133    30.985945    30.985945    30.985945    29750.497 
 3339000    300.69128    -58.34279   -23243.974   -25132.486    1888.5117    1.1610133    30.985945    30.985945    30.985945    29750.497 
 3340000    294.15274   -700.20653   -23139.753   -24987.199    1847.4459    1.1610133    30.985945    30.985945    30.985945    29750.497 
 3341000     291.7398   -581.28578   -23348.397   -25180.689    1832.2913    1.1610133    30.985945    30.985945    30.985945    29750.497 
 3342000    295.06023   -631.54512   -23221.998   -25075.143    1853.1455    1.1610133    30.985945    30.985945    30.985945    29750.497 
 3343000    290.35032   -55.212057   -23286.225    -25109.79    1823.5646    1.1610133    30.985945    30.985945    30.985945    29750.497 
 3344000    288.73748   -223.95532   -23281.696   -25095.131     1813.435    1.1610133    30.985945    30.985945    30.985945    29750.497 
 3345000    300.03121   -637.43889   -23203.148   -25087.514    1884.3661    1.1610133    30.985945    30.985945    30.985945    29750.497 
 3346000    301.69842   -740.15421   -23115.676   -25010.513    1894.8371    1.1610133    30.985945    30.985945    30.985945    29750.497 
 3347000    302.32889   -100.60839   -23134.008   -25032.805    1898.7968    1.1610133    30.985945    30.985945    30.985945    29750.497 
 3348000    303.27708   -1579.2592   -23224.591   -25129.343    1904.7519    1.1610133    30.985945    30.985945    30.985945    29750.497 
 3349000    295.41713    454.17075   -23217.815   -25073.202     1855.387    1.1610133    30.985945    30.985945    30.985945    29750.497 
 3350000    297.71371   -18.000656   -23229.554   -25099.365    1869.8108    1.1610133    30.985945    30.985945    30.985945    29750.497 
 3351000    301.86184   -357.71769   -23094.357    -24990.22    1895.8635    1.1610133    30.985945    30.985945    30.985945    29750.497 
 3352000    300.86247   -356.34891   -23177.839   -25067.426    1889.5868    1.1610133    30.985945    30.985945    30.985945    29750.497 
 3353000    288.37806   -846.04926   -23201.861   -25013.039    1811.1777    1.1610133    30.985945    30.985945    30.985945    29750.497 
 3354000    298.58518   -592.91226   -23185.931   -25061.215    1875.2842    1.1610133    30.985945    30.985945    30.985945    29750.497 
 3355000     297.2897   -248.96536   -23185.877   -25053.025    1867.1478    1.1610133    30.985945    30.985945    30.985945    29750.497 
 3356000    291.42579   -289.01115   -23233.275   -25063.594    1830.3191    1.1610133    30.985945    30.985945    30.985945    29750.497 
 3357000    298.59356   -492.22592   -23143.598   -25018.935    1875.3368    1.1610133    30.985945    30.985945    30.985945    29750.497 
 3358000    298.71894   -12.793496   -23255.854   -25131.978    1876.1243    1.1610133    30.985945    30.985945    30.985945    29750.497 
 3359000    299.72498   -293.90261   -23193.908    -25076.35    1882.4427    1.1610133    30.985945    30.985945    30.985945    29750.497 
 3360000    295.39888    5.7210891   -23198.772   -25054.044    1855.2724    1.1610133    30.985945    30.985945    30.985945    29750.497 
 3361000    299.29049    369.88951   -23202.686     -25082.4    1879.7139    1.1610133    30.985945    30.985945    30.985945    29750.497 
 3362000    300.33899   -529.90169   -23124.031    -25010.33    1886.2991    1.1610133    30.985945    30.985945    30.985945    29750.497 
 3363000    294.09916    317.36191   -23209.414   -25056.523    1847.1094    1.1610133    30.985945    30.985945    30.985945    29750.497 
 3364000    295.24081   -899.20563   -23240.358   -25094.638    1854.2797    1.1610133    30.985945    30.985945    30.985945    29750.497 
 3365000    302.32079    423.24182   -23100.463   -24999.209    1898.7459    1.1610133    30.985945    30.985945    30.985945    29750.497 
 3366000    302.33742   -772.53085   -23111.192   -25010.042    1898.8504    1.1610133    30.985945    30.985945    30.985945    29750.497 
 3367000    295.68088   -457.74024    -23168.37   -25025.413    1857.0435    1.1610133    30.985945    30.985945    30.985945    29750.497 
 3368000    303.43206   -835.19101   -23183.958   -25089.684    1905.7253    1.1610133    30.985945    30.985945    30.985945    29750.497 
 3369000    298.18184   -994.04082   -23187.488   -25060.239    1872.7509    1.1610133    30.985945    30.985945    30.985945    29750.497 
 3370000    298.70397   -275.58733   -23111.877   -24987.907    1876.0303    1.1610133    30.985945    30.985945    30.985945    29750.497 
 3371000    288.76957    -357.7855   -23194.093    -25007.73    1813.6366    1.1610133    30.985945    30.985945    30.985945    29750.497 
 3372000    295.37182   -765.89314   -23242.292   -25097.395    1855.1025    1.1610133    30.985945    30.985945    30.985945    29750.497 
 3373000    293.68008   -431.43148    -23225.74   -25070.218    1844.4774    1.1610133    30.985945    30.985945    30.985945    29750.497 
 3374000    285.74401    -690.8134    -23341.14   -25135.774    1794.6343    1.1610133    30.985945    30.985945    30.985945    29750.497 
 3375000    299.88617    293.19622   -23153.339   -25036.794    1883.4551    1.1610133    30.985945    30.985945    30.985945    29750.497 
 3376000    294.31121   -495.01117   -23294.245   -25142.686    1848.4412    1.1610133    30.985945    30.985945    30.985945    29750.497 
 3377000    298.24313    -11.42478   -23087.748   -24960.884    1873.1359    1.1610133    30.985945    30.985945    30.985945    29750.497 
 3378000     295.6627   -1543.0152   -23110.094   -24967.024    1856.9294    1.1610133    30.985945    30.985945    30.985945    29750.497 
 3379000     302.6809   -332.21057   -23120.153   -25021.161    1901.0076    1.1610133    30.985945    30.985945    30.985945    29750.497 
 3380000    307.37349   -1558.2607   -23043.789   -24974.269    1930.4797    1.1610133    30.985945    30.985945    30.985945    29750.497 
 3381000    291.35848   -926.83417   -23194.859   -25024.756    1829.8964    1.1610133    30.985945    30.985945    30.985945    29750.497 
 3382000    297.36695     -186.579   -23077.625   -24945.258     1867.633    1.1610133    30.985945    30.985945    30.985945    29750.497 
 3383000    296.57233   -665.65899   -23165.493   -25028.135    1862.6423    1.1610133    30.985945    30.985945    30.985945    29750.497 
 3384000    305.10257   -858.62182   -23107.904   -25024.121    1916.2171    1.1610133    30.985945    30.985945    30.985945    29750.497 
 3385000    286.10903   -460.21701    -23258.17   -25055.096    1796.9269    1.1610133    30.985945    30.985945    30.985945    29750.497 
 3386000    297.16022   -1075.6863   -23145.908   -25012.242    1866.3346    1.1610133    30.985945    30.985945    30.985945    29750.497 
 3387000    298.39924    492.12383   -23131.214   -25005.331    1874.1163    1.1610133    30.985945    30.985945    30.985945    29750.497 
 3388000    301.68965   -149.60376   -23195.392   -25090.174     1894.782    1.1610133    30.985945    30.985945    30.985945    29750.497 
 3389000    293.00937   -75.808313    -23241.02   -25081.285    1840.2649    1.1610133    30.985945    30.985945    30.985945    29750.497 
 3390000    295.01611   -855.25397   -23229.719   -25082.587    1852.8684    1.1610133    30.985945    30.985945    30.985945    29750.497 
 3391000    302.66685    -467.6516   -23215.541    -25116.46    1900.9193    1.1610133    30.985945    30.985945    30.985945    29750.497 
 3392000    294.96191   -1110.4499   -23245.013   -25097.541     1852.528    1.1610133    30.985945    30.985945    30.985945    29750.497 
 3393000     292.5454   -984.45972   -23203.104   -25040.455    1837.3509    1.1610133    30.985945    30.985945    30.985945    29750.497 
 3394000    284.61441    51.739364   -23251.373   -25038.912    1787.5398    1.1610133    30.985945    30.985945    30.985945    29750.497 
 3395000    288.28842   -695.50571   -23174.431   -24985.046    1810.6147    1.1610133    30.985945    30.985945    30.985945    29750.497 
 3396000    295.89878   -690.78803   -23175.552   -25033.964    1858.4121    1.1610133    30.985945    30.985945    30.985945    29750.497 
 3397000    303.37709     -955.428   -23201.035   -25106.416    1905.3801    1.1610133    30.985945    30.985945    30.985945    29750.497 
 3398000    295.60258    -753.1533    -23152.39   -25008.941    1856.5518    1.1610133    30.985945    30.985945    30.985945    29750.497 
 3399000    304.46621    212.22905   -23209.099   -25121.319    1912.2204    1.1610133    30.985945    30.985945    30.985945    29750.497 
 3400000    291.57894   -210.14905   -23246.251   -25077.532     1831.281    1.1610133    30.985945    30.985945    30.985945    29750.497 
 3401000    297.66969   -382.40837     -23208.2   -25077.734    1869.5343    1.1610133    30.985945    30.985945    30.985945    29750.497 
 3402000    302.49119    -922.7589   -23141.253    -25041.07    1899.8161    1.1610133    30.985945    30.985945    30.985945    29750.497 
 3403000    294.19718   -1008.9082    -23224.37   -25072.095     1847.725    1.1610133    30.985945    30.985945    30.985945    29750.497 
 3404000    286.70117   -176.15204    -23300.73   -25101.376    1800.6458    1.1610133    30.985945    30.985945    30.985945    29750.497 
 3405000     300.0285   -681.16184   -23211.441    -25095.79     1884.349    1.1610133    30.985945    30.985945    30.985945    29750.497 
 3406000    297.11671    -426.2961   -23250.826   -25116.887    1866.0613    1.1610133    30.985945    30.985945    30.985945    29750.497 
 3407000    294.02017    146.66341   -23259.552   -25106.165    1846.6133    1.1610133    30.985945    30.985945    30.985945    29750.497 
 3408000    297.63445    -148.8228   -23157.427    -25026.74     1869.313    1.1610133    30.985945    30.985945    30.985945    29750.497 
 3409000    291.56527   -935.51614    -23251.04   -25082.235    1831.1952    1.1610133    30.985945    30.985945    30.985945    29750.497 
 3410000    308.75151   -791.18827   -23187.974   -25127.108    1939.1345    1.1610133    30.985945    30.985945    30.985945    29750.497 
 3411000     293.6391   -429.56437   -23199.315   -25043.535      1844.22    1.1610133    30.985945    30.985945    30.985945    29750.497 
 3412000    294.32429    62.616831   -23245.088   -25093.611    1848.5234    1.1610133    30.985945    30.985945    30.985945    29750.497 
 3413000    298.01229   -962.16976   -23252.651   -25124.337    1871.6861    1.1610133    30.985945    30.985945    30.985945    29750.497 
 3414000    300.92548   -1037.8981   -23195.852   -25085.835    1889.9826    1.1610133    30.985945    30.985945    30.985945    29750.497 
 3415000    293.15692    -658.2952   -23278.554   -25119.746    1841.1916    1.1610133    30.985945    30.985945    30.985945    29750.497 
 3416000    286.84036    -213.9048     -23251.2    -25052.72      1801.52    1.1610133    30.985945    30.985945    30.985945    29750.497 
 3417000    293.94139    209.49631   -23190.102    -25036.22    1846.1186    1.1610133    30.985945    30.985945    30.985945    29750.497 
 3418000    295.39378   -620.56465   -23170.796   -25026.036    1855.2403    1.1610133    30.985945    30.985945    30.985945    29750.497 
 3419000    296.22507    381.71576   -23156.951   -25017.412    1860.4613    1.1610133    30.985945    30.985945    30.985945    29750.497 
 3420000    293.42241    -529.8831   -23253.123   -25095.982     1842.859    1.1610133    30.985945    30.985945    30.985945    29750.497 
 3421000    303.16369   -519.88686   -23221.108   -25125.147    1904.0398    1.1610133    30.985945    30.985945    30.985945    29750.497 
 3422000    297.56631   -526.67102   -23184.616   -25053.501    1868.8851    1.1610133    30.985945    30.985945    30.985945    29750.497 
 3423000    300.92084   -1441.5465   -23214.774   -25104.727    1889.9534    1.1610133    30.985945    30.985945    30.985945    29750.497 
 3424000    292.16853   -203.91505   -23214.384   -25049.368     1834.984    1.1610133    30.985945    30.985945    30.985945    29750.497 
 3425000    300.12945   -682.70224   -23148.488   -25033.472    1884.9831    1.1610133    30.985945    30.985945    30.985945    29750.497 
 3426000    286.99347   -1464.9225   -23302.342   -25104.824    1802.4817    1.1610133    30.985945    30.985945    30.985945    29750.497 
 3427000    304.80455   -869.13159   -23103.756   -25018.101    1914.3453    1.1610133    30.985945    30.985945    30.985945    29750.497 
 3428000    292.62263    234.37333    -23163.89   -25001.726     1837.836    1.1610133    30.985945    30.985945    30.985945    29750.497 
 3429000    307.18344   -1198.8953   -23133.347   -25062.633    1929.2861    1.1610133    30.985945    30.985945    30.985945    29750.497 
 3430000    292.14576   -495.56209   -23250.394   -25085.235    1834.8409    1.1610133    30.985945    30.985945    30.985945    29750.497 
 3431000    301.89658   -850.33935   -23152.617   -25048.698    1896.0817    1.1610133    30.985945    30.985945    30.985945    29750.497 
 3432000    303.49699    269.15478    -23104.09   -25010.224    1906.1331    1.1610133    30.985945    30.985945    30.985945    29750.497 
 3433000    296.76419   -322.91015   -23125.219   -24989.066    1863.8473    1.1610133    30.985945    30.985945    30.985945    29750.497 
 3434000    296.90573   -1522.2089   -23218.537   -25083.273    1864.7363    1.1610133    30.985945    30.985945    30.985945    29750.497 
 3435000    293.87286   -903.64834    -23224.61   -25070.298    1845.6881    1.1610133    30.985945    30.985945    30.985945    29750.497 
 3436000    300.49069   -865.93488   -23184.204   -25071.456    1887.2519    1.1610133    30.985945    30.985945    30.985945    29750.497 
 3437000    307.59262   -729.87504   -23204.188   -25136.044     1931.856    1.1610133    30.985945    30.985945    30.985945    29750.497 
 3438000    289.78625   -404.22273   -23240.258    -25060.28    1820.0219    1.1610133    30.985945    30.985945    30.985945    29750.497 
 3439000    293.56039   -102.58221   -23212.223   -25055.948    1843.7256    1.1610133    30.985945    30.985945    30.985945    29750.497 
 3440000    299.70742     317.4791   -23138.534   -25020.866    1882.3325    1.1610133    30.985945    30.985945    30.985945    29750.497 
 3441000     300.7938   -994.68608    -23120.24   -25009.395    1889.1555    1.1610133    30.985945    30.985945    30.985945    29750.497 
 3442000    299.47137    155.62464   -23105.198   -24986.048    1880.8499    1.1610133    30.985945    30.985945    30.985945    29750.497 
 3443000    301.38775   -34.822309   -23218.756   -25111.642    1892.8859    1.1610133    30.985945    30.985945    30.985945    29750.497 
 3444000    296.15064   -817.56888   -23269.888   -25129.881    1859.9939    1.1610133    30.985945    30.985945    30.985945    29750.497 
 3445000    301.28014   -526.83209   -23241.459   -25133.669      1892.21    1.1610133    30.985945    30.985945    30.985945    29750.497 
 3446000    303.43397   -579.38195   -23101.439   -25007.176    1905.7373    1.1610133    30.985945    30.985945    30.985945    29750.497 
 3447000    290.21199   -1131.2226   -23266.427   -25089.123    1822.6958    1.1610133    30.985945    30.985945    30.985945    29750.497 
 3448000    302.83045   -853.83932   -23228.585   -25130.532    1901.9469    1.1610133    30.985945    30.985945    30.985945    29750.497 
 3449000    297.19737    -938.3476   -23216.001   -25082.569     1866.568    1.1610133    30.985945    30.985945    30.985945    29750.497 
 3450000    301.81394   -621.04458   -23169.986   -25065.548    1895.5626    1.1610133    30.985945    30.985945    30.985945    29750.497 
 3451000    299.79967   -497.33821   -23100.706   -24983.618    1882.9119    1.1610133    30.985945    30.985945    30.985945    29750.497 
 3452000    290.53453   -606.66121   -23185.991   -25010.713    1824.7215    1.1610133    30.985945    30.985945    30.985945    29750.497 
 3453000    290.75731   -66.196474   -23214.102   -25040.223    1826.1207    1.1610133    30.985945    30.985945    30.985945    29750.497 
 3454000    299.05964    220.51323   -23173.757   -25052.021     1878.264    1.1610133    30.985945    30.985945    30.985945    29750.497 
 3455000     297.9146      31.3536   -23194.983   -25066.056    1871.0726    1.1610133    30.985945    30.985945    30.985945    29750.497 
 3456000    290.35805   -1186.0242   -23299.922   -25123.536    1823.6131    1.1610133    30.985945    30.985945    30.985945    29750.497 
 3457000    290.74512   -1086.0438   -23217.863   -25043.907    1826.0441    1.1610133    30.985945    30.985945    30.985945    29750.497 
 3458000    292.33742    -380.7159   -23146.785   -24982.829    1836.0447    1.1610133    30.985945    30.985945    30.985945    29750.497 
 3459000    306.26749   -1028.7138   -23152.814   -25076.347    1923.5334    1.1610133    30.985945    30.985945    30.985945    29750.497 
 3460000    299.08081    -492.2302   -23222.852   -25101.249     1878.397    1.1610133    30.985945    30.985945    30.985945    29750.497 
 3461000    288.13712   -41.450043   -23260.014   -25069.679    1809.6644    1.1610133    30.985945    30.985945    30.985945    29750.497 
 3462000    292.91516   -1370.9892   -23167.777    -25007.45    1839.6732    1.1610133    30.985945    30.985945    30.985945    29750.497 
 3463000    304.05274   -6.9186793   -23103.913   -25013.536    1909.6235    1.1610133    30.985945    30.985945    30.985945    29750.497 
 3464000    300.68623   -756.61876   -23164.457   -25052.937      1888.48    1.1610133    30.985945    30.985945    30.985945    29750.497 
 3465000    301.33383   -769.72377   -23133.788   -25026.335    1892.5473    1.1610133    30.985945    30.985945    30.985945    29750.497 
 3466000     296.0809    604.50663   -23194.938   -25054.494    1859.5558    1.1610133    30.985945    30.985945    30.985945    29750.497 
 3467000    292.20291   -771.06193   -23193.496   -25028.696    1835.1999    1.1610133    30.985945    30.985945    30.985945    29750.497 
 3468000    303.41438   -967.89423   -23126.102   -25031.716    1905.6143    1.1610133    30.985945    30.985945    30.985945    29750.497 
 3469000    295.20617    88.164355   -23147.326   -25001.388     1854.062    1.1610133    30.985945    30.985945    30.985945    29750.497 
 3470000    296.59443    -645.8298   -23224.755   -25087.536    1862.7811    1.1610133    30.985945    30.985945    30.985945    29750.497 
 3471000    296.48873    -700.2569   -23170.216   -25032.333    1862.1172    1.1610133    30.985945    30.985945    30.985945    29750.497 
 3472000    304.27282   -870.96057   -23151.962   -25062.968    1911.0058    1.1610133    30.985945    30.985945    30.985945    29750.497 
 3473000    308.43666   -1326.9359   -23095.448   -25032.605    1937.1571    1.1610133    30.985945    30.985945    30.985945    29750.497 
 3474000    298.32156   -80.413228   -23159.181   -25032.809    1873.6285    1.1610133    30.985945    30.985945    30.985945    29750.497 
 3475000    289.86879   -512.35554   -23303.166   -25123.706    1820.5403    1.1610133    30.985945    30.985945    30.985945    29750.497 
 3476000    297.28477    499.44955   -23219.707   -25086.824    1867.1168    1.1610133    30.985945    30.985945    30.985945    29750.497 
 3477000    284.99716    359.50933   -23205.752   -24995.696    1789.9437    1.1610133    30.985945    30.985945    30.985945    29750.497 
 3478000    301.90882   -924.32476   -23112.763   -25008.922    1896.1585    1.1610133    30.985945    30.985945    30.985945    29750.497 
 3479000    292.95219   -1282.0398   -23205.791   -25045.697    1839.9058    1.1610133    30.985945    30.985945    30.985945    29750.497 
 3480000    290.78941   -586.60595   -23269.431   -25095.753    1826.3223    1.1610133    30.985945    30.985945    30.985945    29750.497 
 3481000    290.41731   -1076.4377   -23320.828   -25144.813    1823.9853    1.1610133    30.985945    30.985945    30.985945    29750.497 
 3482000    293.89358   -411.34017   -23218.054   -25063.872    1845.8183    1.1610133    30.985945    30.985945    30.985945    29750.497 
 3483000    298.26828   -237.80984   -23135.787    -25009.08    1873.2939    1.1610133    30.985945    30.985945    30.985945    29750.497 
 3484000    295.78746   -394.52547   -23175.354   -25033.067    1857.7129    1.1610133    30.985945    30.985945    30.985945    29750.497 
 3485000    310.35625   -421.51394   -23122.208   -25071.421    1949.2132    1.1610133    30.985945    30.985945    30.985945    29750.497 
 3486000    292.51948   -310.61822   -23201.042    -25038.23    1837.1881    1.1610133    30.985945    30.985945    30.985945    29750.497 
 3487000    303.50494   -1254.1191    -23073.17   -24979.353    1906.1831    1.1610133    30.985945    30.985945    30.985945    29750.497 
 3488000    303.41725   -1368.7719   -23166.108    -25071.74    1905.6323    1.1610133    30.985945    30.985945    30.985945    29750.497 
 3489000    294.55292    284.07048    -23158.45    -25008.41    1849.9593    1.1610133    30.985945    30.985945    30.985945    29750.497 
 3490000    292.93718   -962.72579   -23185.098   -25024.909    1839.8115    1.1610133    30.985945    30.985945    30.985945    29750.497 
 3491000    300.04762   -676.83291   -23089.854   -24974.323    1884.4691    1.1610133    30.985945    30.985945    30.985945    29750.497 
 3492000    305.03083   -273.81912   -23162.394   -25078.161    1915.7665    1.1610133    30.985945    30.985945    30.985945    29750.497 
 3493000    308.63858   -1227.3594   -23164.807   -25103.232    1938.4252    1.1610133    30.985945    30.985945    30.985945    29750.497 
 3494000    303.09496   -389.81498   -23077.087   -24980.695    1903.6081    1.1610133    30.985945    30.985945    30.985945    29750.497 
 3495000    300.12936     660.5189     -23115.7   -25000.683    1884.9825    1.1610133    30.985945    30.985945    30.985945    29750.497 
 3496000    305.86239   -525.71336   -23142.455   -25063.444    1920.9892    1.1610133    30.985945    30.985945    30.985945    29750.497 
 3497000    299.66935   -492.93614   -23158.592   -25040.685    1882.0933    1.1610133    30.985945    30.985945    30.985945    29750.497 
 3498000    300.69921   -907.47581   -23255.504   -25144.066    1888.5615    1.1610133    30.985945    30.985945    30.985945    29750.497 
 3499000    307.41091    -644.7229   -23101.784   -25032.499    1930.7147    1.1610133    30.985945    30.985945    30.985945    29750.497 
 3500000    294.72126   -2099.5814   -23174.951   -25025.968    1851.0166    1.1610133    30.985945    30.985945    30.985945    29750.497 
 3501000    300.06247   -343.55592   -23125.008    -25009.57    1884.5624    1.1610133    30.985945    30.985945    30.985945    29750.497 
 3502000    298.45816    116.60038     -23212.5   -25086.987    1874.4864    1.1610133    30.985945    30.985945    30.985945    29750.497 
 3503000    299.79786     453.1754   -23233.154   -25116.054    1882.9005    1.1610133    30.985945    30.985945    30.985945    29750.497 
 3504000    296.66028   -98.335417   -23188.668   -25051.863    1863.1947    1.1610133    30.985945    30.985945    30.985945    29750.497 
 3505000    292.60069   -269.13624   -23254.251    -25091.95    1837.6982    1.1610133    30.985945    30.985945    30.985945    29750.497 
 3506000    302.89917   -1976.8043   -23153.264   -25055.643    1902.3785    1.1610133    30.985945    30.985945    30.985945    29750.497 
 3507000    292.30785    338.11288   -23221.212   -25057.071     1835.859    1.1610133    30.985945    30.985945    30.985945    29750.497 
 3508000    302.84107   -801.13422   -23081.191   -24983.205    1902.0136    1.1610133    30.985945    30.985945    30.985945    29750.497 
 3509000    297.34248   -1514.8576   -23217.768   -25085.247    1867.4793    1.1610133    30.985945    30.985945    30.985945    29750.497 
 3510000    300.24176   -1418.9022   -23201.286   -25086.975    1885.6884    1.1610133    30.985945    30.985945    30.985945    29750.497 
 3511000    311.72575   -707.02281   -23103.068   -25060.883    1957.8144    1.1610133    30.985945    30.985945    30.985945    29750.497 
 3512000     297.0068   -321.64625   -23222.664   -25088.035     1865.371    1.1610133    30.985945    30.985945    30.985945    29750.497 
 3513000    303.78476    220.66823   -23069.575   -24977.516    1907.9405    1.1610133    30.985945    30.985945    30.985945    29750.497 
 3514000    294.09059   -1453.7454   -23260.057   -25107.112    1847.0556    1.1610133    30.985945    30.985945    30.985945    29750.497 
 3515000    294.85428   -1509.3732   -23328.533   -25180.385     1851.852    1.1610133    30.985945    30.985945    30.985945    29750.497 
 3516000    300.56619   -821.67829   -23064.136   -24951.862     1887.726    1.1610133    30.985945    30.985945    30.985945    29750.497 
 3517000    299.90948   -1056.8968   -23211.726   -25095.327    1883.6015    1.1610133    30.985945    30.985945    30.985945    29750.497 
 3518000    294.80011   -777.75858   -23190.386   -25041.898    1851.5118    1.1610133    30.985945    30.985945    30.985945    29750.497 
 3519000    295.80954   -606.67959   -23200.784   -25058.635    1857.8516    1.1610133    30.985945    30.985945    30.985945    29750.497 
 3520000    291.54736   -104.19611   -23192.599   -25023.681    1831.0827    1.1610133    30.985945    30.985945    30.985945    29750.497 
 3521000    298.94946     138.1183   -23203.579   -25081.151    1877.5721    1.1610133    30.985945    30.985945    30.985945    29750.497 
 3522000    292.70076    6.8887592   -23161.548   -24999.875    1838.3267    1.1610133    30.985945    30.985945    30.985945    29750.497 
 3523000    302.03075   -278.01945   -23083.886   -24980.811    1896.9243    1.1610133    30.985945    30.985945    30.985945    29750.497 
 3524000    299.74913   -101.46728   -23121.463   -25004.058    1882.5944    1.1610133    30.985945    30.985945    30.985945    29750.497 
 3525000     294.7694   -319.51869   -23149.906   -25001.225    1851.3189    1.1610133    30.985945    30.985945    30.985945    29750.497 
 3526000    286.66272    239.01919    -23284.25   -25084.654    1800.4044    1.1610133    30.985945    30.985945    30.985945    29750.497 
 3527000      297.846    -678.9607   -23175.724   -25046.365    1870.6417    1.1610133    30.985945    30.985945    30.985945    29750.497 
 3528000    290.86206   -598.65369   -23264.995   -25091.774    1826.7786    1.1610133    30.985945    30.985945    30.985945    29750.497 
 3529000    292.67791   -515.19813   -23209.801   -25047.985    1838.1832    1.1610133    30.985945    30.985945    30.985945    29750.497 
 3530000     305.8183   -736.86097    -23108.93   -25029.642    1920.7123    1.1610133    30.985945    30.985945    30.985945    29750.497 
 3531000    296.36451   -1009.0496   -23169.369   -25030.706    1861.3371    1.1610133    30.985945    30.985945    30.985945    29750.497 
 3532000    305.38999   -630.43433   -23125.104   -25043.126    1918.0222    1.1610133    30.985945    30.985945    30.985945    29750.497 
 3533000    306.60182   -908.87294   -23118.847    -25044.48    1925.6332    1.1610133    30.985945    30.985945    30.985945    29750.497 
 3534000     307.8107   -1036.2879   -23168.985    -25102.21    1933.2257    1.1610133    30.985945    30.985945    30.985945    29750.497 
 3535000    290.23295   -327.94093   -23267.631   -25090.458    1822.8274    1.1610133    30.985945    30.985945    30.985945    29750.497 
 3536000    301.61537     123.6338   -23180.964   -25075.279    1894.3155    1.1610133    30.985945    30.985945    30.985945    29750.497 
 3537000    298.42564   -67.626621   -23193.793   -25068.075    1874.2821    1.1610133    30.985945    30.985945    30.985945    29750.497 
 3538000    299.74897   -696.81875   -23234.269   -25116.862    1882.5934    1.1610133    30.985945    30.985945    30.985945    29750.497 
 3539000    292.25163   -553.27401   -23263.655   -25099.161    1835.5059    1.1610133    30.985945    30.985945    30.985945    29750.497 
 3540000     300.7411   -155.04295   -23206.652   -25095.477    1888.8245    1.1610133    30.985945    30.985945    30.985945    29750.497 
 3541000    298.40781   -701.62592   -23265.574   -25139.745    1874.1702    1.1610133    30.985945    30.985945    30.985945    29750.497 
 3542000    298.37097   -1213.4649   -23179.692    -25053.63    1873.9388    1.1610133    30.985945    30.985945    30.985945    29750.497 
 3543000    296.94056   -1650.9986    -23213.34   -25078.295     1864.955    1.1610133    30.985945    30.985945    30.985945    29750.497 
 3544000    296.29316    152.78245   -23181.624   -25042.513     1860.889    1.1610133    30.985945    30.985945    30.985945    29750.497 
 3545000    294.54914   -268.35857   -23256.985    -25106.92    1849.9355    1.1610133    30.985945    30.985945    30.985945    29750.497 
 3546000    283.17476   -424.91479   -23273.879   -25052.377     1778.498    1.1610133    30.985945    30.985945    30.985945    29750.497 
 3547000    304.55884   -1105.2509   -23163.111   -25075.913    1912.8021    1.1610133    30.985945    30.985945    30.985945    29750.497 
 3548000    298.54105   -480.06666   -23130.496   -25005.503     1875.007    1.1610133    30.985945    30.985945    30.985945    29750.497 
 3549000    299.34412   -883.93358   -23175.586   -25055.637    1880.0507    1.1610133    30.985945    30.985945    30.985945    29750.497 
 3550000    294.51964    407.26191   -23201.701   -25051.451    1849.7502    1.1610133    30.985945    30.985945    30.985945    29750.497 
 3551000    293.85377   -890.90008   -23199.134   -25044.703    1845.5682    1.1610133    30.985945    30.985945    30.985945    29750.497 
 3552000    303.40991   -1069.0749   -23241.809   -25147.395    1905.5862    1.1610133    30.985945    30.985945    30.985945    29750.497 
 3553000    288.52137   -507.86632   -23242.926   -25055.004    1812.0777    1.1610133    30.985945    30.985945    30.985945    29750.497 
 3554000    297.52286    97.876232   -23233.286   -25101.899    1868.6122    1.1610133    30.985945    30.985945    30.985945    29750.497 
 3555000    299.32625   -483.08733   -23170.514   -25050.453    1879.9385    1.1610133    30.985945    30.985945    30.985945    29750.497 
 3556000    292.92887   -201.52326   -23291.381    -25131.14    1839.7593    1.1610133    30.985945    30.985945    30.985945    29750.497 
 3557000       299.95   -376.11341   -23177.961   -25061.817     1883.856    1.1610133    30.985945    30.985945    30.985945    29750.497 
 3558000    298.17505   -154.74895    -23229.73   -25102.438    1872.7083    1.1610133    30.985945    30.985945    30.985945    29750.497 
 3559000    295.88399   -623.37274   -23223.941    -25082.26    1858.3192    1.1610133    30.985945    30.985945    30.985945    29750.497 
 3560000    302.38515    427.47879   -23224.744   -25123.894    1899.1501    1.1610133    30.985945    30.985945    30.985945    29750.497 
 3561000    295.40999   -680.47067   -23219.202   -25074.544    1855.3422    1.1610133    30.985945    30.985945    30.985945    29750.497 
 3562000     305.4998    -1409.129    -23137.94   -25056.652    1918.7119    1.1610133    30.985945    30.985945    30.985945    29750.497 
 3563000    300.61683   -890.59486   -23118.814   -25006.858    1888.0441    1.1610133    30.985945    30.985945    30.985945    29750.497 
 3564000    297.28641   -1087.0625   -23165.823    -25032.95    1867.1271    1.1610133    30.985945    30.985945    30.985945    29750.497 
 3565000    291.46863   -537.63584   -23226.514   -25057.102    1830.5882    1.1610133    30.985945    30.985945    30.985945    29750.497 
 3566000    307.25616   -129.23648   -23061.878   -24991.621    1929.7428    1.1610133    30.985945    30.985945    30.985945    29750.497 
 3567000    301.00094   -1093.2447   -23208.012   -25098.468    1890.4565    1.1610133    30.985945    30.985945    30.985945    29750.497 
 3568000    297.29805    316.23865   -23211.017   -25078.218    1867.2003    1.1610133    30.985945    30.985945    30.985945    29750.497 
 3569000    300.13379   -363.45427   -23170.747   -25055.758    1885.0103    1.1610133    30.985945    30.985945    30.985945    29750.497 
 3570000    297.06533   -1005.5838   -23265.539   -25131.278    1865.7386    1.1610133    30.985945    30.985945    30.985945    29750.497 
 3571000     302.1474   -878.48672   -23156.782   -25054.439    1897.6569    1.1610133    30.985945    30.985945    30.985945    29750.497 
 3572000    298.01852   -243.92675   -23280.147   -25151.872    1871.7252    1.1610133    30.985945    30.985945    30.985945    29750.497 
 3573000    298.72521   -316.93114   -23219.007   -25095.171    1876.1636    1.1610133    30.985945    30.985945    30.985945    29750.497 
 3574000      295.208   -106.46301   -23351.688   -25205.761    1854.0735    1.1610133    30.985945    30.985945    30.985945    29750.497 
 3575000    302.38998   -445.47355   -23216.539   -25115.719    1899.1804    1.1610133    30.985945    30.985945    30.985945    29750.497 
 3576000    295.60494   -626.74512   -23231.416   -25087.982    1856.5666    1.1610133    30.985945    30.985945    30.985945    29750.497 
 3577000     296.5938   -758.48398   -23291.243   -25154.021    1862.7771    1.1610133    30.985945    30.985945    30.985945    29750.497 
 3578000    301.69391    -100.7599   -23278.296   -25173.105    1894.8087    1.1610133    30.985945    30.985945    30.985945    29750.497 
 3579000    289.11444   -251.18395   -23254.557    -25070.36    1815.8026    1.1610133    30.985945    30.985945    30.985945    29750.497 
 3580000    289.83826   -796.91039   -23302.053   -25122.402    1820.3486    1.1610133    30.985945    30.985945    30.985945    29750.497 
 3581000    298.25144    -383.4395    -23220.83   -25094.018    1873.1881    1.1610133    30.985945    30.985945    30.985945    29750.497 
 3582000    298.54561    406.69612   -23157.606   -25032.642    1875.0356    1.1610133    30.985945    30.985945    30.985945    29750.497 
 3583000    302.17176    173.77364   -23102.591   -25000.401    1897.8099    1.1610133    30.985945    30.985945    30.985945    29750.497 
 3584000     303.6425   -245.31253   -23191.636   -25098.683     1907.047    1.1610133    30.985945    30.985945    30.985945    29750.497 
 3585000    299.58411    104.04299   -23195.719   -25077.278     1881.558    1.1610133    30.985945    30.985945    30.985945    29750.497 
 3586000    301.72309   -498.69932   -23210.817   -25105.809     1894.992    1.1610133    30.985945    30.985945    30.985945    29750.497 
 3587000    292.20817   -1465.0953   -23239.998    -25075.23    1835.2329    1.1610133    30.985945    30.985945    30.985945    29750.497 
 3588000    305.24729   -575.84121   -23143.314    -25060.44     1917.126    1.1610133    30.985945    30.985945    30.985945    29750.497 
 3589000    295.13289   -135.55241   -23232.047   -25085.649    1853.6018    1.1610133    30.985945    30.985945    30.985945    29750.497 
 3590000    297.68454    -1513.693   -23212.625   -25082.253    1869.6277    1.1610133    30.985945    30.985945    30.985945    29750.497 
 3591000    307.34078   -786.13371   -23168.001   -25098.275    1930.2743    1.1610133    30.985945    30.985945    30.985945    29750.497 
 3592000      296.945   -1020.7025   -23224.313   -25089.296    1864.9829    1.1610133    30.985945    30.985945    30.985945    29750.497 
 3593000    302.50613   -226.81069   -23151.578   -25051.488    1899.9099    1.1610133    30.985945    30.985945    30.985945    29750.497 
 3594000    294.08319   -304.89296   -23226.882   -25073.891    1847.0091    1.1610133    30.985945    30.985945    30.985945    29750.497 
 3595000    301.29836   -817.31005   -23168.436   -25060.761    1892.3244    1.1610133    30.985945    30.985945    30.985945    29750.497 
 3596000    290.78397   -1904.2032   -23184.585   -25010.873    1826.2881    1.1610133    30.985945    30.985945    30.985945    29750.497 
 3597000    296.66696   -622.86516   -23188.368   -25051.605    1863.2366    1.1610133    30.985945    30.985945    30.985945    29750.497 
 3598000    298.23079   -206.06995   -23229.758   -25102.816    1873.0584    1.1610133    30.985945    30.985945    30.985945    29750.497 
 3599000    288.07966     68.69833   -23251.233   -25060.537    1809.3035    1.1610133    30.985945    30.985945    30.985945    29750.497 
 3600000    291.91685   -113.50924   -23180.909   -25014.312    1833.4032    1.1610133    30.985945    30.985945    30.985945    29750.497 
 3601000     301.0059    208.76511   -23201.315   -25091.802    1890.4876    1.1610133    30.985945    30.985945    30.985945    29750.497 
 3602000    298.41894   -730.24955   -23295.422   -25169.662    1874.2401    1.1610133    30.985945    30.985945    30.985945    29750.497 
 3603000    291.38491   -731.60436   -23233.753   -25063.816    1830.0624    1.1610133    30.985945    30.985945    30.985945    29750.497 
 3604000    294.51115    -761.4955   -23152.255   -25001.952    1849.6969    1.1610133    30.985945    30.985945    30.985945    29750.497 
 3605000    298.03103   -285.87108   -23153.829   -25025.633    1871.8038    1.1610133    30.985945    30.985945    30.985945    29750.497 
 3606000    289.85268   -697.98302   -23286.457   -25106.896    1820.4391    1.1610133    30.985945    30.985945    30.985945    29750.497 
 3607000    303.20512   -729.69621   -23187.843   -25092.143       1904.3    1.1610133    30.985945    30.985945    30.985945    29750.497 
 3608000    306.31055     267.1366    -23144.63   -25068.434    1923.8038    1.1610133    30.985945    30.985945    30.985945    29750.497 
 3609000    297.78943    -853.2874   -23177.683    -25047.97    1870.2864    1.1610133    30.985945    30.985945    30.985945    29750.497 
 3610000    295.70813   -757.60012   -23195.965    -25053.18    1857.2146    1.1610133    30.985945    30.985945    30.985945    29750.497 
 3611000     300.5709   -113.09058   -23187.569   -25075.324    1887.7556    1.1610133    30.985945    30.985945    30.985945    29750.497 
 3612000    294.20291   -821.07358   -23232.252   -25080.013     1847.761    1.1610133    30.985945    30.985945    30.985945    29750.497 
 3613000      303.601   -1402.5816   -23187.453   -25094.239    1906.7864    1.1610133    30.985945    30.985945    30.985945    29750.497 
 3614000    298.72792   -581.52333   -23206.342   -25082.523    1876.1806    1.1610133    30.985945    30.985945    30.985945    29750.497 
 3615000    295.93334   -514.36639   -23215.081    -25073.71    1858.6291    1.1610133    30.985945    30.985945    30.985945    29750.497 
 3616000    304.83252   -720.23359   -23271.515   -25186.036     1914.521    1.1610133    30.985945    30.985945    30.985945    29750.497 
 3617000       299.34   -1165.8513   -23241.199   -25121.224    1880.0248    1.1610133    30.985945    30.985945    30.985945    29750.497 
 3618000    295.55152   -214.56858   -23266.508   -25122.739    1856.2311    1.1610133    30.985945    30.985945    30.985945    29750.497 
 3619000    291.95288   -524.19996   -23207.859   -25041.488    1833.6296    1.1610133    30.985945    30.985945    30.985945    29750.497 
 3620000    302.05804   -788.96009   -23225.526   -25122.622    1897.0957    1.1610133    30.985945    30.985945    30.985945    29750.497 
 3621000    301.92806    -1066.699   -23151.731    -25048.01    1896.2793    1.1610133    30.985945    30.985945    30.985945    29750.497 
 3622000    291.58226   -1161.5616   -23226.619   -25057.921    1831.3019    1.1610133    30.985945    30.985945    30.985945    29750.497 
 3623000    295.81714   -420.06951   -23266.995   -25124.894    1857.8993    1.1610133    30.985945    30.985945    30.985945    29750.497 
 3624000    304.55754   -710.77408   -23188.956    -25101.75     1912.794    1.1610133    30.985945    30.985945    30.985945    29750.497 
 3625000    300.65005    -511.2658   -23327.363   -25215.616    1888.2527    1.1610133    30.985945    30.985945    30.985945    29750.497 
 3626000    298.09511   -1594.0575   -23118.115   -24990.321    1872.2062    1.1610133    30.985945    30.985945    30.985945    29750.497 
 3627000    300.68062   -853.36391   -23189.897   -25078.341    1888.4447    1.1610133    30.985945    30.985945    30.985945    29750.497 
 3628000    298.41862   -1164.3965   -23210.639   -25084.877    1874.2381    1.1610133    30.985945    30.985945    30.985945    29750.497 
 3629000    297.56829   -1100.5757   -23154.324   -25023.222    1868.8975    1.1610133    30.985945    30.985945    30.985945    29750.497 
 3630000    301.96015   -1855.2982   -23201.459    -25097.94    1896.4809    1.1610133    30.985945    30.985945    30.985945    29750.497 
 3631000    299.82347   -290.36938   -23174.322   -25057.384    1883.0613    1.1610133    30.985945    30.985945    30.985945    29750.497 
 3632000    304.96353    178.50715   -23171.328   -25086.672    1915.3438    1.1610133    30.985945    30.985945    30.985945    29750.497 
 3633000     312.2136   -801.44567   -23146.068   -25106.946    1960.8784    1.1610133    30.985945    30.985945    30.985945    29750.497 
 3634000    295.98791   -514.89302   -23241.302   -25100.273    1858.9719    1.1610133    30.985945    30.985945    30.985945    29750.497 
 3635000    305.79355   -730.79905   -23170.761   -25091.318    1920.5568    1.1610133    30.985945    30.985945    30.985945    29750.497 
 3636000    300.20276   -193.15193   -23175.107   -25060.551    1885.4435    1.1610133    30.985945    30.985945    30.985945    29750.497 
 3637000    296.22111   -1581.1557   -23217.186   -25077.623    1860.4365    1.1610133    30.985945    30.985945    30.985945    29750.497 
 3638000    297.45186   -1190.0483   -23233.358   -25101.524    1868.1663    1.1610133    30.985945    30.985945    30.985945    29750.497 
 3639000    303.02912   -228.83069   -23135.357   -25038.552    1903.1946    1.1610133    30.985945    30.985945    30.985945    29750.497 
 3640000    301.77865    731.15226   -23223.503   -25118.844     1895.341    1.1610133    30.985945    30.985945    30.985945    29750.497 
 3641000     294.6319   -1111.2043   -23280.752   -25131.208    1850.4553    1.1610133    30.985945    30.985945    30.985945    29750.497 
 3642000    307.98117   -411.46372    -23172.36   -25106.656    1934.2963    1.1610133    30.985945    30.985945    30.985945    29750.497 
 3643000    305.01506   -340.49147   -23127.358   -25043.025    1915.6675    1.1610133    30.985945    30.985945    30.985945    29750.497 
 3644000    294.75354   -518.02685   -23171.141    -25022.36    1851.2193    1.1610133    30.985945    30.985945    30.985945    29750.497 
 3645000    298.16856    38.863901   -23232.249   -25104.916    1872.6676    1.1610133    30.985945    30.985945    30.985945    29750.497 
 3646000    303.66062   -886.37033    -23192.56   -25099.721    1907.1608    1.1610133    30.985945    30.985945    30.985945    29750.497 
 3647000    293.97332   -481.78338   -23255.404   -25101.723    1846.3191    1.1610133    30.985945    30.985945    30.985945    29750.497 
 3648000    289.70105   -413.88609   -23275.651   -25095.137    1819.4868    1.1610133    30.985945    30.985945    30.985945    29750.497 
 3649000    290.81876    329.95993   -23272.235   -25098.742    1826.5066    1.1610133    30.985945    30.985945    30.985945    29750.497 
 3650000    304.81105   -599.64237    -23151.03   -25065.417    1914.3862    1.1610133    30.985945    30.985945    30.985945    29750.497 
 3651000    299.42805   -1174.2067   -23183.394   -25063.972    1880.5778    1.1610133    30.985945    30.985945    30.985945    29750.497 
 3652000    293.70662   -1089.1755   -23199.243   -25043.888    1844.6441    1.1610133    30.985945    30.985945    30.985945    29750.497 
 3653000     305.4816   -162.58751   -23103.641   -25022.239    1918.5976    1.1610133    30.985945    30.985945    30.985945    29750.497 
 3654000    293.82779     22.85191   -23197.864   -25043.269    1845.4051    1.1610133    30.985945    30.985945    30.985945    29750.497 
 3655000     299.1214   -289.48488   -23156.268    -25034.92    1878.6519    1.1610133    30.985945    30.985945    30.985945    29750.497 
 3656000    290.91057    550.50715   -23245.599   -25072.683    1827.0832    1.1610133    30.985945    30.985945    30.985945    29750.497 
 3657000    302.43098    322.53903   -23138.407   -25037.845     1899.438    1.1610133    30.985945    30.985945    30.985945    29750.497 
 3658000    295.47894   -755.18242   -23127.798   -24983.573    1855.7752    1.1610133    30.985945    30.985945    30.985945    29750.497 
 3659000    305.10082   -1336.8664   -23145.475   -25061.681    1916.2061    1.1610133    30.985945    30.985945    30.985945    29750.497 
 3660000    299.95825    134.61568   -23178.876   -25062.784    1883.9078    1.1610133    30.985945    30.985945    30.985945    29750.497 
 3661000    297.38154   -395.97992    -23180.32   -25048.045    1867.7246    1.1610133    30.985945    30.985945    30.985945    29750.497 
 3662000    298.74986   -832.75546   -23351.862    -25228.18    1876.3184    1.1610133    30.985945    30.985945    30.985945    29750.497 
 3663000    301.91923    419.73986   -23211.016    -25107.24    1896.2239    1.1610133    30.985945    30.985945    30.985945    29750.497 
 3664000     299.5638    400.18014   -23224.423   -25105.853    1881.4305    1.1610133    30.985945    30.985945    30.985945    29750.497 
 3665000    301.93677   -603.39295       -23237   -25133.334     1896.334    1.1610133    30.985945    30.985945    30.985945    29750.497 
 3666000    305.13406   -120.25404   -23144.164   -25060.579    1916.4148    1.1610133    30.985945    30.985945    30.985945    29750.497 
 3667000    296.63418   -1187.7012   -23240.162   -25103.193    1863.0308    1.1610133    30.985945    30.985945    30.985945    29750.497 
 3668000    296.44438   -907.56663   -23269.593   -25131.432    1861.8387    1.1610133    30.985945    30.985945    30.985945    29750.497 
 3669000    291.60732   -1189.7388   -23278.168   -25109.627    1831.4593    1.1610133    30.985945    30.985945    30.985945    29750.497 
 3670000     294.5349   -1151.4705   -23160.232   -25010.079    1849.8461    1.1610133    30.985945    30.985945    30.985945    29750.497 
 3671000     297.0551   -170.08403   -23185.708   -25051.383    1865.6744    1.1610133    30.985945    30.985945    30.985945    29750.497 
 3672000    298.67814   -221.20221    -23217.85   -25093.718     1875.868    1.1610133    30.985945    30.985945    30.985945    29750.497 
 3673000    293.75172   -421.46124   -23247.828   -25092.755    1844.9273    1.1610133    30.985945    30.985945    30.985945    29750.497 
 3674000    301.42637   -1218.3853   -23107.171   -25000.299    1893.1284    1.1610133    30.985945    30.985945    30.985945    29750.497 
 3675000    300.76949   -396.42658   -23214.855   -25103.858    1889.0029    1.1610133    30.985945    30.985945    30.985945    29750.497 
 3676000    299.00257   -573.06426    -23256.96   -25134.866    1877.9056    1.1610133    30.985945    30.985945    30.985945    29750.497 
 3677000    303.18303    513.24205   -23241.346   -25145.508    1904.1613    1.1610133    30.985945    30.985945    30.985945    29750.497 
 3678000    303.59646   -193.14019   -23151.495   -25058.252    1906.7578    1.1610133    30.985945    30.985945    30.985945    29750.497 
 3679000    295.88629   -203.53727   -23260.529   -25118.863    1858.3336    1.1610133    30.985945    30.985945    30.985945    29750.497 
 3680000    287.29188     1136.112   -23310.818   -25115.174    1804.3558    1.1610133    30.985945    30.985945    30.985945    29750.497 
 3681000    292.94439   -927.39834   -23307.486   -25147.342    1839.8568    1.1610133    30.985945    30.985945    30.985945    29750.497 
 3682000     293.6976   -711.33256   -23291.457   -25136.045    1844.5874    1.1610133    30.985945    30.985945    30.985945    29750.497 
 3683000    298.23175    130.80647   -23259.357   -25132.421    1873.0644    1.1610133    30.985945    30.985945    30.985945    29750.497 
 3684000    296.33097   -765.61115   -23232.435   -25093.562    1861.1265    1.1610133    30.985945    30.985945    30.985945    29750.497 
 3685000    297.72928   -792.60171   -23268.395   -25138.304    1869.9086    1.1610133    30.985945    30.985945    30.985945    29750.497 
 3686000    295.09522    -760.0061   -23170.304   -25023.669    1853.3653    1.1610133    30.985945    30.985945    30.985945    29750.497 
 3687000    293.86423   -342.24261   -23216.415   -25062.049    1845.6339    1.1610133    30.985945    30.985945    30.985945    29750.497 
 3688000    294.25785    -402.5969   -23241.554    -25089.66     1848.106    1.1610133    30.985945    30.985945    30.985945    29750.497 
 3689000    298.65797    -94.19603   -23206.664   -25082.405    1875.7413    1.1610133    30.985945    30.985945    30.985945    29750.497 
 3690000    293.88649   -31.485698    -23272.53   -25118.304    1845.7738    1.1610133    30.985945    30.985945    30.985945    29750.497 
 3691000    297.98044   -455.64121   -23199.328   -25070.814    1871.4861    1.1610133    30.985945    30.985945    30.985945    29750.497 
 3692000    298.31812    83.817994   -23219.323    -25092.93    1873.6069    1.1610133    30.985945    30.985945    30.985945    29750.497 
 3693000    306.15992    -1489.134   -23118.635   -25041.493    1922.8578    1.1610133    30.985945    30.985945    30.985945    29750.497 
 3694000    303.25494    -130.3477   -23152.612   -25057.224    1904.6129    1.1610133    30.985945    30.985945    30.985945    29750.497 
 3695000    301.35061   -637.81893   -23123.554   -25016.206    1892.6526    1.1610133    30.985945    30.985945    30.985945    29750.497 
 3696000    299.60223   -1207.1451   -23072.212   -24953.883    1881.6718    1.1610133    30.985945    30.985945    30.985945    29750.497 
 3697000    294.32976   -316.20186   -23212.677   -25061.235    1848.5577    1.1610133    30.985945    30.985945    30.985945    29750.497 
 3698000    301.14029   -848.33642   -23184.823   -25076.155    1891.3317    1.1610133    30.985945    30.985945    30.985945    29750.497 
 3699000    305.58005   -253.33467   -23182.068   -25101.284    1919.2159    1.1610133    30.985945    30.985945    30.985945    29750.497 
 3700000    299.91453   -306.78564   -23132.443   -25016.076    1883.6332    1.1610133    30.985945    30.985945    30.985945    29750.497 
 3701000    299.20625    424.91217   -23209.566   -25088.751    1879.1848    1.1610133    30.985945    30.985945    30.985945    29750.497 
 3702000    305.99127   -1398.9048   -23149.588   -25071.387    1921.7986    1.1610133    30.985945    30.985945    30.985945    29750.497 
 3703000    301.70764    -1353.086   -23207.706   -25102.601     1894.895    1.1610133    30.985945    30.985945    30.985945    29750.497 
 3704000    301.17515   -1026.2546   -23165.193   -25056.744    1891.5507    1.1610133    30.985945    30.985945    30.985945    29750.497 
 3705000    294.79321    456.00381   -23186.053   -25037.521    1851.4684    1.1610133    30.985945    30.985945    30.985945    29750.497 
 3706000    297.03168     118.7996   -23278.704   -25144.232    1865.5273    1.1610133    30.985945    30.985945    30.985945    29750.497 
 3707000    300.68584    -459.4531   -23252.015   -25140.493    1888.4775    1.1610133    30.985945    30.985945    30.985945    29750.497 
 3708000     303.8359   -289.96326   -23167.332   -25075.594    1908.2616    1.1610133    30.985945    30.985945    30.985945    29750.497 
 3709000    294.68136   -708.03921   -23253.663   -25104.429     1850.766    1.1610133    30.985945    30.985945    30.985945    29750.497 
 3710000    290.60219    15.746126    -23349.43   -25174.576    1825.1464    1.1610133    30.985945    30.985945    30.985945    29750.497 
 3711000    296.18988    270.53468   -23247.839   -25108.079    1860.2403    1.1610133    30.985945    30.985945    30.985945    29750.497 
 3712000    296.00671   -1207.9294   -23230.922   -25090.012    1859.0899    1.1610133    30.985945    30.985945    30.985945    29750.497 
 3713000    306.46156    9.2200121    -23154.84   -25079.592    1924.7523    1.1610133    30.985945    30.985945    30.985945    29750.497 
 3714000    298.23218   -335.26084   -23150.162   -25023.229    1873.0671    1.1610133    30.985945    30.985945    30.985945    29750.497 
 3715000    291.92326    -942.4282   -23290.784   -25124.228    1833.4435    1.1610133    30.985945    30.985945    30.985945    29750.497 
 3716000    300.87904   -710.30211   -23257.826   -25147.517    1889.6909    1.1610133    30.985945    30.985945    30.985945    29750.497 
 3717000    302.67906   -24.844357   -23071.527   -24972.523    1900.9961    1.1610133    30.985945    30.985945    30.985945    29750.497 
 3718000    289.29187    249.76301   -23205.031   -25021.948    1816.9169    1.1610133    30.985945    30.985945    30.985945    29750.497 
 3719000    303.26566   -1064.5888   -23182.258   -25086.939    1904.6802    1.1610133    30.985945    30.985945    30.985945    29750.497 
 3720000    299.73336   -734.20961   -23205.458   -25087.953    1882.4954    1.1610133    30.985945    30.985945    30.985945    29750.497 
 3721000    291.40862   -759.88436   -23224.757   -25054.968    1830.2113    1.1610133    30.985945    30.985945    30.985945    29750.497 
 3722000    290.09329   -990.66374   -23249.999   -25071.949    1821.9503    1.1610133    30.985945    30.985945    30.985945    29750.497 
 3723000    300.69815   -908.02086   -23102.984   -24991.539    1888.5548    1.1610133    30.985945    30.985945    30.985945    29750.497 
 3724000    293.86889   -679.13005   -23219.189   -25064.853    1845.6632    1.1610133    30.985945    30.985945    30.985945    29750.497 
 3725000    294.76164   -147.89053   -23198.874   -25050.144    1851.2701    1.1610133    30.985945    30.985945    30.985945    29750.497 
 3726000    297.36809   -977.02479    -23153.26     -25020.9    1867.6402    1.1610133    30.985945    30.985945    30.985945    29750.497 
 3727000    300.16237   -460.25215   -23204.702   -25089.892    1885.1898    1.1610133    30.985945    30.985945    30.985945    29750.497 
 3728000    297.76792    76.979871    -23168.63   -25038.781    1870.1513    1.1610133    30.985945    30.985945    30.985945    29750.497 
 3729000    294.30381   -726.71274   -23220.403   -25068.798    1848.3947    1.1610133    30.985945    30.985945    30.985945    29750.497 
 3730000    291.22882   -677.13835   -23253.976   -25083.058    1829.0821    1.1610133    30.985945    30.985945    30.985945    29750.497 
 3731000     300.1401    372.94943   -23143.866   -25028.916    1885.0499    1.1610133    30.985945    30.985945    30.985945    29750.497 
 3732000    293.03674   -161.23979   -23223.685   -25064.122    1840.4368    1.1610133    30.985945    30.985945    30.985945    29750.497 
 3733000    297.74463   -175.38892    -23200.56   -25070.565    1870.0051    1.1610133    30.985945    30.985945    30.985945    29750.497 
 3734000    299.71197   -509.52233   -23216.272   -25098.633    1882.3611    1.1610133    30.985945    30.985945    30.985945    29750.497 
 3735000    291.28525   -122.25725   -23231.227   -25060.664    1829.4365    1.1610133    30.985945    30.985945    30.985945    29750.497 
 3736000    291.40434   -671.65896    -23274.39   -25104.574    1830.1844    1.1610133    30.985945    30.985945    30.985945    29750.497 
 3737000    294.97022   -108.47047   -23208.649   -25061.229    1852.5802    1.1610133    30.985945    30.985945    30.985945    29750.497 
 3738000    296.92655    -1270.813   -23268.236   -25133.103     1864.867    1.1610133    30.985945    30.985945    30.985945    29750.497 
 3739000    307.70849    589.58925    -23137.77   -25070.353    1932.5837    1.1610133    30.985945    30.985945    30.985945    29750.497 
 3740000    301.80364   -29.670027   -23145.091   -25040.589    1895.4979    1.1610133    30.985945    30.985945    30.985945    29750.497 
 3741000    296.87102   -262.63229   -23234.184   -25098.702    1864.5183    1.1610133    30.985945    30.985945    30.985945    29750.497 
 3742000     305.7531   -171.29644   -23174.924   -25095.226    1920.3028    1.1610133    30.985945    30.985945    30.985945    29750.497 
 3743000    303.94035   -690.48656   -23169.905   -25078.823    1908.9176    1.1610133    30.985945    30.985945    30.985945    29750.497 
 3744000    301.29622   -1292.6213   -23223.351   -25115.662     1892.311    1.1610133    30.985945    30.985945    30.985945    29750.497 
 3745000    292.82971    231.76215   -23231.169   -25070.305    1839.1366    1.1610133    30.985945    30.985945    30.985945    29750.497 
 3746000    291.43342   -417.54699   -23151.365   -24981.732     1830.367    1.1610133    30.985945    30.985945    30.985945    29750.497 
 3747000    292.88408   -577.98879   -23267.808   -25107.286     1839.478    1.1610133    30.985945    30.985945    30.985945    29750.497 
 3748000    294.62996   -765.15708   -23202.915   -25053.358    1850.4431    1.1610133    30.985945    30.985945    30.985945    29750.497 
 3749000    298.01334   -357.65584   -23198.964   -25070.656    1871.6927    1.1610133    30.985945    30.985945    30.985945    29750.497 
 3750000    295.42783   -269.50985    -23195.58   -25051.034    1855.4542    1.1610133    30.985945    30.985945    30.985945    29750.497 
 3751000    297.65679   -434.21339   -23225.244   -25094.697    1869.4533    1.1610133    30.985945    30.985945    30.985945    29750.497 
 3752000    303.10151    70.873497   -23126.012   -25029.661    1903.6493    1.1610133    30.985945    30.985945    30.985945    29750.497 
 3753000    295.55047    43.571201   -23291.694   -25147.919    1856.2245    1.1610133    30.985945    30.985945    30.985945    29750.497 
 3754000    294.55848   -1372.6805   -23196.623   -25046.618    1849.9942    1.1610133    30.985945    30.985945    30.985945    29750.497 
 3755000    312.21155   -869.65338   -23053.639   -25014.504    1960.8655    1.1610133    30.985945    30.985945    30.985945    29750.497 
 3756000    300.90027   -723.15949   -23263.819   -25153.643    1889.8243    1.1610133    30.985945    30.985945    30.985945    29750.497 
 3757000    305.46576   -1433.8864     -23160.9   -25079.398    1918.4981    1.1610133    30.985945    30.985945    30.985945    29750.497 
 3758000    287.99009   -623.99034    -23271.76   -25080.501     1808.741    1.1610133    30.985945    30.985945    30.985945    29750.497 
 3759000    297.29174   -1141.9142   -23238.178   -25105.339    1867.1606    1.1610133    30.985945    30.985945    30.985945    29750.497 
 3760000    299.19804    32.447054   -23124.552   -25003.685    1879.1333    1.1610133    30.985945    30.985945    30.985945    29750.497 
 3761000    299.08963   -674.70006   -23143.939   -25022.392    1878.4524    1.1610133    30.985945    30.985945    30.985945    29750.497 
 3762000    298.61534   -1018.4041   -23176.379   -25051.852    1875.4736    1.1610133    30.985945    30.985945    30.985945    29750.497 
 3763000    294.11661    -75.35237   -23233.205   -25080.424     1847.219    1.1610133    30.985945    30.985945    30.985945    29750.497 
 3764000    302.41234    388.26284   -23295.608   -25194.929    1899.3209    1.1610133    30.985945    30.985945    30.985945    29750.497 
 3765000    292.84891    162.20411   -23228.756   -25068.013    1839.2571    1.1610133    30.985945    30.985945    30.985945    29750.497 
 3766000    292.46703   -510.86449   -23257.103   -25093.961    1836.8587    1.1610133    30.985945    30.985945    30.985945    29750.497 
 3767000    296.76141    95.119227   -23195.701   -25059.531    1863.8299    1.1610133    30.985945    30.985945    30.985945    29750.497 
 3768000    308.64866    177.45412   -23072.523   -25011.012    1938.4885    1.1610133    30.985945    30.985945    30.985945    29750.497 
 3769000    290.04953    60.832388   -23239.032   -25060.708    1821.6755    1.1610133    30.985945    30.985945    30.985945    29750.497 
 3770000    298.07296   -290.11889   -23317.187   -25189.254    1872.0672    1.1610133    30.985945    30.985945    30.985945    29750.497 
 3771000    292.93874   -580.54026   -23307.808   -25147.629    1839.8213    1.1610133    30.985945    30.985945    30.985945    29750.497 
 3772000    299.17838   -618.47287   -23270.271   -25149.281    1879.0098    1.1610133    30.985945    30.985945    30.985945    29750.497 
 3773000    289.73237   -44.204931   -23281.044   -25100.728    1819.6835    1.1610133    30.985945    30.985945    30.985945    29750.497 
 3774000    289.94002   -225.21947   -23346.042   -25167.029    1820.9876    1.1610133    30.985945    30.985945    30.985945    29750.497 
 3775000    295.43218   -256.91064     -23205.9   -25061.382    1855.4815    1.1610133    30.985945    30.985945    30.985945    29750.497 
 3776000    298.75295   -948.90302   -23199.518   -25075.856    1876.3379    1.1610133    30.985945    30.985945    30.985945    29750.497 
 3777000    294.63307   -1171.9187   -23260.384   -25110.846    1850.4627    1.1610133    30.985945    30.985945    30.985945    29750.497 
 3778000    308.76416   -352.87612   -23154.103   -25093.317    1939.2139    1.1610133    30.985945    30.985945    30.985945    29750.497 
 3779000    301.55112   -958.61931   -23126.229   -25020.141     1893.912    1.1610133    30.985945    30.985945    30.985945    29750.497 
 3780000    297.94983    342.89437   -23218.508   -25089.802    1871.2938    1.1610133    30.985945    30.985945    30.985945    29750.497 
 3781000    295.40023   -874.39403   -23197.248   -25052.529    1855.2808    1.1610133    30.985945    30.985945    30.985945    29750.497 
 3782000          306   -928.36012   -23200.295   -25122.148    1921.8534    1.1610133    30.985945    30.985945    30.985945    29750.497 
 3783000    290.14493    600.41937   -23304.619   -25126.894    1822.2746    1.1610133    30.985945    30.985945    30.985945    29750.497 
 3784000    295.15981   -276.63116   -23262.582   -25116.353    1853.7709    1.1610133    30.985945    30.985945    30.985945    29750.497 
 3785000    300.59051   -336.18059   -23178.994   -25066.872    1887.8788    1.1610133    30.985945    30.985945    30.985945    29750.497 
 3786000    293.24713   -608.69819   -23205.861   -25047.619    1841.7582    1.1610133    30.985945    30.985945    30.985945    29750.497 
 3787000     303.6534   -189.86801   -23182.759   -25089.874    1907.1154    1.1610133    30.985945    30.985945    30.985945    29750.497 
 3788000    299.12834   -65.569781   -23205.422   -25084.117    1878.6955    1.1610133    30.985945    30.985945    30.985945    29750.497 
 3789000    290.80395    132.57423   -23273.134   -25099.548    1826.4136    1.1610133    30.985945    30.985945    30.985945    29750.497 
 3790000      291.092   -832.21249    -23277.15   -25105.373    1828.2228    1.1610133    30.985945    30.985945    30.985945    29750.497 
 3791000    290.28239   -148.35495   -23221.708   -25044.846     1823.138    1.1610133    30.985945    30.985945    30.985945    29750.497 
 3792000    300.20758   -1243.7234   -23150.055   -25035.529    1885.4738    1.1610133    30.985945    30.985945    30.985945    29750.497 
 3793000    292.36956   -731.32971   -23168.462   -25004.709    1836.2465    1.1610133    30.985945    30.985945    30.985945    29750.497 
 3794000    297.33011   -657.85623    -23099.02   -24966.422    1867.4016    1.1610133    30.985945    30.985945    30.985945    29750.497 
 3795000    308.82272   -789.89966   -23030.627   -24970.209    1939.5817    1.1610133    30.985945    30.985945    30.985945    29750.497 
 3796000    302.22176    -48.14139   -23139.989   -25038.113     1898.124    1.1610133    30.985945    30.985945    30.985945    29750.497 
 3797000    301.96828    300.89448   -23138.296   -25034.828    1896.5319    1.1610133    30.985945    30.985945    30.985945    29750.497 
 3798000    289.79641   -156.82058   -23298.391   -25118.477    1820.0857    1.1610133    30.985945    30.985945    30.985945    29750.497 
 3799000    296.26268   -189.22368   -23190.636   -25051.334    1860.6975    1.1610133    30.985945    30.985945    30.985945    29750.497 
 3800000    302.31353   -48.326201   -23143.829   -25042.529    1898.7003    1.1610133    30.985945    30.985945    30.985945    29750.497 
 3801000    304.10974   -1220.1438   -23210.031   -25120.013    1909.9816    1.1610133    30.985945    30.985945    30.985945    29750.497 
 3802000    295.26505   -356.46465   -23169.583   -25024.014    1854.4318    1.1610133    30.985945    30.985945    30.985945    29750.497 
 3803000    294.65327     -763.159   -23163.136   -25013.726    1850.5895    1.1610133    30.985945    30.985945    30.985945    29750.497 
 3804000    297.11901   -512.57491   -23233.111   -25099.187    1866.0758    1.1610133    30.985945    30.985945    30.985945    29750.497 
 3805000    300.25641   -993.71634   -23193.727   -25079.508    1885.7805    1.1610133    30.985945    30.985945    30.985945    29750.497 
 3806000    302.37157   -1449.2077   -23302.533   -25201.597    1899.0649    1.1610133    30.985945    30.985945    30.985945    29750.497 
 3807000    296.20371   -594.76131   -23251.904   -25112.231    1860.3272    1.1610133    30.985945    30.985945    30.985945    29750.497 
 3808000    289.80355   -587.41258   -23300.004   -25120.135    1820.1305    1.1610133    30.985945    30.985945    30.985945    29750.497 
 3809000    308.06433   -1235.4738   -23169.434   -25104.252    1934.8186    1.1610133    30.985945    30.985945    30.985945    29750.497 
 3810000    293.48631    -246.2498   -23156.733   -24999.993    1843.2603    1.1610133    30.985945    30.985945    30.985945    29750.497 
 3811000    301.95386   -431.71253   -23147.225   -25043.666    1896.4414    1.1610133    30.985945    30.985945    30.985945    29750.497 
 3812000    297.74737   -753.32235   -23213.107   -25083.129    1870.0222    1.1610133    30.985945    30.985945    30.985945    29750.497 
 3813000    295.07488   -653.21523   -23148.874   -25002.112    1853.2375    1.1610133    30.985945    30.985945    30.985945    29750.497 
 3814000    298.81346   -868.60766   -23319.796   -25196.514    1876.7179    1.1610133    30.985945    30.985945    30.985945    29750.497 
 3815000    294.66134   -1082.2927    -23245.72    -25096.36    1850.6402    1.1610133    30.985945    30.985945    30.985945    29750.497 
 3816000    297.58098   -152.20665   -23113.319   -24982.296    1868.9772    1.1610133    30.985945    30.985945    30.985945    29750.497 
 3817000    293.26313   -327.65269   -23261.846   -25103.705    1841.8587    1.1610133    30.985945    30.985945    30.985945    29750.497 
 3818000     303.6733   -187.02378   -23157.849    -25065.09    1907.2404    1.1610133    30.985945    30.985945    30.985945    29750.497 
 3819000    297.03501   -1122.6003   -23231.435   -25096.984    1865.5482    1.1610133    30.985945    30.985945    30.985945    29750.497 
 3820000    310.68023    87.317006   -23097.352     -25048.6     1951.248    1.1610133    30.985945    30.985945    30.985945    29750.497 
 3821000    294.95196   -716.84376   -23174.753   -25027.218    1852.4655    1.1610133    30.985945    30.985945    30.985945    29750.497 
 3822000    306.86415     -96.6108   -23241.832   -25169.113    1927.2808    1.1610133    30.985945    30.985945    30.985945    29750.497 
 3823000     298.2207   -1.1427288   -23217.949   -25090.944     1872.995    1.1610133    30.985945    30.985945    30.985945    29750.497 
 3824000    299.85923   -352.00658    -23187.18   -25070.466    1883.2859    1.1610133    30.985945    30.985945    30.985945    29750.497 
 3825000    293.04921   -824.85015   -23232.414   -25072.929    1840.5151    1.1610133    30.985945    30.985945    30.985945    29750.497 
 3826000    297.77917   -813.74675   -23222.172   -25092.394    1870.2219    1.1610133    30.985945    30.985945    30.985945    29750.497 
 3827000    297.04981    139.39637    -23193.58   -25059.221    1865.6412    1.1610133    30.985945    30.985945    30.985945    29750.497 
 3828000    293.19946   -798.84254   -23277.151    -25118.61    1841.4588    1.1610133    30.985945    30.985945    30.985945    29750.497 
 3829000    300.54669    -805.1998   -23168.194   -25055.797    1887.6035    1.1610133    30.985945    30.985945    30.985945    29750.497 
 3830000    296.96725   -411.22642   -23174.147   -25039.269    1865.1227    1.1610133    30.985945    30.985945    30.985945    29750.497 
 3831000     295.6927   -1535.3162   -23255.503   -25112.621    1857.1177    1.1610133    30.985945    30.985945    30.985945    29750.497 
 3832000    300.81558   -563.77669   -23207.766   -25097.058    1889.2923    1.1610133    30.985945    30.985945    30.985945    29750.497 
 3833000    303.02118   -903.83443   -23209.884   -25113.028    1903.1448    1.1610133    30.985945    30.985945    30.985945    29750.497 
 3834000    296.34149   -794.41027   -23218.177    -25079.37    1861.1925    1.1610133    30.985945    30.985945    30.985945    29750.497 
 3835000    297.03958   -769.42645   -23167.126   -25032.703    1865.5769    1.1610133    30.985945    30.985945    30.985945    29750.497 
 3836000    302.71135   -699.36982   -23332.452   -25233.651    1901.1988    1.1610133    30.985945    30.985945    30.985945    29750.497 
 3837000    293.08054   -858.87153   -23183.347   -25024.059    1840.7119    1.1610133    30.985945    30.985945    30.985945    29750.497 
 3838000    296.57789   -809.97743   -23139.857   -25002.535    1862.6772    1.1610133    30.985945    30.985945    30.985945    29750.497 
 3839000     299.9464   -523.84159   -23102.043   -24985.877    1883.8334    1.1610133    30.985945    30.985945    30.985945    29750.497 
 3840000    301.16832   -400.30937   -23225.718   -25117.226    1891.5078    1.1610133    30.985945    30.985945    30.985945    29750.497 
 3841000    291.23206   -823.72905   -23221.326   -25050.428    1829.1024    1.1610133    30.985945    30.985945    30.985945    29750.497 
 3842000     303.4702   -633.61657   -23107.466    -25013.43    1905.9649    1.1610133    30.985945    30.985945    30.985945    29750.497 
 3843000    296.56286   -279.72098   -23212.479   -25075.062    1862.5828    1.1610133    30.985945    30.985945    30.985945    29750.497 
 3844000    293.06144   -630.02954   -23206.377   -25046.969     1840.592    1.1610133    30.985945    30.985945    30.985945    29750.497 
 3845000    303.28519   -607.92033   -23143.403   -25048.206    1904.8029    1.1610133    30.985945    30.985945    30.985945    29750.497 
 3846000    296.72902   -702.48282   -23242.779   -25106.406    1863.6264    1.1610133    30.985945    30.985945    30.985945    29750.497 
 3847000    303.37531   -752.27357   -23117.749   -25023.118    1905.3689    1.1610133    30.985945    30.985945    30.985945    29750.497 
 3848000    302.43296   -424.82815   -23262.227   -25161.678    1899.4504    1.1610133    30.985945    30.985945    30.985945    29750.497 
 3849000    298.62001    839.14673   -23167.494   -25042.997    1875.5029    1.1610133    30.985945    30.985945    30.985945    29750.497 
 3850000    297.18375   -424.24376   -23222.992   -25089.475    1866.4824    1.1610133    30.985945    30.985945    30.985945    29750.497 
 3851000    304.34651   -710.80362   -23221.773   -25133.242    1911.4686    1.1610133    30.985945    30.985945    30.985945    29750.497 
 3852000    301.42527   -481.19017   -23230.035   -25123.157    1893.1215    1.1610133    30.985945    30.985945    30.985945    29750.497 
 3853000    300.06753   -30.883525   -23208.512   -25093.106    1884.5942    1.1610133    30.985945    30.985945    30.985945    29750.497 
 3854000    293.14109   -796.82398   -23294.485   -25135.577    1841.0922    1.1610133    30.985945    30.985945    30.985945    29750.497 
 3855000    299.15246   -865.58854   -23253.289   -25132.136     1878.847    1.1610133    30.985945    30.985945    30.985945    29750.497 
 3856000    296.79321    66.976415   -23227.772   -25091.802    1864.0296    1.1610133    30.985945    30.985945    30.985945    29750.497 
 3857000    305.87719   -459.53911   -23057.665   -24978.747    1921.0821    1.1610133    30.985945    30.985945    30.985945    29750.497 
 3858000    291.79528   -1149.4637   -23202.005   -25034.645    1832.6397    1.1610133    30.985945    30.985945    30.985945    29750.497 
 3859000    299.49976   -918.05174   -23199.439   -25080.467    1881.0283    1.1610133    30.985945    30.985945    30.985945    29750.497 
 3860000    292.14943   -1108.3726   -23168.557   -25003.421     1834.864    1.1610133    30.985945    30.985945    30.985945    29750.497 
 3861000    288.63432    108.57854   -23236.971   -25049.758    1812.7871    1.1610133    30.985945    30.985945    30.985945    29750.497 
 3862000    294.08265   -307.77072   -23310.154   -25157.159    1847.0057    1.1610133    30.985945    30.985945    30.985945    29750.497 
 3863000    295.25269   -1295.3014   -23201.223   -25055.577    1854.3542    1.1610133    30.985945    30.985945    30.985945    29750.497 
 3864000    291.06741   -1375.8564   -23290.594   -25118.662    1828.0683    1.1610133    30.985945    30.985945    30.985945    29750.497 
 3865000    307.74618   -160.76126   -23167.054   -25099.875    1932.8204    1.1610133    30.985945    30.985945    30.985945    29750.497 
 3866000    299.44391   -324.35528   -23214.087   -25094.764    1880.6775    1.1610133    30.985945    30.985945    30.985945    29750.497 
 3867000    297.84999   -471.10587   -23197.758   -25068.425    1870.6667    1.1610133    30.985945    30.985945    30.985945    29750.497 
 3868000    305.12368   -487.35771   -23131.553   -25047.903    1916.3496    1.1610133    30.985945    30.985945    30.985945    29750.497 
 3869000    290.84427   -867.02653    -23209.69   -25036.357    1826.6668    1.1610133    30.985945    30.985945    30.985945    29750.497 
 3870000    300.20544   -178.25772   -23154.392   -25039.853    1885.4603    1.1610133    30.985945    30.985945    30.985945    29750.497 
 3871000    295.06314   -159.12002   -23196.234   -25049.398    1853.1637    1.1610133    30.985945    30.985945    30.985945    29750.497 
 3872000    296.83624    128.49332   -23138.976   -25003.276    1864.2998    1.1610133    30.985945    30.985945    30.985945    29750.497 
 3873000    299.32154   -249.19939   -23252.318   -25132.227    1879.9089    1.1610133    30.985945    30.985945    30.985945    29750.497 
 3874000    291.60443   -1453.7901   -23225.295   -25056.736    1831.4411    1.1610133    30.985945    30.985945    30.985945    29750.497 
 3875000    293.81329   -818.14983   -23151.816    -24997.13     1845.314    1.1610133    30.985945    30.985945    30.985945    29750.497 
 3876000    304.70955   -1201.2993   -23183.704   -25097.453    1913.7487    1.1610133    30.985945    30.985945    30.985945    29750.497 
 3877000     289.4268   -423.63837   -23321.077   -25138.841    1817.7643    1.1610133    30.985945    30.985945    30.985945    29750.497 
 3878000    302.95731   -189.35906   -23128.622   -25031.365    1902.7436    1.1610133    30.985945    30.985945    30.985945    29750.497 
 3879000    303.13288   -602.44612    -23198.89   -25102.736    1903.8463    1.1610133    30.985945    30.985945    30.985945    29750.497 
 3880000    306.90927    437.28464   -23132.224   -25059.788    1927.5642    1.1610133    30.985945    30.985945    30.985945    29750.497 
 3881000    294.85561   -920.34843   -23247.809   -25099.669    1851.8603    1.1610133    30.985945    30.985945    30.985945    29750.497 
 3882000    299.76395   -401.53803   -23212.206   -25094.894    1882.6875    1.1610133    30.985945    30.985945    30.985945    29750.497 
 3883000    289.51724   -528.85862   -23222.064   -25040.396    1818.3324    1.1610133    30.985945    30.985945    30.985945    29750.497 
 3884000     299.0982    -277.5917    -23267.54   -25146.046    1878.5062    1.1610133    30.985945    30.985945    30.985945    29750.497 
 3885000    297.95138   -1050.5777   -23199.715   -25071.018    1871.3036    1.1610133    30.985945    30.985945    30.985945    29750.497 
 3886000    300.17822   -786.39652   -23231.653   -25116.943    1885.2894    1.1610133    30.985945    30.985945    30.985945    29750.497 
 3887000    306.09041   -393.53832   -23164.185   -25086.606    1922.4213    1.1610133    30.985945    30.985945    30.985945    29750.497 
 3888000    303.55873   -1269.3116   -23210.563   -25117.084    1906.5208    1.1610133    30.985945    30.985945    30.985945    29750.497 
 3889000    302.56406   -413.93673   -23239.872   -25140.146    1900.2738    1.1610133    30.985945    30.985945    30.985945    29750.497 
 3890000    291.89165    274.83258   -23299.532   -25132.777     1833.245    1.1610133    30.985945    30.985945    30.985945    29750.497 
 3891000    301.30553     203.0156   -23240.267   -25132.637    1892.3695    1.1610133    30.985945    30.985945    30.985945    29750.497 
 3892000    298.21184   -370.07204    -23304.57    -25177.51    1872.9394    1.1610133    30.985945    30.985945    30.985945    29750.497 
 3893000    298.61579   -941.92431   -23238.474    -25113.95    1875.4764    1.1610133    30.985945    30.985945    30.985945    29750.497 
 3894000    303.26735   -699.49304   -23231.412   -25136.103    1904.6908    1.1610133    30.985945    30.985945    30.985945    29750.497 
 3895000    299.86782     -456.823   -23213.034   -25096.374    1883.3399    1.1610133    30.985945    30.985945    30.985945    29750.497 
 3896000    294.51923   -1027.8428   -23252.019   -25101.767    1849.7477    1.1610133    30.985945    30.985945    30.985945    29750.497 
 3897000    299.25798    -712.0133    -23189.74    -25069.25    1879.5097    1.1610133    30.985945    30.985945    30.985945    29750.497 
 3898000    296.64023   -565.18783   -23307.002   -25170.071    1863.0688    1.1610133    30.985945    30.985945    30.985945    29750.497 
 3899000    300.73392   -992.73844   -23207.839   -25096.618    1888.7795    1.1610133    30.985945    30.985945    30.985945    29750.497 
 3900000    296.06062   -707.10507    -23224.51   -25083.939    1859.4285    1.1610133    30.985945    30.985945    30.985945    29750.497 
 3901000    301.89588   -1161.4268   -23141.465   -25037.542    1896.0772    1.1610133    30.985945    30.985945    30.985945    29750.497 
 3902000    286.56978   -861.97834   -23253.081   -25052.902    1799.8206    1.1610133    30.985945    30.985945    30.985945    29750.497 
 3903000     302.7231   -1053.7627   -23216.741   -25118.013    1901.2727    1.1610133    30.985945    30.985945    30.985945    29750.497 
 3904000    293.37042   -1342.2231   -23218.175   -25060.708    1842.5325    1.1610133    30.985945    30.985945    30.985945    29750.497 
 3905000    299.09096   -818.07785   -23223.631   -25102.092    1878.4607    1.1610133    30.985945    30.985945    30.985945    29750.497 
 3906000    298.25777    -9.742906   -23233.117   -25106.344    1873.2278    1.1610133    30.985945    30.985945    30.985945    29750.497 
 3907000    301.30847    41.484582   -23181.758   -25074.145    1892.3879    1.1610133    30.985945    30.985945    30.985945    29750.497 
 3908000     295.2046     468.7451   -23150.784   -25004.836    1854.0522    1.1610133    30.985945    30.985945    30.985945    29750.497 
 3909000    300.04725   -1311.0944   -23156.892   -25041.359    1884.4668    1.1610133    30.985945    30.985945    30.985945    29750.497 
 3910000    292.36058   -672.55451   -23257.023   -25093.213    1836.1902    1.1610133    30.985945    30.985945    30.985945    29750.497 
 3911000    297.52425   -405.45378   -23210.738   -25079.359    1868.6209    1.1610133    30.985945    30.985945    30.985945    29750.497 
 3912000    296.92485   -694.53988    -23308.79   -25173.647    1864.8563    1.1610133    30.985945    30.985945    30.985945    29750.497 
 3913000    298.91766   -106.63903   -23205.872   -25083.244    1877.3723    1.1610133    30.985945    30.985945    30.985945    29750.497 
 3914000    307.39881   -137.97877   -23196.905   -25127.544    1930.6388    1.1610133    30.985945    30.985945    30.985945    29750.497 
 3915000    307.04023   -708.38644   -23201.739   -25130.125    1928.3867    1.1610133    30.985945    30.985945    30.985945    29750.497 
 3916000    299.01309   -519.85138   -23279.229     -25157.2    1877.9717    1.1610133    30.985945    30.985945    30.985945    29750.497 
 3917000    306.95168   -963.89282   -23140.668   -25068.498    1927.8305    1.1610133    30.985945    30.985945    30.985945    29750.497 
 3918000    294.37344   -57.639664   -23291.673   -25140.505    1848.8321    1.1610133    30.985945    30.985945    30.985945    29750.497 
 3919000    300.85212   -17.963189     -23150.2   -25039.722    1889.5218    1.1610133    30.985945    30.985945    30.985945    29750.497 
 3920000    298.58313   -855.90074   -23105.496   -24980.767    1875.2713    1.1610133    30.985945    30.985945    30.985945    29750.497 
 3921000    294.50688   -327.16959   -23178.129   -25027.799    1849.6701    1.1610133    30.985945    30.985945    30.985945    29750.497 
 3922000    293.98059   -965.58617   -23254.465    -25100.83    1846.3648    1.1610133    30.985945    30.985945    30.985945    29750.497 
 3923000     298.0431   -530.20064   -23323.722   -25195.602    1871.8796    1.1610133    30.985945    30.985945    30.985945    29750.497 
 3924000    307.18922   -516.48696   -23253.418    -25182.74    1929.3224    1.1610133    30.985945    30.985945    30.985945    29750.497 
 3925000    292.60328    175.18163   -23245.518   -25083.232    1837.7144    1.1610133    30.985945    30.985945    30.985945    29750.497 
 3926000     305.2122    682.25931   -23123.992   -25040.898    1916.9056    1.1610133    30.985945    30.985945    30.985945    29750.497 
 3927000    294.48422   -285.77499    -23193.15   -25042.678    1849.5278    1.1610133    30.985945    30.985945    30.985945    29750.497 
 3928000    305.45722   -1321.4872   -23172.711   -25091.155    1918.4444    1.1610133    30.985945    30.985945    30.985945    29750.497 
 3929000    296.89261   -1715.6571   -23110.465   -24975.119    1864.6539    1.1610133    30.985945    30.985945    30.985945    29750.497 
 3930000    298.12893   -582.84037   -23179.321   -25051.739    1872.4187    1.1610133    30.985945    30.985945    30.985945    29750.497 
 3931000    298.70674    38.159124   -23156.999   -25033.047    1876.0476    1.1610133    30.985945    30.985945    30.985945    29750.497 
 3932000    292.41064    -1091.537   -23159.216   -24995.721    1836.5045    1.1610133    30.985945    30.985945    30.985945    29750.497 
 3933000    295.49269   -124.88048   -23181.345   -25037.207    1855.8616    1.1610133    30.985945    30.985945    30.985945    29750.497 
 3934000    303.61317    226.46854    -23170.66   -25077.523    1906.8628    1.1610133    30.985945    30.985945    30.985945    29750.497 
 3935000    301.44393   -218.10701   -23229.115   -25122.354    1893.2387    1.1610133    30.985945    30.985945    30.985945    29750.497 
 3936000    299.60591   -325.56969    -23179.67   -25061.365    1881.6949    1.1610133    30.985945    30.985945    30.985945    29750.497 
 3937000    296.93334   -1319.6386   -23157.751   -25022.661    1864.9096    1.1610133    30.985945    30.985945    30.985945    29750.497 
 3938000    292.93392   -436.97625   -23283.734   -25123.525     1839.791    1.1610133    30.985945    30.985945    30.985945    29750.497 
 3939000    298.52616   -822.17305   -23209.997    -25084.91    1874.9135    1.1610133    30.985945    30.985945    30.985945    29750.497 
 3940000     301.4045   -1482.9862    -23260.85   -25153.841    1892.9911    1.1610133    30.985945    30.985945    30.985945    29750.497 
 3941000    290.86903   -514.23996   -23239.802   -25066.624    1826.8224    1.1610133    30.985945    30.985945    30.985945    29750.497 
 3942000    307.75191   -569.27972   -23164.923   -25097.779    1932.8565    1.1610133    30.985945    30.985945    30.985945    29750.497 
 3943000    301.02044   -819.64658    -23228.39   -25118.969     1890.579    1.1610133    30.985945    30.985945    30.985945    29750.497 
 3944000    293.80149    -679.8187   -23203.846   -25049.086    1845.2399    1.1610133    30.985945    30.985945    30.985945    29750.497 
 3945000    300.65242   -54.191388   -23161.342   -25049.609    1888.2676    1.1610133    30.985945    30.985945    30.985945    29750.497 
 3946000    294.71891     -267.353   -23185.518   -25036.519    1851.0018    1.1610133    30.985945    30.985945    30.985945    29750.497 
 3947000    308.28112    144.18706   -23139.525   -25075.706    1936.1801    1.1610133    30.985945    30.985945    30.985945    29750.497 
 3948000    301.62131    523.01705   -23219.238    -25113.59    1894.3528    1.1610133    30.985945    30.985945    30.985945    29750.497 
 3949000    299.20428   -570.42877   -23204.067    -25083.24    1879.1725    1.1610133    30.985945    30.985945    30.985945    29750.497 
 3950000     306.3324    -1243.716   -23140.318   -25064.259    1923.9411    1.1610133    30.985945    30.985945    30.985945    29750.497 
 3951000    298.08883     260.7792   -23161.702   -25033.869    1872.1668    1.1610133    30.985945    30.985945    30.985945    29750.497 
 3952000    303.33439   -1505.5471   -23297.976   -25203.088    1905.1119    1.1610133    30.985945    30.985945    30.985945    29750.497 
 3953000    301.38167   -746.37551   -23208.212    -25101.06    1892.8477    1.1610133    30.985945    30.985945    30.985945    29750.497 
 3954000    281.73569    561.87398   -23311.982   -25081.442    1769.4598    1.1610133    30.985945    30.985945    30.985945    29750.497 
 3955000    304.57678    797.50755   -23170.116   -25083.031    1912.9148    1.1610133    30.985945    30.985945    30.985945    29750.497 
 3956000    292.93444   -13.127353   -23246.737   -25086.531    1839.7943    1.1610133    30.985945    30.985945    30.985945    29750.497 
 3957000     293.2787   -162.32717   -23291.855   -25133.812    1841.9565    1.1610133    30.985945    30.985945    30.985945    29750.497 
 3958000    296.85598   -921.76891   -23177.892   -25042.316    1864.4238    1.1610133    30.985945    30.985945    30.985945    29750.497 
 3959000     296.6517   -961.65341    -23246.67   -25109.811    1863.1408    1.1610133    30.985945    30.985945    30.985945    29750.497 
 3960000      302.846   -1262.7172   -23190.228   -25092.273    1902.0445    1.1610133    30.985945    30.985945    30.985945    29750.497 
 3961000    285.34275    -649.2985   -23331.277   -25123.391    1792.1142    1.1610133    30.985945    30.985945    30.985945    29750.497 
 3962000    302.99999   -516.91987   -23192.242   -25095.254    1903.0117    1.1610133    30.985945    30.985945    30.985945    29750.497 
 3963000    304.31578    -283.9618    -23184.68   -25095.955    1911.2756    1.1610133    30.985945    30.985945    30.985945    29750.497 
 3964000    293.84729   -1205.7423   -23202.052   -25047.579    1845.5275    1.1610133    30.985945    30.985945    30.985945    29750.497 
 3965000    296.92724   -1367.2859   -23186.611   -25051.482    1864.8713    1.1610133    30.985945    30.985945    30.985945    29750.497 
 3966000    298.43382   -819.57232    -23210.65   -25084.984    1874.3335    1.1610133    30.985945    30.985945    30.985945    29750.497 
 3967000    298.09733   -528.58659    -23242.26    -25114.48    1872.2202    1.1610133    30.985945    30.985945    30.985945    29750.497 
 3968000     303.0722   -263.42661   -23127.805   -25031.271    1903.4652    1.1610133    30.985945    30.985945    30.985945    29750.497 
 3969000    297.47656   -421.98084   -23208.463   -25076.784    1868.3214    1.1610133    30.985945    30.985945    30.985945    29750.497 
 3970000    300.67541    234.35128   -23097.125   -24985.537     1888.412    1.1610133    30.985945    30.985945    30.985945    29750.497 
 3971000    295.47819   -1037.8643   -23146.449    -25002.22    1855.7705    1.1610133    30.985945    30.985945    30.985945    29750.497 
 3972000    295.92068   -244.81833   -23202.435   -25060.985    1858.5496    1.1610133    30.985945    30.985945    30.985945    29750.497 
 3973000    293.69804   -594.94842   -23346.365   -25190.955    1844.5901    1.1610133    30.985945    30.985945    30.985945    29750.497 
 3974000    297.57541   -1393.9041    -23257.07   -25126.013    1868.9422    1.1610133    30.985945    30.985945    30.985945    29750.497 
 3975000    302.93677   -756.98097   -23159.666   -25062.281    1902.6146    1.1610133    30.985945    30.985945    30.985945    29750.497 
 3976000    294.02366   -723.64915   -23257.948   -25104.583    1846.6352    1.1610133    30.985945    30.985945    30.985945    29750.497 
 3977000    299.81105   -966.13048    -23197.34   -25080.323    1882.9833    1.1610133    30.985945    30.985945    30.985945    29750.497 
 3978000    293.30139   -1198.5957   -23316.971    -25159.07     1842.099    1.1610133    30.985945    30.985945    30.985945    29750.497 
 3979000    305.42896    568.15085   -23133.183    -25051.45     1918.267    1.1610133    30.985945    30.985945    30.985945    29750.497 
 3980000    302.02285   -488.45524   -23161.779   -25058.654    1896.8747    1.1610133    30.985945    30.985945    30.985945    29750.497 
 3981000    294.64304   -379.29426   -23251.206   -25101.731    1850.5253    1.1610133    30.985945    30.985945    30.985945    29750.497 
 3982000    296.59299   -503.21507   -23290.133   -25152.905    1862.7721    1.1610133    30.985945    30.985945    30.985945    29750.497 
 3983000    294.81121   -609.64932   -23233.392   -25084.974    1851.5815    1.1610133    30.985945    30.985945    30.985945    29750.497 
 3984000    300.02099   -41.942509    -23138.75   -25023.051    1884.3019    1.1610133    30.985945    30.985945    30.985945    29750.497 
 3985000    298.22305    171.84164   -23251.172   -25124.182    1873.0098    1.1610133    30.985945    30.985945    30.985945    29750.497 
 3986000    302.92732   -303.95267   -23145.952   -25048.507    1902.5552    1.1610133    30.985945    30.985945    30.985945    29750.497 
 3987000    297.50956   -81.589393    -23295.72   -25164.249    1868.5286    1.1610133    30.985945    30.985945    30.985945    29750.497 
 3988000    302.68178   -349.19951    -23238.85   -25139.863    1901.0132    1.1610133    30.985945    30.985945    30.985945    29750.497 
 3989000    290.04718   -763.61831   -23214.602   -25036.263    1821.6607    1.1610133    30.985945    30.985945    30.985945    29750.497 
 3990000    297.44095   -422.55937   -23278.568   -25146.666    1868.0978    1.1610133    30.985945    30.985945    30.985945    29750.497 
 3991000    293.84196    385.19529   -23161.882   -25007.376    1845.4941    1.1610133    30.985945    30.985945    30.985945    29750.497 
 3992000    289.73978   -462.65589   -23213.531   -25033.261      1819.73    1.1610133    30.985945    30.985945    30.985945    29750.497 
 3993000    301.05138   -326.39409   -23178.713   -25069.486    1890.7733    1.1610133    30.985945    30.985945    30.985945    29750.497 
 3994000    301.75985   -175.57792   -23102.274   -24997.497    1895.2229    1.1610133    30.985945    30.985945    30.985945    29750.497 
 3995000     299.2416   -822.48877   -23247.493     -25126.9    1879.4069    1.1610133    30.985945    30.985945    30.985945    29750.497 
 3996000    293.80491   -445.10828   -23150.419    -24995.68    1845.2613    1.1610133    30.985945    30.985945    30.985945    29750.497 
 3997000    295.65074   -74.647405   -23112.715   -24969.569    1856.8542    1.1610133    30.985945    30.985945    30.985945    29750.497 
 3998000    302.04582   -29.592731   -23147.592   -25044.611    1897.0189    1.1610133    30.985945    30.985945    30.985945    29750.497 
 3999000    290.17569   -215.64235   -23245.897   -25068.364    1822.4678    1.1610133    30.985945    30.985945    30.985945    29750.497 
 4000000     288.1496   -1.1618644   -23271.916   -25081.659    1809.7428    1.1610133    30.985945    30.985945    30.985945    29750.497 
 4001000    298.00795    -616.2116   -23251.827   -25123.486    1871.6588    1.1610133    30.985945    30.985945    30.985945    29750.497 
 4002000    296.34376   -96.666139   -23220.041   -25081.248    1861.2068    1.1610133    30.985945    30.985945    30.985945    29750.497 
 4003000    298.15763   -311.73046   -23260.462   -25133.061    1872.5989    1.1610133    30.985945    30.985945    30.985945    29750.497 
 4004000    303.97153   -144.85335   -23190.312   -25099.425    1909.1135    1.1610133    30.985945    30.985945    30.985945    29750.497 
 4005000    299.56876   -760.96953   -23206.035   -25087.496    1881.4616    1.1610133    30.985945    30.985945    30.985945    29750.497 
 4006000    292.53346   -118.83709   -23209.873   -25047.149    1837.2759    1.1610133    30.985945    30.985945    30.985945    29750.497 
 4007000    300.48347   -227.45851   -23251.588   -25138.794    1887.2065    1.1610133    30.985945    30.985945    30.985945    29750.497 
 4008000    302.37857   -519.39114   -23187.593   -25086.701    1899.1088    1.1610133    30.985945    30.985945    30.985945    29750.497 
 4009000    298.43329   -772.10597   -23218.517   -25092.847    1874.3302    1.1610133    30.985945    30.985945    30.985945    29750.497 
 4010000    297.66592   -731.51135   -23314.823   -25184.334    1869.5107    1.1610133    30.985945    30.985945    30.985945    29750.497 
 4011000    295.40687   -1098.6944   -23217.733   -25073.056    1855.3226    1.1610133    30.985945    30.985945    30.985945    29750.497 
 4012000    306.09107   -32.522558   -23143.716   -25066.141    1922.4254    1.1610133    30.985945    30.985945    30.985945    29750.497 
 4013000    304.50939    250.01788   -23225.014   -25137.505    1912.4916    1.1610133    30.985945    30.985945    30.985945    29750.497 
 4014000    299.43747    243.53488   -23192.833    -25073.47     1880.637    1.1610133    30.985945    30.985945    30.985945    29750.497 
 4015000    296.01162    304.11003   -23245.475   -25104.595    1859.1207    1.1610133    30.985945    30.985945    30.985945    29750.497 
 4016000    309.29685   -197.10159   -23181.725   -25124.285    1942.5595    1.1610133    30.985945    30.985945    30.985945    29750.497 
 4017000    301.00711   -862.31257   -23183.366   -25073.861    1890.4952    1.1610133    30.985945    30.985945    30.985945    29750.497 
 4018000    302.09023   -678.22249   -23194.392   -25091.689    1897.2978    1.1610133    30.985945    30.985945    30.985945    29750.497 
 4019000    298.22108   -801.30087   -23191.066   -25064.063    1872.9974    1.1610133    30.985945    30.985945    30.985945    29750.497 
 4020000    295.13573   -594.38089   -23153.407   -25007.027    1853.6197    1.1610133    30.985945    30.985945    30.985945    29750.497 
 4021000    299.77795   -294.15759   -23170.959   -25053.735    1882.7754    1.1610133    30.985945    30.985945    30.985945    29750.497 
 4022000    300.66434   -956.64723   -23227.413   -25115.755    1888.3425    1.1610133    30.985945    30.985945    30.985945    29750.497 
 4023000    291.21822    785.65509   -23226.414   -25055.429    1829.0155    1.1610133    30.985945    30.985945    30.985945    29750.497 
 4024000    304.66806   -335.28234   -23162.008   -25075.496    1913.4881    1.1610133    30.985945    30.985945    30.985945    29750.497 
 4025000    305.34681    31.577886   -23168.841   -25086.592     1917.751    1.1610133    30.985945    30.985945    30.985945    29750.497 
 4026000    309.02218   -622.73986   -23107.776   -25048.611    1940.8344    1.1610133    30.985945    30.985945    30.985945    29750.497 
 4027000    292.67203   -877.07463   -23229.837   -25067.983    1838.1462    1.1610133    30.985945    30.985945    30.985945    29750.497 
 4028000      302.395   -176.40105   -23157.242   -25056.454     1899.212    1.1610133    30.985945    30.985945    30.985945    29750.497 
 4029000     292.5721   -198.82704   -23257.712   -25095.231    1837.5186    1.1610133    30.985945    30.985945    30.985945    29750.497 
 4030000    304.13576   -1039.4935   -23198.552   -25108.697     1910.145    1.1610133    30.985945    30.985945    30.985945    29750.497 
 4031000    299.12807   -770.99769   -23259.019   -25137.712    1878.6938    1.1610133    30.985945    30.985945    30.985945    29750.497 
 4032000    307.22894    -569.4694   -23106.462   -25036.034    1929.5719    1.1610133    30.985945    30.985945    30.985945    29750.497 
 4033000    291.03556    472.78621   -23221.149   -25049.017    1827.8683    1.1610133    30.985945    30.985945    30.985945    29750.497 
 4034000    298.04719   -1189.6476   -23242.562   -25114.467    1871.9053    1.1610133    30.985945    30.985945    30.985945    29750.497 
 4035000    304.22102   -429.28524   -23154.234   -25064.915    1910.6804    1.1610133    30.985945    30.985945    30.985945    29750.497 
 4036000    293.66321   -178.05217   -23244.343   -25088.714    1844.3714    1.1610133    30.985945    30.985945    30.985945    29750.497 
 4037000    302.50212    45.015609   -23137.561   -25037.445    1899.8848    1.1610133    30.985945    30.985945    30.985945    29750.497 
 4038000    298.14321    -578.5621   -23193.746   -25066.254    1872.5084    1.1610133    30.985945    30.985945    30.985945    29750.497 
 4039000    303.39497   -16.650191   -23073.295   -24978.787    1905.4924    1.1610133    30.985945    30.985945    30.985945    29750.497 
 4040000    311.84563   -45.765394   -23155.452   -25114.019    1958.5673    1.1610133    30.985945    30.985945    30.985945    29750.497 
 4041000    294.40086   -814.41809   -23277.903   -25126.907    1849.0043    1.1610133    30.985945    30.985945    30.985945    29750.497 
 4042000    308.52698    171.27757    -23155.17   -25092.894    1937.7243    1.1610133    30.985945    30.985945    30.985945    29750.497 
 4043000    311.80104    374.88335   -23101.653    -25059.94    1958.2872    1.1610133    30.985945    30.985945    30.985945    29750.497 
 4044000    301.01622   -533.73909   -23207.812   -25098.364    1890.5525    1.1610133    30.985945    30.985945    30.985945    29750.497 
 4045000    292.14711   -683.66451   -23249.348   -25084.198    1834.8495    1.1610133    30.985945    30.985945    30.985945    29750.497 
 4046000    296.82339   -257.57581   -23215.804   -25080.023    1864.2191    1.1610133    30.985945    30.985945    30.985945    29750.497 
 4047000    296.91757   -83.591167   -23268.211   -25133.022    1864.8106    1.1610133    30.985945    30.985945    30.985945    29750.497 
 4048000    289.15088   -824.89705   -23271.134   -25087.165    1816.0314    1.1610133    30.985945    30.985945    30.985945    29750.497 
 4049000    295.19616   -317.68874   -23228.003   -25082.002    1853.9992    1.1610133    30.985945    30.985945    30.985945    29750.497 
 4050000    301.83058   -480.87148   -23193.954   -25089.621    1895.6671    1.1610133    30.985945    30.985945    30.985945    29750.497 
 4051000    296.76435    -164.1585   -23214.168   -25078.016    1863.8483    1.1610133    30.985945    30.985945    30.985945    29750.497 
 4052000    296.54515   -1155.0574   -23240.167   -25102.639    1862.4716    1.1610133    30.985945    30.985945    30.985945    29750.497 
 4053000    293.10655   -351.16035   -23180.382   -25021.257    1840.8753    1.1610133    30.985945    30.985945    30.985945    29750.497 
 4054000    289.43669   -743.57955   -23197.996   -25015.823    1817.8265    1.1610133    30.985945    30.985945    30.985945    29750.497 
 4055000    295.28981   -398.87019   -23289.419   -25144.007    1854.5874    1.1610133    30.985945    30.985945    30.985945    29750.497 
 4056000    301.38483   -157.93949   -23119.492   -25012.359    1892.8676    1.1610133    30.985945    30.985945    30.985945    29750.497 
 4057000    294.78688   -1027.6613   -23156.777   -25008.206    1851.4287    1.1610133    30.985945    30.985945    30.985945    29750.497 
 4058000    302.76311   -555.31735   -23208.827   -25110.351    1901.5239    1.1610133    30.985945    30.985945    30.985945    29750.497 
 4059000    290.93252   -300.32908   -23227.376   -25054.597    1827.2211    1.1610133    30.985945    30.985945    30.985945    29750.497 
 4060000    303.66276   -886.87303     -23166.6   -25073.774    1907.1742    1.1610133    30.985945    30.985945    30.985945    29750.497 
 4061000     299.0148   -924.51811    -23204.88   -25082.862    1877.9824    1.1610133    30.985945    30.985945    30.985945    29750.497 
 4062000    297.32112   -950.51621   -23276.349   -25143.694    1867.3451    1.1610133    30.985945    30.985945    30.985945    29750.497 
 4063000    292.39898   -398.38084   -23170.512   -25006.943    1836.4313    1.1610133    30.985945    30.985945    30.985945    29750.497 
 4064000    291.20088    395.36862   -23317.061   -25145.968    1828.9066    1.1610133    30.985945    30.985945    30.985945    29750.497 
 4065000    291.52578      -1439.8   -23361.145   -25192.092    1830.9471    1.1610133    30.985945    30.985945    30.985945    29750.497 
 4066000    306.24685    48.995111   -23231.053   -25154.457    1923.4038    1.1610133    30.985945    30.985945    30.985945    29750.497 
 4067000    296.47629   -1317.5222   -23328.102   -25190.141    1862.0391    1.1610133    30.985945    30.985945    30.985945    29750.497 
 4068000    299.72192   -648.73762   -23238.439   -25120.862    1882.4235    1.1610133    30.985945    30.985945    30.985945    29750.497 
 4069000    293.54133   -208.12381   -23263.817   -25107.423    1843.6059    1.1610133    30.985945    30.985945    30.985945    29750.497 
 4070000    299.10918    227.62103   -23187.812   -25066.388    1878.5752    1.1610133    30.985945    30.985945    30.985945    29750.497 
 4071000    296.30433   -257.90716   -23253.108   -25114.067    1860.9591    1.1610133    30.985945    30.985945    30.985945    29750.497 
 4072000    295.38613    -60.36575   -23195.476   -25050.668    1855.1923    1.1610133    30.985945    30.985945    30.985945    29750.497 
 4073000    300.82615   -702.56002   -23203.347   -25092.706    1889.3587    1.1610133    30.985945    30.985945    30.985945    29750.497 
 4074000    287.37432   -242.03747   -23250.938   -25055.812    1804.8736    1.1610133    30.985945    30.985945    30.985945    29750.497 
 4075000    291.21151   -165.39259   -23221.524   -25050.498    1828.9733    1.1610133    30.985945    30.985945    30.985945    29750.497 
 4076000    304.73353    159.31206   -23235.473   -25149.373    1913.8993    1.1610133    30.985945    30.985945    30.985945    29750.497 
 4077000    297.85544   -488.77663   -23275.947   -25146.648     1870.701    1.1610133    30.985945    30.985945    30.985945    29750.497 
 4078000    299.26069    -267.8544   -23167.303   -25046.829    1879.5267    1.1610133    30.985945    30.985945    30.985945    29750.497 
 4079000    295.14661   -689.28171   -23279.433   -25133.121     1853.688    1.1610133    30.985945    30.985945    30.985945    29750.497 
 4080000    303.41569   -760.27554   -23202.532   -25108.154    1905.6225    1.1610133    30.985945    30.985945    30.985945    29750.497 
 4081000    291.21773   -1672.6716   -23260.624   -25089.636    1829.0124    1.1610133    30.985945    30.985945    30.985945    29750.497 
 4082000    300.37798   -498.86319   -23254.596    -25141.14     1886.544    1.1610133    30.985945    30.985945    30.985945    29750.497 
 4083000    301.24255   -64.717148   -23188.615   -25080.589    1891.9739    1.1610133    30.985945    30.985945    30.985945    29750.497 
 4084000    294.18645   -757.20221   -23304.147   -25151.804    1847.6577    1.1610133    30.985945    30.985945    30.985945    29750.497 
 4085000    298.67594   -904.83613   -23182.071   -25057.926    1875.8542    1.1610133    30.985945    30.985945    30.985945    29750.497 
 4086000    302.58202   -1258.9484   -23258.416   -25158.802    1900.3866    1.1610133    30.985945    30.985945    30.985945    29750.497 
 4087000    294.72204   -892.94158   -23256.485   -25107.507    1851.0215    1.1610133    30.985945    30.985945    30.985945    29750.497 
 4088000    305.92948   -78.167802   -23193.085   -25114.496    1921.4106    1.1610133    30.985945    30.985945    30.985945    29750.497 
 4089000    300.47481     -875.372   -23241.684   -25128.836    1887.1521    1.1610133    30.985945    30.985945    30.985945    29750.497 
 4090000      297.844   -840.48713   -23234.612   -25105.241    1870.6292    1.1610133    30.985945    30.985945    30.985945    29750.497 
 4091000    305.77349   -79.587554   -23048.557   -24968.987    1920.4308    1.1610133    30.985945    30.985945    30.985945    29750.497 
 4092000    297.59277   -420.70996   -23140.741   -25009.792    1869.0513    1.1610133    30.985945    30.985945    30.985945    29750.497 
 4093000    295.59607    -1191.517   -23226.394   -25082.905    1856.5109    1.1610133    30.985945    30.985945    30.985945    29750.497 
 4094000      298.738   -333.24909   -23095.495   -24971.739    1876.2439    1.1610133    30.985945    30.985945    30.985945    29750.497 
 4095000    302.57054   -971.38395   -23234.105   -25134.419    1900.3145    1.1610133    30.985945    30.985945    30.985945    29750.497 
 4096000    304.02596   -899.57948   -23123.106   -25032.561    1909.4553    1.1610133    30.985945    30.985945    30.985945    29750.497 
 4097000    296.34428   -580.01959   -23187.868   -25049.078    1861.2101    1.1610133    30.985945    30.985945    30.985945    29750.497 
 4098000    295.63847   -231.89498   -23314.382   -25171.159    1856.7771    1.1610133    30.985945    30.985945    30.985945    29750.497 
 4099000     293.1142    598.12365   -23268.299   -25109.222    1840.9233    1.1610133    30.985945    30.985945    30.985945    29750.497 
 4100000    303.23173    312.10465   -23197.544   -25102.011    1904.4671    1.1610133    30.985945    30.985945    30.985945    29750.497 
 4101000    300.02358   -836.06843   -23190.471   -25074.789    1884.3181    1.1610133    30.985945    30.985945    30.985945    29750.497 
 4102000    295.45713   -548.86601   -23262.681   -25118.319    1855.6382    1.1610133    30.985945    30.985945    30.985945    29750.497 
 4103000    299.53154   -826.03462   -23253.094   -25134.322    1881.2278    1.1610133    30.985945    30.985945    30.985945    29750.497 
 4104000    301.02616   -806.83342   -23093.008   -24983.623    1890.6149    1.1610133    30.985945    30.985945    30.985945    29750.497 
 4105000    298.89228   -1125.2486   -23286.223   -25163.436    1877.2129    1.1610133    30.985945    30.985945    30.985945    29750.497 
 4106000     301.9313   -235.26863   -23148.131    -25044.43    1896.2997    1.1610133    30.985945    30.985945    30.985945    29750.497 
 4107000    291.01374    298.36861   -23230.148   -25057.879    1827.7312    1.1610133    30.985945    30.985945    30.985945    29750.497 
 4108000    290.29951    -1161.286   -23256.927   -25080.173    1823.2454    1.1610133    30.985945    30.985945    30.985945    29750.497 
 4109000    302.03674   -168.16832   -23142.929   -25039.891    1896.9619    1.1610133    30.985945    30.985945    30.985945    29750.497 
 4110000    306.61584   -432.86329   -23164.911   -25090.632    1925.7212    1.1610133    30.985945    30.985945    30.985945    29750.497 
 4111000    294.96448    202.70051   -23243.477   -25096.021    1852.5441    1.1610133    30.985945    30.985945    30.985945    29750.497 
 4112000    302.53775   -1126.0907   -23182.034   -25082.143    1900.1085    1.1610133    30.985945    30.985945    30.985945    29750.497 
 4113000    312.98756   -143.44463   -23166.634   -25132.374    1965.7393    1.1610133    30.985945    30.985945    30.985945    29750.497 
 4114000    293.27923   -766.70583   -23195.796   -25037.756    1841.9598    1.1610133    30.985945    30.985945    30.985945    29750.497 
 4115000    295.21014   -343.64035   -23180.725   -25034.812     1854.087    1.1610133    30.985945    30.985945    30.985945    29750.497 
 4116000    302.39605   -613.10289   -23146.256   -25045.475    1899.2186    1.1610133    30.985945    30.985945    30.985945    29750.497 
 4117000    290.59071   -515.67502   -23297.516    -25122.59    1825.0743    1.1610133    30.985945    30.985945    30.985945    29750.497 
 4118000    294.38077    3.8464692   -23210.475   -25059.353    1848.8781    1.1610133    30.985945    30.985945    30.985945    29750.497 
 4119000    295.38254    116.84496   -23144.335   -24999.505    1855.1697    1.1610133    30.985945    30.985945    30.985945    29750.497 
 4120000    288.32569    -786.5028   -23280.964   -25091.812    1810.8487    1.1610133    30.985945    30.985945    30.985945    29750.497 
 4121000    297.97381    45.214955   -23134.218   -25005.663    1871.4444    1.1610133    30.985945    30.985945    30.985945    29750.497 
 4122000    292.86539     -955.812   -23214.475   -25053.836    1839.3606    1.1610133    30.985945    30.985945    30.985945    29750.497 
 4123000    303.66507   -368.95559   -23136.013   -25043.202    1907.1888    1.1610133    30.985945    30.985945    30.985945    29750.497 
 4124000    296.93044    -1254.467   -23235.837   -25100.728    1864.8915    1.1610133    30.985945    30.985945    30.985945    29750.497 
 4125000    298.98687   -1073.9103   -23072.646   -24950.453     1877.807    1.1610133    30.985945    30.985945    30.985945    29750.497 
 4126000    299.52271   -478.97401   -23137.023   -25018.195    1881.1724    1.1610133    30.985945    30.985945    30.985945    29750.497 
 4127000    294.44589   -444.54411   -23166.279   -25015.566    1849.2871    1.1610133    30.985945    30.985945    30.985945    29750.497 
 4128000    304.88842   -285.78598   -23139.397    -25054.27    1914.8721    1.1610133    30.985945    30.985945    30.985945    29750.497 
 4129000    287.05869   -128.86313   -23259.009     -25061.9    1802.8913    1.1610133    30.985945    30.985945    30.985945    29750.497 
 4130000    288.03111   -807.21912    -23323.79   -25132.789    1808.9986    1.1610133    30.985945    30.985945    30.985945    29750.497 
 4131000    297.39506    93.161161   -23192.786   -25060.596    1867.8095    1.1610133    30.985945    30.985945    30.985945    29750.497 
 4132000    301.51151    687.53115   -23225.679   -25119.343    1893.6632    1.1610133    30.985945    30.985945    30.985945    29750.497 
 4133000     303.1628   -312.99587   -23204.291   -25108.326    1904.0342    1.1610133    30.985945    30.985945    30.985945    29750.497 
 4134000    302.28389   -402.08472   -23236.204   -25134.718    1898.5142    1.1610133    30.985945    30.985945    30.985945    29750.497 
 4135000    295.85058   -497.36262   -23185.664   -25043.774    1858.1093    1.1610133    30.985945    30.985945    30.985945    29750.497 
 4136000    304.76431   -748.00086    -23084.31   -24998.403    1914.0926    1.1610133    30.985945    30.985945    30.985945    29750.497 
 4137000    298.89289   -604.37003    -23134.44   -25011.657    1877.2167    1.1610133    30.985945    30.985945    30.985945    29750.497 
 4138000    303.98791   -762.99194    -23105.46   -25014.676    1909.2163    1.1610133    30.985945    30.985945    30.985945    29750.497 
 4139000    290.08843   -88.498074   -23300.546   -25122.466    1821.9197    1.1610133    30.985945    30.985945    30.985945    29750.497 
 4140000    303.66431   -1039.0557   -23130.004   -25037.188     1907.184    1.1610133    30.985945    30.985945    30.985945    29750.497 
 4141000    298.38966   -575.82009   -23159.667   -25033.723    1874.0562    1.1610133    30.985945    30.985945    30.985945    29750.497 
 4142000    299.15326    39.373079   -23233.362   -25112.214    1878.8521    1.1610133    30.985945    30.985945    30.985945    29750.497 
 4143000    299.71947   -615.73668   -23204.364   -25086.772    1882.4082    1.1610133    30.985945    30.985945    30.985945    29750.497 
 4144000    292.86636   -1239.9604   -23342.789   -25182.156    1839.3668    1.1610133    30.985945    30.985945    30.985945    29750.497 
 4145000    311.08254    -135.3941   -23198.802   -25152.577    1953.7747    1.1610133    30.985945    30.985945    30.985945    29750.497 
 4146000     297.7393    -418.1709   -23301.629     -25171.6    1869.9716    1.1610133    30.985945    30.985945    30.985945    29750.497 
 4147000    290.72134   -812.63099   -23321.004   -25146.899    1825.8948    1.1610133    30.985945    30.985945    30.985945    29750.497 
 4148000    295.52345    227.96614   -23248.606   -25104.661    1856.0548    1.1610133    30.985945    30.985945    30.985945    29750.497 
 4149000    295.81119   -466.07948   -23223.505   -25081.367    1857.8619    1.1610133    30.985945    30.985945    30.985945    29750.497 
 4150000    301.11937   -160.12546   -23150.295   -25041.495    1891.2003    1.1610133    30.985945    30.985945    30.985945    29750.497 
 4151000    297.67589    -820.3447    -23229.36   -25098.934    1869.5733    1.1610133    30.985945    30.985945    30.985945    29750.497 
 4152000    296.26085   -154.54134   -23209.278   -25069.965    1860.6861    1.1610133    30.985945    30.985945    30.985945    29750.497 
 4153000    302.40098   -26.822599   -23217.326   -25116.576    1899.2496    1.1610133    30.985945    30.985945    30.985945    29750.497 
 4154000    293.60987   -836.69614   -23308.665   -25152.701    1844.0364    1.1610133    30.985945    30.985945    30.985945    29750.497 
 4155000    296.21372   -797.67145   -23268.105   -25128.495      1860.39    1.1610133    30.985945    30.985945    30.985945    29750.497 
 4156000    288.61695   -426.87876   -23320.433   -25133.111    1812.6781    1.1610133    30.985945    30.985945    30.985945    29750.497 
 4157000     297.3251   -531.52834   -23291.677   -25159.047    1867.3701    1.1610133    30.985945    30.985945    30.985945    29750.497 
 4158000    303.67591   -364.21669   -23159.237   -25066.493    1907.2568    1.1610133    30.985945    30.985945    30.985945    29750.497 
 4159000    300.43913   -475.58733   -23238.975   -25125.903     1886.928    1.1610133    30.985945    30.985945    30.985945    29750.497 
 4160000    300.40654    -1038.435   -23238.553   -25125.276    1886.7233    1.1610133    30.985945    30.985945    30.985945    29750.497 
 4161000    297.99028    -387.3301   -23181.909   -25053.457    1871.5479    1.1610133    30.985945    30.985945    30.985945    29750.497 
 4162000    288.62624   -795.52292   -23251.057   -25063.793    1812.7364    1.1610133    30.985945    30.985945    30.985945    29750.497 
 4163000    301.40368   -354.91029   -23155.667   -25048.653     1892.986    1.1610133    30.985945    30.985945    30.985945    29750.497 
 4164000    312.74464   -381.38242   -23112.181   -25076.394    1964.2136    1.1610133    30.985945    30.985945    30.985945    29750.497 
 4165000     291.5445    543.77242   -23268.974   -25100.039    1831.0647    1.1610133    30.985945    30.985945    30.985945    29750.497 
 4166000    304.83955   -11.899815   -23228.147   -25142.712    1914.5652    1.1610133    30.985945    30.985945    30.985945    29750.497 
 4167000    296.67905   -633.95754   -23241.343   -25104.656    1863.3126    1.1610133    30.985945    30.985945    30.985945    29750.497 
 4168000    300.79725    -1477.928   -23233.283    -25122.46    1889.1772    1.1610133    30.985945    30.985945    30.985945    29750.497 
 4169000    299.50307   -35.774908    -23164.97   -25046.019    1881.0491    1.1610133    30.985945    30.985945    30.985945    29750.497 
 4170000    300.90304    26.260671   -23171.985   -25061.827    1889.8416    1.1610133    30.985945    30.985945    30.985945    29750.497 
 4171000    302.65893   -1160.1347   -23203.396   -25104.266    1900.8696    1.1610133    30.985945    30.985945    30.985945    29750.497 
 4172000    303.61716     74.57524   -23182.911   -25089.799    1906.8879    1.1610133    30.985945    30.985945    30.985945    29750.497 
 4173000    302.21469   -653.15132   -23178.442   -25076.522    1898.0795    1.1610133    30.985945    30.985945    30.985945    29750.497 
 4174000    302.75825   -214.30518    -23218.36   -25119.853    1901.4934    1.1610133    30.985945    30.985945    30.985945    29750.497 
 4175000    297.01214     -1251.89   -23206.897   -25072.301    1865.4046    1.1610133    30.985945    30.985945    30.985945    29750.497 
 4176000    295.91206   -1334.0235   -23238.027   -25096.523    1858.4954    1.1610133    30.985945    30.985945    30.985945    29750.497 
 4177000    294.84006   -199.27577   -23257.486   -25109.249    1851.7627    1.1610133    30.985945    30.985945    30.985945    29750.497 
 4178000    300.78449    168.56607   -23180.144   -25069.241    1889.0971    1.1610133    30.985945    30.985945    30.985945    29750.497 
 4179000    300.19373    19.200023   -23202.429   -25087.816    1885.3867    1.1610133    30.985945    30.985945    30.985945    29750.497 
 4180000    289.81997   -226.42123   -23232.145   -25052.379    1820.2337    1.1610133    30.985945    30.985945    30.985945    29750.497 
 4181000    307.90159    329.84935   -23116.695   -25050.491    1933.7965    1.1610133    30.985945    30.985945    30.985945    29750.497 
 4182000    296.25871   -923.61656   -23174.945   -25035.617    1860.6726    1.1610133    30.985945    30.985945    30.985945    29750.497 
 4183000    313.47785   -720.84778   -23124.251   -25093.069    1968.8185    1.1610133    30.985945    30.985945    30.985945    29750.497 
 4184000    297.02217   -758.05981   -23281.494   -25146.962    1865.4676    1.1610133    30.985945    30.985945    30.985945    29750.497 
 4185000    288.95469   -876.58213   -23247.467   -25062.266    1814.7992    1.1610133    30.985945    30.985945    30.985945    29750.497 
 4186000    289.42116    499.60185   -23254.835   -25072.564    1817.7289    1.1610133    30.985945    30.985945    30.985945    29750.497 
 4187000    308.14656   -485.46564   -23068.772   -25004.107     1935.335    1.1610133    30.985945    30.985945    30.985945    29750.497 
 4188000    290.70393   -224.78759   -23247.743   -25073.529    1825.7855    1.1610133    30.985945    30.985945    30.985945    29750.497 
 4189000    292.73069   -741.72913   -23310.297   -25148.811    1838.5146    1.1610133    30.985945    30.985945    30.985945    29750.497 
 4190000     294.9551   -905.61924   -23225.838   -25078.323    1852.4852    1.1610133    30.985945    30.985945    30.985945    29750.497 
 4191000    296.49225   -514.74404   -23271.331    -25133.47    1862.1394    1.1610133    30.985945    30.985945    30.985945    29750.497 
 4192000    304.36848    362.85805   -23183.402   -25095.009    1911.6066    1.1610133    30.985945    30.985945    30.985945    29750.497 
 4193000    293.86184    35.794918   -23244.098   -25089.717    1845.6189    1.1610133    30.985945    30.985945    30.985945    29750.497 
 4194000    294.80167    89.061758   -23204.981   -25056.503    1851.5216    1.1610133    30.985945    30.985945    30.985945    29750.497 
 4195000      301.361   -819.50173   -23156.713   -25049.431    1892.7179    1.1610133    30.985945    30.985945    30.985945    29750.497 
 4196000    298.06504   -44.627753   -23207.959   -25079.977    1872.0174    1.1610133    30.985945    30.985945    30.985945    29750.497 
 4197000    307.58474   -602.64418   -23178.515   -25110.322    1931.8065    1.1610133    30.985945    30.985945    30.985945    29750.497 
 4198000    292.47797    777.97402   -23270.266   -25107.194    1836.9274    1.1610133    30.985945    30.985945    30.985945    29750.497 
 4199000     303.3618   -532.62226   -23188.543   -25093.827    1905.2841    1.1610133    30.985945    30.985945    30.985945    29750.497 
 4200000    301.04198   -797.24627     -23068.3   -24959.014    1890.7142    1.1610133    30.985945    30.985945    30.985945    29750.497 
 4201000    300.02695   -759.02877   -23126.141   -25010.481    1884.3393    1.1610133    30.985945    30.985945    30.985945    29750.497 
 4202000    300.99893    77.574661   -23223.793   -25114.236    1890.4439    1.1610133    30.985945    30.985945    30.985945    29750.497 
 4203000    299.19915   -747.60144   -23222.697   -25101.837    1879.1403    1.1610133    30.985945    30.985945    30.985945    29750.497 
 4204000    291.34104   -210.42705   -23292.642   -25122.429    1829.7869    1.1610133    30.985945    30.985945    30.985945    29750.497 
 4205000    295.50569   -566.11326   -23225.674   -25081.617    1855.9432    1.1610133    30.985945    30.985945    30.985945    29750.497 
 4206000    302.18998   -1178.3588   -23170.628   -25068.553    1897.9243    1.1610133    30.985945    30.985945    30.985945    29750.497 
 4207000    287.20585   -795.57337   -23357.646   -25161.462    1803.8155    1.1610133    30.985945    30.985945    30.985945    29750.497 
 4208000    303.69309   -464.17691   -23190.881   -25098.246    1907.3648    1.1610133    30.985945    30.985945    30.985945    29750.497 
 4209000    296.51076   -738.31488   -23177.568   -25039.824    1862.2557    1.1610133    30.985945    30.985945    30.985945    29750.497 
 4210000    301.02643   -238.31318   -23187.717   -25078.333    1890.6166    1.1610133    30.985945    30.985945    30.985945    29750.497 
 4211000    297.06469   -1284.3193   -23251.362   -25117.097    1865.7346    1.1610133    30.985945    30.985945    30.985945    29750.497 
 4212000    293.09778   -1083.5217   -23196.238   -25037.058    1840.8202    1.1610133    30.985945    30.985945    30.985945    29750.497 
 4213000    297.40095    11.610782   -23166.068   -25033.914    1867.8465    1.1610133    30.985945    30.985945    30.985945    29750.497 
 4214000    300.35682   -96.661309   -23202.571   -25088.982    1886.4111    1.1610133    30.985945    30.985945    30.985945    29750.497 
 4215000    303.72957   -398.49117   -23095.736    -25003.33    1907.5938    1.1610133    30.985945    30.985945    30.985945    29750.497 
 4216000    291.88169   -76.540986   -23244.612   -25077.794    1833.1825    1.1610133    30.985945    30.985945    30.985945    29750.497 
 4217000    303.89688    204.23684    -23218.46   -25127.105    1908.6446    1.1610133    30.985945    30.985945    30.985945    29750.497 
 4218000    302.79731   -719.41149   -23219.922    -25121.66    1901.7387    1.1610133    30.985945    30.985945    30.985945    29750.497 
 4219000    296.02664   -1204.5253   -23359.161   -25218.376    1859.2151    1.1610133    30.985945    30.985945    30.985945    29750.497 
 4220000    302.87274    218.45607   -23193.293   -25095.506    1902.2125    1.1610133    30.985945    30.985945    30.985945    29750.497 
 4221000    291.37654     155.8948   -23256.386   -25086.396    1830.0098    1.1610133    30.985945    30.985945    30.985945    29750.497 
 4222000     305.8444   -526.29041   -23114.607   -25035.483    1920.8762    1.1610133    30.985945    30.985945    30.985945    29750.497 
 4223000    296.41649   -343.34844   -23206.059   -25067.723    1861.6636    1.1610133    30.985945    30.985945    30.985945    29750.497 
 4224000    304.89083   -597.63817   -23119.949   -25034.836    1914.8872    1.1610133    30.985945    30.985945    30.985945    29750.497 
 4225000    300.52064   -902.07802   -23163.518   -25050.958      1887.44    1.1610133    30.985945    30.985945    30.985945    29750.497 
 4226000    313.10874   -827.57403   -23101.258   -25067.758    1966.5004    1.1610133    30.985945    30.985945    30.985945    29750.497 
 4227000    298.26829   -53.691462   -23274.098   -25147.391    1873.2939    1.1610133    30.985945    30.985945    30.985945    29750.497 
 4228000    306.73953   -180.77441   -23193.007   -25119.505    1926.4981    1.1610133    30.985945    30.985945    30.985945    29750.497 
 4229000    307.81548   -507.24487   -23148.472   -25081.728    1933.2557    1.1610133    30.985945    30.985945    30.985945    29750.497 
 4230000    290.47587   -513.66914   -23236.129   -25060.482    1824.3531    1.1610133    30.985945    30.985945    30.985945    29750.497 
 4231000    302.64618   -1362.9426   -23200.913   -25101.703    1900.7895    1.1610133    30.985945    30.985945    30.985945    29750.497 
 4232000    288.35649    -1095.236   -23348.639   -25159.682    1811.0422    1.1610133    30.985945    30.985945    30.985945    29750.497 
 4233000    300.63308    412.92986   -23195.524    -25083.67    1888.1461    1.1610133    30.985945    30.985945    30.985945    29750.497 
 4234000    303.20528    9.1105387   -23166.344   -25070.645     1904.301    1.1610133    30.985945    30.985945    30.985945    29750.497 
 4235000    307.58022    529.48635   -23171.041   -25102.819    1931.7781    1.1610133    30.985945    30.985945    30.985945    29750.497 
 4236000    312.99731   -67.161652   -23039.893   -25005.693    1965.8005    1.1610133    30.985945    30.985945    30.985945    29750.497 
 4237000    296.37226   -557.04719   -23189.625    -25051.01    1861.3857    1.1610133    30.985945    30.985945    30.985945    29750.497 
 4238000    307.69001    85.408799   -23176.446   -25108.914    1932.4677    1.1610133    30.985945    30.985945    30.985945    29750.497 
 4239000    287.89249   -796.81259   -23221.946   -25030.074     1808.128    1.1610133    30.985945    30.985945    30.985945    29750.497 
 4240000    298.46964    -854.1706   -23177.081   -25051.639    1874.5585    1.1610133    30.985945    30.985945    30.985945    29750.497 
 4241000    292.36638   -562.16169   -23273.806   -25110.033    1836.2266    1.1610133    30.985945    30.985945    30.985945    29750.497 
 4242000    305.35189   -487.35694   -23174.864   -25092.647    1917.7829    1.1610133    30.985945    30.985945    30.985945    29750.497 
 4243000    295.39421   -964.69701   -23234.965   -25090.208    1855.2431    1.1610133    30.985945    30.985945    30.985945    29750.497 
 4244000    310.33838   -462.93581   -23153.385   -25102.486    1949.1009    1.1610133    30.985945    30.985945    30.985945    29750.497 
 4245000    292.30155   -1197.0843   -23326.914   -25162.733    1835.8194    1.1610133    30.985945    30.985945    30.985945    29750.497 
 4246000    299.94779    -331.6497   -23182.004   -25065.846    1883.8421    1.1610133    30.985945    30.985945    30.985945    29750.497 
 4247000    304.37545   -762.28214   -23109.325   -25020.975    1911.6504    1.1610133    30.985945    30.985945    30.985945    29750.497 
 4248000    306.00407    579.65133   -23188.614   -25110.493     1921.879    1.1610133    30.985945    30.985945    30.985945    29750.497 
 4249000    302.61296   -552.93338   -23271.135   -25171.716    1900.5809    1.1610133    30.985945    30.985945    30.985945    29750.497 
 4250000    304.67745   -638.52484   -23246.412   -25159.959    1913.5471    1.1610133    30.985945    30.985945    30.985945    29750.497 
 4251000    297.23783   -414.58308    -23234.08   -25100.902     1866.822    1.1610133    30.985945    30.985945    30.985945    29750.497 
 4252000    300.82825   -880.62384    -23155.97   -25045.342    1889.3719    1.1610133    30.985945    30.985945    30.985945    29750.497 
 4253000    298.29857   -1022.8495   -23200.624   -25074.108    1873.4841    1.1610133    30.985945    30.985945    30.985945    29750.497 
 4254000     293.4044   -1071.5504   -23265.452   -25108.198    1842.7459    1.1610133    30.985945    30.985945    30.985945    29750.497 
 4255000    296.19206   -430.19755   -23164.857   -25025.111     1860.254    1.1610133    30.985945    30.985945    30.985945    29750.497 
 4256000    296.81333   -426.07358   -23190.703   -25054.859    1864.1559    1.1610133    30.985945    30.985945    30.985945    29750.497 
 4257000    300.17689   -312.53272   -23178.092   -25063.373     1885.281    1.1610133    30.985945    30.985945    30.985945    29750.497 
 4258000    304.40352   -977.36012   -23037.519   -24949.346    1911.8267    1.1610133    30.985945    30.985945    30.985945    29750.497 
 4259000    294.54205   -1368.0041    -23251.95   -25101.841     1849.891    1.1610133    30.985945    30.985945    30.985945    29750.497 
 4260000    297.08312   -370.30579   -23211.553   -25077.404    1865.8504    1.1610133    30.985945    30.985945    30.985945    29750.497 
 4261000     302.9381   -444.10783   -23115.798   -25018.421    1902.6229    1.1610133    30.985945    30.985945    30.985945    29750.497 
 4262000    299.67191   -1025.2772   -23181.263   -25063.372    1882.1094    1.1610133    30.985945    30.985945    30.985945    29750.497 
 4263000    283.71271   -249.59535   -23252.618   -25034.495    1781.8766    1.1610133    30.985945    30.985945    30.985945    29750.497 
 4264000    295.93891    577.90346   -23140.599   -24999.263    1858.6641    1.1610133    30.985945    30.985945    30.985945    29750.497 
 4265000    299.72211    680.40636   -23184.071   -25066.495    1882.4247    1.1610133    30.985945    30.985945    30.985945    29750.497 
 4266000    304.66907    137.36082   -23126.526    -25040.02    1913.4945    1.1610133    30.985945    30.985945    30.985945    29750.497 
 4267000    297.31759   -550.89132   -23153.902   -25021.225     1867.323    1.1610133    30.985945    30.985945    30.985945    29750.497 
 4268000     298.5939    1047.0945   -23088.199   -24963.538    1875.3389    1.1610133    30.985945    30.985945    30.985945    29750.497 
 4269000    299.49781   -817.69631   -23179.426   -25060.442     1881.016    1.1610133    30.985945    30.985945    30.985945    29750.497 
 4270000    297.54634   -64.084305   -23196.342   -25065.101    1868.7597    1.1610133    30.985945    30.985945    30.985945    29750.497 
 4271000    293.68909   -764.27157   -23261.125   -25105.659    1844.5339    1.1610133    30.985945    30.985945    30.985945    29750.497 
 4272000     297.0509   -1008.3232   -23237.202    -25102.85     1865.648    1.1610133    30.985945    30.985945    30.985945    29750.497 
 4273000    307.10839   -610.88567   -23148.278   -25077.093    1928.8147    1.1610133    30.985945    30.985945    30.985945    29750.497 
 4274000    301.93029    264.75696   -23159.671   -25055.964    1896.2934    1.1610133    30.985945    30.985945    30.985945    29750.497 
 4275000    300.00789   -283.08302   -23178.154   -25062.374    1884.2196    1.1610133    30.985945    30.985945    30.985945    29750.497 
 4276000    307.55935   -147.50246   -23190.097   -25121.744     1931.647    1.1610133    30.985945    30.985945    30.985945    29750.497 
 4277000    295.73164   -552.24652   -23212.342   -25069.705    1857.3623    1.1610133    30.985945    30.985945    30.985945    29750.497 
 4278000    294.94158   -157.77903   -23311.433   -25163.833    1852.4003    1.1610133    30.985945    30.985945    30.985945    29750.497 
 4279000    304.97253   -895.24795   -23147.993   -25063.394    1915.4003    1.1610133    30.985945    30.985945    30.985945    29750.497 
 4280000    306.68381    138.81065   -23083.093   -25009.241    1926.1482    1.1610133    30.985945    30.985945    30.985945    29750.497 
 4281000    294.33023    519.30369   -23223.466   -25072.026    1848.5606    1.1610133    30.985945    30.985945    30.985945    29750.497 
 4282000    292.91316   -1115.2368   -23173.114   -25012.775    1839.6606    1.1610133    30.985945    30.985945    30.985945    29750.497 
 4283000    293.50799   -455.67105   -23171.589   -25014.985    1843.3966    1.1610133    30.985945    30.985945    30.985945    29750.497 
 4284000    294.60439   -1764.5309   -23159.392   -25009.675    1850.2826    1.1610133    30.985945    30.985945    30.985945    29750.497 
 4285000    297.63504   -1281.5762   -23192.482   -25061.799    1869.3168    1.1610133    30.985945    30.985945    30.985945    29750.497 
 4286000      298.586   -689.72024   -23204.405   -25079.695    1875.2893    1.1610133    30.985945    30.985945    30.985945    29750.497 
 4287000    300.77595     163.4991   -23112.637   -25001.681    1889.0434    1.1610133    30.985945    30.985945    30.985945    29750.497 
 4288000    302.88787   -227.30855   -23197.168   -25099.475    1902.3075    1.1610133    30.985945    30.985945    30.985945    29750.497 
 4289000    299.42297    186.24759   -23189.222   -25069.768     1880.546    1.1610133    30.985945    30.985945    30.985945    29750.497 
 4290000    294.98336    -152.8858     -23222.2   -25074.863    1852.6627    1.1610133    30.985945    30.985945    30.985945    29750.497 
 4291000    299.20488   -867.11334   -23167.468   -25046.644    1879.1762    1.1610133    30.985945    30.985945    30.985945    29750.497 
 4292000    317.24387   -815.64967   -23065.637   -25058.108    1992.4713    1.1610133    30.985945    30.985945    30.985945    29750.497 
 4293000    293.89565     915.8108   -23265.727   -25111.558    1845.8312    1.1610133    30.985945    30.985945    30.985945    29750.497 
 4294000    295.77339   -1780.2291   -23173.472   -25031.097    1857.6246    1.1610133    30.985945    30.985945    30.985945    29750.497 
 4295000    311.58715    294.86918   -23078.963   -25035.907    1956.9439    1.1610133    30.985945    30.985945    30.985945    29750.497 
 4296000    291.08142   -682.92881   -23248.244     -25076.4    1828.1563    1.1610133    30.985945    30.985945    30.985945    29750.497 
 4297000    301.48754   -102.54188    -23106.15   -24999.663    1893.5126    1.1610133    30.985945    30.985945    30.985945    29750.497 
 4298000    300.78678    271.03264   -23197.483   -25086.595    1889.1114    1.1610133    30.985945    30.985945    30.985945    29750.497 
 4299000    296.35987   -292.23278   -23262.796   -25124.104     1861.308    1.1610133    30.985945    30.985945    30.985945    29750.497 
 4300000    303.07071   -906.17678   -23171.455   -25074.911    1903.4559    1.1610133    30.985945    30.985945    30.985945    29750.497 
 4301000    304.15167   -190.81015    -23232.13   -25142.375    1910.2449    1.1610133    30.985945    30.985945    30.985945    29750.497 
 4302000    308.09717   -543.76354    -23192.15   -25127.175    1935.0249    1.1610133    30.985945    30.985945    30.985945    29750.497 
 4303000    293.02791   -810.61856    -23193.77   -25034.151    1840.3814    1.1610133    30.985945    30.985945    30.985945    29750.497 
 4304000    296.67405   -710.91345   -23243.294   -25106.575    1863.2812    1.1610133    30.985945    30.985945    30.985945    29750.497 
 4305000    292.82818   -736.44756   -23173.131   -25012.258    1839.1269    1.1610133    30.985945    30.985945    30.985945    29750.497 
 4306000    292.21853    67.084229   -23210.538   -25045.836     1835.298    1.1610133    30.985945    30.985945    30.985945    29750.497 
 4307000    304.80932   -954.67099   -23165.502   -25079.877    1914.3753    1.1610133    30.985945    30.985945    30.985945    29750.497 
 4308000    299.32452   -789.39036   -23316.171   -25196.099    1879.9276    1.1610133    30.985945    30.985945    30.985945    29750.497 
 4309000    298.85853   -642.76558   -23243.208   -25120.209    1877.0009    1.1610133    30.985945    30.985945    30.985945    29750.497 
 4310000    298.09447   -325.57331   -23097.699   -24969.901    1872.2022    1.1610133    30.985945    30.985945    30.985945    29750.497 
 4311000    298.80254   -346.94009   -23110.707   -24987.356    1876.6493    1.1610133    30.985945    30.985945    30.985945    29750.497 
 4312000    296.03002   -342.98564   -23191.321   -25050.557    1859.2363    1.1610133    30.985945    30.985945    30.985945    29750.497 
 4313000    304.44254     35.21682     -23164.7   -25076.771    1912.0717    1.1610133    30.985945    30.985945    30.985945    29750.497 
 4314000    293.95666    -56.69548   -23159.146    -25005.36    1846.2144    1.1610133    30.985945    30.985945    30.985945    29750.497 
 4315000    298.75548    142.88135   -23222.277   -25098.631    1876.3537    1.1610133    30.985945    30.985945    30.985945    29750.497 
 4316000     300.7842   -98.573085   -23203.718   -25092.813    1889.0953    1.1610133    30.985945    30.985945    30.985945    29750.497 
 4317000    300.17794   -1097.8757    -23106.78   -24992.068    1885.2876    1.1610133    30.985945    30.985945    30.985945    29750.497 
 4318000    307.28429    600.56984    -23125.39   -25055.309    1929.9195    1.1610133    30.985945    30.985945    30.985945    29750.497 
 4319000    307.30909   -277.86174    -23167.16   -25097.236    1930.0753    1.1610133    30.985945    30.985945    30.985945    29750.497 
 4320000    305.99853   -195.12016   -23188.922   -25110.766    1921.8442    1.1610133    30.985945    30.985945    30.985945    29750.497 
 4321000    298.64363   -647.06056     -23231.1   -25106.752    1875.6513    1.1610133    30.985945    30.985945    30.985945    29750.497 
 4322000    296.13073   -149.60005   -23299.304   -25159.173    1859.8688    1.1610133    30.985945    30.985945    30.985945    29750.497 
 4323000    295.34852   -233.01961   -23233.864    -25088.82    1854.9561    1.1610133    30.985945    30.985945    30.985945    29750.497 
 4324000    302.26458   -139.05249   -23163.088   -25061.481    1898.3929    1.1610133    30.985945    30.985945    30.985945    29750.497 
 4325000    298.28127   -500.26589   -23225.263   -25098.639    1873.3754    1.1610133    30.985945    30.985945    30.985945    29750.497 
 4326000    306.03376   -237.19132   -23163.732   -25085.797    1922.0654    1.1610133    30.985945    30.985945    30.985945    29750.497 
 4327000     294.2705   -228.93198   -23221.392   -25069.578    1848.1855    1.1610133    30.985945    30.985945    30.985945    29750.497 
 4328000    298.33901   -835.48568   -23151.994   -25025.732    1873.7381    1.1610133    30.985945    30.985945    30.985945    29750.497 
 4329000    290.93555   -644.81786   -23325.497   -25152.737    1827.2402    1.1610133    30.985945    30.985945    30.985945    29750.497 
 4330000    297.63899   -186.39964   -23193.427   -25062.769    1869.3415    1.1610133    30.985945    30.985945    30.985945    29750.497 
 4331000    305.63459   -510.90022   -23208.273   -25127.831    1919.5585    1.1610133    30.985945    30.985945    30.985945    29750.497 
 4332000    305.13805   -552.99583     -23078.1    -24994.54    1916.4399    1.1610133    30.985945    30.985945    30.985945    29750.497 
 4333000    295.41141   -1180.9676   -23155.051   -25010.402    1855.3511    1.1610133    30.985945    30.985945    30.985945    29750.497 
 4334000    309.76097   -617.02989   -23076.203   -25021.678    1945.4744    1.1610133    30.985945    30.985945    30.985945    29750.497 
 4335000    295.09428   -437.39102    -23193.06    -25046.42    1853.3594    1.1610133    30.985945    30.985945    30.985945    29750.497 
 4336000     290.8499   -501.35059   -23255.507   -25082.209    1826.7022    1.1610133    30.985945    30.985945    30.985945    29750.497 
 4337000    293.64389   -323.55344   -23188.663   -25032.913      1844.25    1.1610133    30.985945    30.985945    30.985945    29750.497 
 4338000    296.75201    -270.5667   -23248.335   -25112.106    1863.7708    1.1610133    30.985945    30.985945    30.985945    29750.497 
 4339000    295.74237   -910.06384   -23237.991   -25095.421    1857.4297    1.1610133    30.985945    30.985945    30.985945    29750.497 
 4340000    294.07501   -37.644692   -23164.758   -25011.716    1846.9577    1.1610133    30.985945    30.985945    30.985945    29750.497 
 4341000    299.43576    264.75678   -23176.358   -25056.984    1880.6263    1.1610133    30.985945    30.985945    30.985945    29750.497 
 4342000    311.41532   -1018.7165   -23069.042   -25024.907    1955.8647    1.1610133    30.985945    30.985945    30.985945    29750.497 
 4343000    303.63254    281.83589   -23203.571   -25110.555    1906.9844    1.1610133    30.985945    30.985945    30.985945    29750.497 
 4344000    297.93281   -1230.0354   -23227.327   -25098.514    1871.1869    1.1610133    30.985945    30.985945    30.985945    29750.497 
 4345000    302.37951   -240.65978   -23107.956   -25007.071    1899.1147    1.1610133    30.985945    30.985945    30.985945    29750.497 
 4346000    292.91759     401.7543   -23265.137   -25104.826    1839.6885    1.1610133    30.985945    30.985945    30.985945    29750.497 
 4347000    302.45511   -775.56535   -23184.456   -25084.046    1899.5895    1.1610133    30.985945    30.985945    30.985945    29750.497 
 4348000    298.36702   -95.560739   -23229.483   -25103.397     1873.914    1.1610133    30.985945    30.985945    30.985945    29750.497 
 4349000    296.32694   -972.71437   -23234.357   -25095.458    1861.1011    1.1610133    30.985945    30.985945    30.985945    29750.497 
 4350000    292.93926   -1006.1267     -23203.6   -25043.424    1839.8246    1.1610133    30.985945    30.985945    30.985945    29750.497 
 4351000    295.49993   -431.43138   -23252.234   -25108.141     1855.907    1.1610133    30.985945    30.985945    30.985945    29750.497 
 4352000    302.90521   -1378.5016   -23153.214   -25055.631    1902.4164    1.1610133    30.985945    30.985945    30.985945    29750.497 
 4353000    303.25127   -733.54416   -23194.879   -25099.469    1904.5898    1.1610133    30.985945    30.985945    30.985945    29750.497 
 4354000    309.62001   -1196.4147   -23122.877   -25067.466    1944.5891    1.1610133    30.985945    30.985945    30.985945    29750.497 
 4355000    296.86152    -513.1851   -23252.118   -25116.577    1864.4586    1.1610133    30.985945    30.985945    30.985945    29750.497 
 4356000     288.5481   -887.25558   -23260.545    -25072.79    1812.2456    1.1610133    30.985945    30.985945    30.985945    29750.497 
 4357000    300.79977   -584.18454   -23125.387    -25014.58     1889.193    1.1610133    30.985945    30.985945    30.985945    29750.497 
 4358000    298.40722   -516.31845    -23172.04   -25046.206    1874.1665    1.1610133    30.985945    30.985945    30.985945    29750.497 
 4359000    308.36436   -681.92121   -23135.619   -25072.322     1936.703    1.1610133    30.985945    30.985945    30.985945    29750.497 
 4360000     297.8084   -1082.3754   -23212.992   -25083.397    1870.4055    1.1610133    30.985945    30.985945    30.985945    29750.497 
 4361000     289.6995   -636.23742    -23221.62   -25041.097     1819.477    1.1610133    30.985945    30.985945    30.985945    29750.497 
 4362000    300.42551   -859.33676    -23283.62   -25170.462    1886.8425    1.1610133    30.985945    30.985945    30.985945    29750.497 
 4363000    286.13946   -283.67354   -23324.042    -25121.16     1797.118    1.1610133    30.985945    30.985945    30.985945    29750.497 
 4364000    289.50741   -1652.3898   -23238.228   -25056.499    1818.2706    1.1610133    30.985945    30.985945    30.985945    29750.497 
 4365000    294.14918   -1050.9385   -23300.856    -25148.28    1847.4236    1.1610133    30.985945    30.985945    30.985945    29750.497 
 4366000    298.90941   -382.39207   -23140.059   -25017.379    1877.3205    1.1610133    30.985945    30.985945    30.985945    29750.497 
 4367000    297.74389   -623.70693       -23194       -25064    1870.0004    1.1610133    30.985945    30.985945    30.985945    29750.497 
 4368000    301.67455   -229.81446   -23097.362   -24992.049    1894.6871    1.1610133    30.985945    30.985945    30.985945    29750.497 
 4369000    287.50325   -662.02716   -23169.128   -24974.811    1805.6834    1.1610133    30.985945    30.985945    30.985945    29750.497 
 4370000     308.1162   -750.25421    -23111.67   -25046.814    1935.1444    1.1610133    30.985945    30.985945    30.985945    29750.497 
 4371000    292.74429    337.55022   -23285.036   -25123.636       1838.6    1.1610133    30.985945    30.985945    30.985945    29750.497 
 4372000    306.45729   -146.29634   -23131.243   -25055.968    1924.7255    1.1610133    30.985945    30.985945    30.985945    29750.497 
 4373000    291.71455   -1082.5632   -23182.749   -25014.882    1832.1327    1.1610133    30.985945    30.985945    30.985945    29750.497 
 4374000    298.69607   -209.57059   -23110.956   -24986.936    1875.9806    1.1610133    30.985945    30.985945    30.985945    29750.497 
 4375000    296.20916   -1087.9805   -23054.738   -24915.099    1860.3614    1.1610133    30.985945    30.985945    30.985945    29750.497 
 4376000    306.03502    323.86466   -23037.709   -24959.782    1922.0734    1.1610133    30.985945    30.985945    30.985945    29750.497 
 4377000    297.11104   -300.23284   -23115.546   -24981.571    1866.0257    1.1610133    30.985945    30.985945    30.985945    29750.497 
 4378000    298.01965    -600.9345   -23133.886   -25005.619    1871.7323    1.1610133    30.985945    30.985945    30.985945    29750.497 
 4379000    300.81162    -642.6403    -23126.85   -25016.117    1889.2675    1.1610133    30.985945    30.985945    30.985945    29750.497 
 4380000    303.96253   -446.16862    -23177.41   -25086.467     1909.057    1.1610133    30.985945    30.985945    30.985945    29750.497 
 4381000    299.74626   -547.45884   -23203.823   -25086.399    1882.5764    1.1610133    30.985945    30.985945    30.985945    29750.497 
 4382000    293.19311   -351.49256   -23264.706   -25106.125    1841.4189    1.1610133    30.985945    30.985945    30.985945    29750.497 
 4383000    289.12539    65.789002   -23218.919   -25034.791    1815.8713    1.1610133    30.985945    30.985945    30.985945    29750.497 
 4384000    296.96005   -727.96285   -23170.989   -25036.066    1865.0774    1.1610133    30.985945    30.985945    30.985945    29750.497 
 4385000    300.69767     -431.384   -23209.946   -25098.498    1888.5518    1.1610133    30.985945    30.985945    30.985945    29750.497 
 4386000    300.94125   -71.455166   -23219.916   -25109.998    1890.0816    1.1610133    30.985945    30.985945    30.985945    29750.497 
 4387000     288.6997    314.58355   -23299.547   -25112.745    1813.1978    1.1610133    30.985945    30.985945    30.985945    29750.497 
 4388000    301.39537   -624.07268   -23198.531   -25091.465    1892.9337    1.1610133    30.985945    30.985945    30.985945    29750.497 
 4389000    284.82298   -842.93923   -23230.553   -25019.402    1788.8498    1.1610133    30.985945    30.985945    30.985945    29750.497 
 4390000    298.93556   -331.64667   -23186.463   -25063.948    1877.4847    1.1610133    30.985945    30.985945    30.985945    29750.497 
 4391000    299.86779    319.03941   -23143.291   -25026.631    1883.3397    1.1610133    30.985945    30.985945    30.985945    29750.497 
 4392000    294.90929    792.46172    -23282.99   -25135.187    1852.1975    1.1610133    30.985945    30.985945    30.985945    29750.497 
 4393000     308.1047   -196.72482       -23261   -25196.072    1935.0721    1.1610133    30.985945    30.985945    30.985945    29750.497 
 4394000    294.42429    -523.8037   -23189.643   -25038.795    1849.1514    1.1610133    30.985945    30.985945    30.985945    29750.497 
 4395000    291.50653    428.75496   -23336.821   -25167.647    1830.8262    1.1610133    30.985945    30.985945    30.985945    29750.497 
 4396000    298.01921   -1077.1859   -23249.091   -25120.821    1871.7295    1.1610133    30.985945    30.985945    30.985945    29750.497 
 4397000    305.23532   -189.86232   -23144.674   -25061.725    1917.0508    1.1610133    30.985945    30.985945    30.985945    29750.497 
 4398000    283.17227   -392.88599   -23321.021   -25099.503    1778.4824    1.1610133    30.985945    30.985945    30.985945    29750.497 
 4399000    299.25877    -105.8547   -23168.587   -25048.101    1879.5147    1.1610133    30.985945    30.985945    30.985945    29750.497 
 4400000    298.48266   -847.78258    -23211.11    -25085.75    1874.6403    1.1610133    30.985945    30.985945    30.985945    29750.497 
 4401000      292.931   -657.94279   -23177.107    -25016.88    1839.7727    1.1610133    30.985945    30.985945    30.985945    29750.497 
 4402000    298.93802   -310.00004   -23306.021   -25183.521    1877.5002    1.1610133    30.985945    30.985945    30.985945    29750.497 
 4403000    300.45128   -936.24991   -23218.059   -25105.063    1887.0043    1.1610133    30.985945    30.985945    30.985945    29750.497 
 4404000    300.58277   -678.65044    -23192.49    -25080.32    1887.8302    1.1610133    30.985945    30.985945    30.985945    29750.497 
 4405000    295.66951   -427.26921   -23163.139   -25020.111    1856.9721    1.1610133    30.985945    30.985945    30.985945    29750.497 
 4406000    291.79515   -600.53948   -23191.623   -25024.262    1832.6389    1.1610133    30.985945    30.985945    30.985945    29750.497 
 4407000    298.26114   -272.63282   -23284.874   -25158.123     1873.249    1.1610133    30.985945    30.985945    30.985945    29750.497 
 4408000     299.1336   -282.00718   -23163.595   -25042.323    1878.7286    1.1610133    30.985945    30.985945    30.985945    29750.497 
 4409000     304.8368   -867.93184   -23177.764   -25092.312    1914.5479    1.1610133    30.985945    30.985945    30.985945    29750.497 
 4410000    293.78133    -315.3115   -23303.563   -25148.676    1845.1132    1.1610133    30.985945    30.985945    30.985945    29750.497 
 4411000    292.10665    442.34707   -23198.265    -25032.86    1834.5953    1.1610133    30.985945    30.985945    30.985945    29750.497 
 4412000    299.50301    -871.7659    -23222.07   -25103.119    1881.0487    1.1610133    30.985945    30.985945    30.985945    29750.497 
 4413000    297.15479   -1025.3909   -23169.991   -25036.291    1866.3005    1.1610133    30.985945    30.985945    30.985945    29750.497 
 4414000    290.46587   -589.18631   -23283.246   -25107.536    1824.2903    1.1610133    30.985945    30.985945    30.985945    29750.497 
 4415000    293.26242   -553.01896   -23234.658   -25076.512    1841.8542    1.1610133    30.985945    30.985945    30.985945    29750.497 
 4416000    302.11402    143.10299   -23127.844   -25025.292    1897.4473    1.1610133    30.985945    30.985945    30.985945    29750.497 
 4417000    296.94063     227.8905   -23169.373   -25034.328    1864.9555    1.1610133    30.985945    30.985945    30.985945    29750.497 
 4418000    302.83762   -1668.1499   -23107.281   -25009.273    1901.9919    1.1610133    30.985945    30.985945    30.985945    29750.497 
 4419000    302.00307   -1065.2774     -23279.1   -25175.851    1896.7505    1.1610133    30.985945    30.985945    30.985945    29750.497 
 4420000    298.58543   -698.90407   -23189.965   -25065.251    1875.2857    1.1610133    30.985945    30.985945    30.985945    29750.497 
 4421000    291.91959   -636.58743   -23314.344   -25147.764    1833.4205    1.1610133    30.985945    30.985945    30.985945    29750.497 
 4422000    302.75657   -362.06818   -23264.405   -25165.887    1901.4829    1.1610133    30.985945    30.985945    30.985945    29750.497 
 4423000    292.77627   -668.84747    -23305.16   -25143.961    1838.8009    1.1610133    30.985945    30.985945    30.985945    29750.497 
 4424000    289.34592    509.79883   -23232.571   -25049.828    1817.2563    1.1610133    30.985945    30.985945    30.985945    29750.497 
 4425000    306.30103   -805.71069   -23177.218   -25100.962    1923.7441    1.1610133    30.985945    30.985945    30.985945    29750.497 
 4426000    294.77003   -1030.7059   -23285.543   -25136.866    1851.3229    1.1610133    30.985945    30.985945    30.985945    29750.497 
 4427000    308.02319   -268.13818   -23069.756   -25004.316    1934.5602    1.1610133    30.985945    30.985945    30.985945    29750.497 
 4428000    295.07011   -549.20035   -23239.072   -25092.279    1853.2075    1.1610133    30.985945    30.985945    30.985945    29750.497 
 4429000    298.82242    551.50237   -23258.264   -25135.039    1876.7742    1.1610133    30.985945    30.985945    30.985945    29750.497 
 4430000    303.10331   -41.566061   -23132.431   -25036.091    1903.6606    1.1610133    30.985945    30.985945    30.985945    29750.497 
 4431000    293.62839   -788.09757   -23195.487    -25039.64    1844.1527    1.1610133    30.985945    30.985945    30.985945    29750.497 
 4432000    297.07472   -1278.8431   -23252.125   -25117.923    1865.7976    1.1610133    30.985945    30.985945    30.985945    29750.497 
 4433000    299.02192    -801.9684   -23193.474   -25071.501    1878.0271    1.1610133    30.985945    30.985945    30.985945    29750.497 
 4434000    299.95765   -557.40659   -23170.188   -25054.092     1883.904    1.1610133    30.985945    30.985945    30.985945    29750.497 
 4435000    309.73841   -825.12316   -23136.341   -25081.674    1945.3328    1.1610133    30.985945    30.985945    30.985945    29750.497 
 4436000    297.23906   -84.985809   -23200.711   -25067.541    1866.8297    1.1610133    30.985945    30.985945    30.985945    29750.497 
 4437000    298.48289    -235.9165   -23246.255   -25120.897    1874.6417    1.1610133    30.985945    30.985945    30.985945    29750.497 
 4438000    295.95391    250.77305   -23227.793   -25086.551    1858.7583    1.1610133    30.985945    30.985945    30.985945    29750.497 
 4439000    302.59501   -537.36671   -23166.663   -25067.132    1900.4682    1.1610133    30.985945    30.985945    30.985945    29750.497 
 4440000    301.94967   -517.04741   -23164.751   -25061.166    1896.4151    1.1610133    30.985945    30.985945    30.985945    29750.497 
 4441000     297.7434    -652.7894   -23140.929   -25010.927    1869.9973    1.1610133    30.985945    30.985945    30.985945    29750.497 
 4442000    287.84482    492.71574   -23344.265   -25152.094    1807.8286    1.1610133    30.985945    30.985945    30.985945    29750.497 
 4443000    297.56257   -471.11369    -23176.39   -25045.251    1868.8616    1.1610133    30.985945    30.985945    30.985945    29750.497 
 4444000    298.42058    541.88492   -23267.785   -25142.036    1874.2504    1.1610133    30.985945    30.985945    30.985945    29750.497 
 4445000    302.56955   -8.8743782   -23169.448   -25069.756    1900.3083    1.1610133    30.985945    30.985945    30.985945    29750.497 
 4446000    308.37913    653.25071   -23140.529   -25077.324    1936.7957    1.1610133    30.985945    30.985945    30.985945    29750.497 
 4447000    292.33834   -1334.8943   -23186.506   -25022.556    1836.0505    1.1610133    30.985945    30.985945    30.985945    29750.497 
 4448000    300.84621    -415.1446   -23131.158   -25020.643    1889.4847    1.1610133    30.985945    30.985945    30.985945    29750.497 
 4449000    302.74976   -45.971454   -23218.857   -25120.297    1901.4401    1.1610133    30.985945    30.985945    30.985945    29750.497 
 4450000     307.8958   -609.75584   -23115.781   -25049.541    1933.7601    1.1610133    30.985945    30.985945    30.985945    29750.497 
 4451000    295.49126     -1444.68   -23229.058    -25084.91    1855.8526    1.1610133    30.985945    30.985945    30.985945    29750.497 
 4452000    288.37995   -503.43248   -23253.866   -25065.055    1811.1895    1.1610133    30.985945    30.985945    30.985945    29750.497 
 4453000    295.76901   -677.25343   -23180.794   -25038.391     1857.597    1.1610133    30.985945    30.985945    30.985945    29750.497 
 4454000    300.80663   -575.13687   -23151.165   -25040.401    1889.2361    1.1610133    30.985945    30.985945    30.985945    29750.497 
 4455000    291.39822   -1289.7174   -23222.503   -25052.649     1830.146    1.1610133    30.985945    30.985945    30.985945    29750.497 
 4456000    296.77951   -969.49084   -23260.308   -25124.251    1863.9436    1.1610133    30.985945    30.985945    30.985945    29750.497 
 4457000    300.61004   -1271.9667   -23157.624   -25045.625    1888.0015    1.1610133    30.985945    30.985945    30.985945    29750.497 
 4458000    295.64358   -1337.4511   -23239.936   -25096.746    1856.8092    1.1610133    30.985945    30.985945    30.985945    29750.497 
 4459000    298.35244   -381.03244   -23187.664   -25061.487    1873.8224    1.1610133    30.985945    30.985945    30.985945    29750.497 
 4460000    292.24332   -790.40662    -23291.93   -25127.384    1835.4537    1.1610133    30.985945    30.985945    30.985945    29750.497 
 4461000    294.99931   -96.189336   -23154.321   -25007.083    1852.7629    1.1610133    30.985945    30.985945    30.985945    29750.497 
 4462000    303.99086   -67.653733   -23188.053   -25097.288    1909.2349    1.1610133    30.985945    30.985945    30.985945    29750.497 
 4463000    294.04542   -1336.0896   -23279.081   -25125.853    1846.7719    1.1610133    30.985945    30.985945    30.985945    29750.497 
 4464000    302.86047    277.99316   -23203.463   -25105.598    1902.1354    1.1610133    30.985945    30.985945    30.985945    29750.497 
 4465000    292.10496   -621.52127   -23216.467   -25051.051    1834.5847    1.1610133    30.985945    30.985945    30.985945    29750.497 
 4466000    296.88171   -286.65951    -23147.23   -25011.816    1864.5854    1.1610133    30.985945    30.985945    30.985945    29750.497 
 4467000    304.15245   -296.85324   -23175.071   -25085.321    1910.2498    1.1610133    30.985945    30.985945    30.985945    29750.497 
 4468000    300.36621    459.59332   -23143.227   -25029.697      1886.47    1.1610133    30.985945    30.985945    30.985945    29750.497 
 4469000    296.52826   -127.46231   -23221.294   -25083.659    1862.3655    1.1610133    30.985945    30.985945    30.985945    29750.497 
 4470000    297.17954   -80.997286   -23166.302   -25032.758     1866.456    1.1610133    30.985945    30.985945    30.985945    29750.497 
 4471000    299.35231    244.11626   -23150.486   -25030.588    1880.1022    1.1610133    30.985945    30.985945    30.985945    29750.497 
 4472000    297.13715    202.26545   -23118.294   -24984.484    1866.1897    1.1610133    30.985945    30.985945    30.985945    29750.497 
 4473000    297.78342   -1035.2704    -23223.99   -25094.239    1870.2486    1.1610133    30.985945    30.985945    30.985945    29750.497 
 4474000    303.12931   -27.164765   -23114.916    -25018.74    1903.8238    1.1610133    30.985945    30.985945    30.985945    29750.497 
 4475000    305.55428   -830.83171   -23232.728   -25151.782    1919.0541    1.1610133    30.985945    30.985945    30.985945    29750.497 
 4476000     295.0285   -122.40337   -23169.306   -25022.252    1852.9462    1.1610133    30.985945    30.985945    30.985945    29750.497 
 4477000    293.25768   -351.34862   -23210.847   -25052.671    1841.8244    1.1610133    30.985945    30.985945    30.985945    29750.497 
 4478000    292.61072    117.50804   -23164.417   -25002.178    1837.7612    1.1610133    30.985945    30.985945    30.985945    29750.497 
 4479000     297.7263   -645.24367   -23143.225   -25013.115    1869.8899    1.1610133    30.985945    30.985945    30.985945    29750.497 
 4480000    295.63132   -586.05387   -23243.426   -25100.158    1856.7322    1.1610133    30.985945    30.985945    30.985945    29750.497 
 4481000     293.0544    -588.9668   -23262.133   -25102.681    1840.5477    1.1610133    30.985945    30.985945    30.985945    29750.497 
 4482000    298.93422    158.07837   -23155.111   -25032.588    1877.4763    1.1610133    30.985945    30.985945    30.985945    29750.497 
 4483000    289.33996   -750.05039   -23256.244   -25073.463     1817.219    1.1610133    30.985945    30.985945    30.985945    29750.497 
 4484000     308.2594   -243.96679   -23125.788   -25061.832    1936.0437    1.1610133    30.985945    30.985945    30.985945    29750.497 
 4485000    301.04004   -755.14384   -23166.058    -25056.76    1890.7021    1.1610133    30.985945    30.985945    30.985945    29750.497 
 4486000    288.66953   -369.86135   -23270.412    -25083.42    1813.0083    1.1610133    30.985945    30.985945    30.985945    29750.497 
 4487000    298.28429   -469.24788   -23105.209   -24978.603    1873.3944    1.1610133    30.985945    30.985945    30.985945    29750.497 
 4488000    296.06892    -264.1234    -23226.21    -25085.69    1859.4806    1.1610133    30.985945    30.985945    30.985945    29750.497 
 4489000    304.27615   -645.98012    -23216.48   -25127.506    1911.0267    1.1610133    30.985945    30.985945    30.985945    29750.497 
 4490000     293.3151   -834.87995   -23251.231   -25093.416    1842.1851    1.1610133    30.985945    30.985945    30.985945    29750.497 
 4491000    298.34214   -28.891361    -23162.69   -25036.448    1873.7577    1.1610133    30.985945    30.985945    30.985945    29750.497 
 4492000    303.00429    194.22555   -23188.045   -25091.084    1903.0387    1.1610133    30.985945    30.985945    30.985945    29750.497 
 4493000    302.49847   -490.81684   -23206.907   -25106.769    1899.8619    1.1610133    30.985945    30.985945    30.985945    29750.497 
 4494000    301.70279    740.57991   -23131.576   -25026.441    1894.8645    1.1610133    30.985945    30.985945    30.985945    29750.497 
 4495000     300.8924   -1615.0706   -23285.088   -25174.863    1889.7748    1.1610133    30.985945    30.985945    30.985945    29750.497 
 4496000     293.5967   -371.97465   -23215.512   -25059.466    1843.9537    1.1610133    30.985945    30.985945    30.985945    29750.497 
 4497000    291.14937   -463.56998   -23249.216   -25077.799    1828.5831    1.1610133    30.985945    30.985945    30.985945    29750.497 
 4498000    291.99178   -613.22302   -23226.645   -25060.519    1833.8739    1.1610133    30.985945    30.985945    30.985945    29750.497 
 4499000    303.39931    72.366494   -23152.043   -25057.563    1905.5196    1.1610133    30.985945    30.985945    30.985945    29750.497 
 4500000     311.0398   -473.65017   -23276.061   -25229.567    1953.5062    1.1610133    30.985945    30.985945    30.985945    29750.497 
 4501000    295.85746    120.31059   -23228.969   -25087.121    1858.1525    1.1610133    30.985945    30.985945    30.985945    29750.497 
 4502000    290.02302   -267.27121   -23324.375   -25145.884     1821.509    1.1610133    30.985945    30.985945    30.985945    29750.497 
 4503000    292.71648    229.42861   -23215.623   -25054.048    1838.4254    1.1610133    30.985945    30.985945    30.985945    29750.497 
 4504000    303.12585   -789.40876    -23157.37   -25061.172    1903.8021    1.1610133    30.985945    30.985945    30.985945    29750.497 
 4505000    294.90681   -653.28278   -23188.721   -25040.903    1852.1819    1.1610133    30.985945    30.985945    30.985945    29750.497 
 4506000    298.35394   -480.53675   -23255.788    -25129.62    1873.8319    1.1610133    30.985945    30.985945    30.985945    29750.497 
 4507000    294.64235   -197.98537   -23214.769   -25065.289    1850.5209    1.1610133    30.985945    30.985945    30.985945    29750.497 
 4508000    295.64048    214.99239   -23118.933   -24975.722    1856.7898    1.1610133    30.985945    30.985945    30.985945    29750.497 
 4509000    297.19142   -589.56258   -23219.571   -25086.102    1866.5306    1.1610133    30.985945    30.985945    30.985945    29750.497 
 4510000    292.05786   -1203.1259   -23150.712   -24985.001    1834.2889    1.1610133    30.985945    30.985945    30.985945    29750.497 
 4511000    291.71417   -114.35438   -23268.984   -25101.115    1832.1303    1.1610133    30.985945    30.985945    30.985945    29750.497 
 4512000    300.98046    417.46729   -23119.507   -25009.835    1890.3279    1.1610133    30.985945    30.985945    30.985945    29750.497 
 4513000    297.91037   -258.89149    -23196.64   -25067.686    1871.0459    1.1610133    30.985945    30.985945    30.985945    29750.497 
 4514000    291.92285   -1031.4629   -23265.556   -25098.997    1833.4409    1.1610133    30.985945    30.985945    30.985945    29750.497 
 4515000    300.36927   -946.40886   -23303.483   -25189.972    1886.4892    1.1610133    30.985945    30.985945    30.985945    29750.497 
 4516000    302.76659   -435.26347    -23124.54   -25026.085    1901.5458    1.1610133    30.985945    30.985945    30.985945    29750.497 
 4517000    300.56328   -871.53273   -23236.951   -25124.658    1887.7078    1.1610133    30.985945    30.985945    30.985945    29750.497 
 4518000     306.3442   -223.30248   -23177.734   -25101.749    1924.0152    1.1610133    30.985945    30.985945    30.985945    29750.497 
 4519000    298.58828    183.79263   -23196.619   -25071.923    1875.3036    1.1610133    30.985945    30.985945    30.985945    29750.497 
 4520000    305.42419    202.73525   -23157.077   -25075.314     1918.237    1.1610133    30.985945    30.985945    30.985945    29750.497 
 4521000    294.47038     425.8809   -23104.549    -24953.99    1849.4409    1.1610133    30.985945    30.985945    30.985945    29750.497 
 4522000    298.10215    414.65163   -23142.984   -25015.235    1872.2504    1.1610133    30.985945    30.985945    30.985945    29750.497 
 4523000    295.80813   -355.42715   -23177.174   -25035.017    1857.8427    1.1610133    30.985945    30.985945    30.985945    29750.497 
 4524000    310.80571   -75.120216   -23076.275   -25028.311     1952.036    1.1610133    30.985945    30.985945    30.985945    29750.497 
 4525000    296.68974   -544.72178   -23187.463   -25050.843    1863.3797    1.1610133    30.985945    30.985945    30.985945    29750.497 
 4526000    298.68901    599.14055   -23244.993    -25120.93    1875.9363    1.1610133    30.985945    30.985945    30.985945    29750.497 
 4527000    288.38487    -659.3415   -23293.302   -25104.523    1811.2204    1.1610133    30.985945    30.985945    30.985945    29750.497 
 4528000    296.36861   -492.81849   -23196.295   -25057.658    1861.3629    1.1610133    30.985945    30.985945    30.985945    29750.497 
 4529000    293.89404   -1411.2389   -23207.162   -25052.983    1845.8212    1.1610133    30.985945    30.985945    30.985945    29750.497 
 4530000    293.39564   -404.89236   -23184.046   -25026.737    1842.6909    1.1610133    30.985945    30.985945    30.985945    29750.497 
 4531000    292.85125     -527.567    -23137.66   -24976.932    1839.2718    1.1610133    30.985945    30.985945    30.985945    29750.497 
 4532000    302.20396   -181.53187   -23171.603   -25069.615    1898.0122    1.1610133    30.985945    30.985945    30.985945    29750.497 
 4533000    299.57437    16.099552   -23276.513   -25158.009    1881.4968    1.1610133    30.985945    30.985945    30.985945    29750.497 
 4534000    303.20447   -1032.7681   -23180.944    -25085.24    1904.2959    1.1610133    30.985945    30.985945    30.985945    29750.497 
 4535000    289.28561   -636.07686   -23303.372   -25120.249    1816.8776    1.1610133    30.985945    30.985945    30.985945    29750.497 
 4536000    302.56044   -89.319589   -23235.359    -25135.61     1900.251    1.1610133    30.985945    30.985945    30.985945    29750.497 
 4537000    297.95129   -141.46825   -23290.597     -25161.9     1871.303    1.1610133    30.985945    30.985945    30.985945    29750.497 
 4538000    298.28274   -26.393777   -23207.505    -25080.89    1873.3847    1.1610133    30.985945    30.985945    30.985945    29750.497 
 4539000    302.26075    70.005414   -23208.102   -25106.471    1898.3688    1.1610133    30.985945    30.985945    30.985945    29750.497 
 4540000     296.8661    481.12467   -23322.947   -25187.434    1864.4873    1.1610133    30.985945    30.985945    30.985945    29750.497 
 4541000    300.46466   -488.55923   -23326.599   -25213.688    1887.0883    1.1610133    30.985945    30.985945    30.985945    29750.497 
 4542000    295.81364   -236.11755   -23158.359   -25016.236    1857.8773    1.1610133    30.985945    30.985945    30.985945    29750.497 
 4543000    297.09358   -589.76765   -23185.937   -25051.853     1865.916    1.1610133    30.985945    30.985945    30.985945    29750.497 
 4544000    295.17395   -399.05542   -23147.149   -25001.009    1853.8597    1.1610133    30.985945    30.985945    30.985945    29750.497 
 4545000    294.82912    -319.8327   -23253.515   -25105.209     1851.694    1.1610133    30.985945    30.985945    30.985945    29750.497 
 4546000    295.17851     148.0882   -23245.745   -25099.633    1853.8883    1.1610133    30.985945    30.985945    30.985945    29750.497 
 4547000    294.06499   -114.57531   -23205.474   -25052.369    1846.8948    1.1610133    30.985945    30.985945    30.985945    29750.497 
 4548000    300.42594   -224.30679   -23129.103   -25015.948    1886.8452    1.1610133    30.985945    30.985945    30.985945    29750.497 
 4549000    288.36609    33.792416   -23292.696   -25103.798    1811.1025    1.1610133    30.985945    30.985945    30.985945    29750.497 
 4550000    291.32589   -539.28777   -23268.494   -25098.185    1829.6917    1.1610133    30.985945    30.985945    30.985945    29750.497 
 4551000    291.20664   -503.82641   -23241.471   -25070.414    1828.9428    1.1610133    30.985945    30.985945    30.985945    29750.497 
 4552000     300.3006   -144.43756   -23221.341   -25107.399     1886.058    1.1610133    30.985945    30.985945    30.985945    29750.497 
 4553000     299.2325   -553.57867   -23214.849   -25094.199    1879.3497    1.1610133    30.985945    30.985945    30.985945    29750.497 
 4554000    294.93102   -1146.4878   -23239.572   -25091.906     1852.334    1.1610133    30.985945    30.985945    30.985945    29750.497 
 4555000    291.09304   -426.07029   -23337.282   -25165.512    1828.2293    1.1610133    30.985945    30.985945    30.985945    29750.497 
 4556000    309.42223    75.578322   -23079.368   -25022.715    1943.3469    1.1610133    30.985945    30.985945    30.985945    29750.497 
 4557000    301.90162    63.633344   -23185.862   -25081.975    1896.1133    1.1610133    30.985945    30.985945    30.985945    29750.497 
 4558000    302.70974   -311.98193   -23185.864   -25087.052    1901.1888    1.1610133    30.985945    30.985945    30.985945    29750.497 
 4559000    307.60029   -292.49442   -23166.858   -25098.762    1931.9042    1.1610133    30.985945    30.985945    30.985945    29750.497 
 4560000     293.8976   -111.00333   -23198.249   -25044.093    1845.8435    1.1610133    30.985945    30.985945    30.985945    29750.497 
 4561000    292.97232    113.15278    -23251.38   -25091.413    1840.0322    1.1610133    30.985945    30.985945    30.985945    29750.497 
 4562000    304.89579    -252.2978   -23150.441   -25065.359    1914.9184    1.1610133    30.985945    30.985945    30.985945    29750.497 
 4563000    293.89775   -1018.1178    -23259.67   -25105.514    1845.8444    1.1610133    30.985945    30.985945    30.985945    29750.497 
 4564000    303.96384   -282.60619   -23170.782   -25079.847    1909.0652    1.1610133    30.985945    30.985945    30.985945    29750.497 
 4565000     291.7929   -284.65756   -23279.278   -25111.903    1832.6248    1.1610133    30.985945    30.985945    30.985945    29750.497 
 4566000    288.51391   -211.87594   -23241.204   -25053.235    1812.0308    1.1610133    30.985945    30.985945    30.985945    29750.497 
 4567000    300.49388    -135.9194   -23150.298    -25037.57    1887.2719    1.1610133    30.985945    30.985945    30.985945    29750.497 
 4568000    296.29857   -411.74945   -23246.448   -25107.371     1860.923    1.1610133    30.985945    30.985945    30.985945    29750.497 
 4569000    302.51915   -746.96915   -23129.067   -25029.059    1899.9917    1.1610133    30.985945    30.985945    30.985945    29750.497 
 4570000    296.62913    15.753071   -23231.594   -25094.593     1862.999    1.1610133    30.985945    30.985945    30.985945    29750.497 
 4571000    306.14653    108.09823   -23124.707   -25047.481    1922.7737    1.1610133    30.985945    30.985945    30.985945    29750.497 
 4572000    303.36262   -86.675483   -23178.317   -25083.606    1905.2892    1.1610133    30.985945    30.985945    30.985945    29750.497 
 4573000    295.10492    446.73421   -23245.313   -25098.739    1853.4261    1.1610133    30.985945    30.985945    30.985945    29750.497 
 4574000    298.27349   -630.95611   -23200.716   -25074.042    1873.3266    1.1610133    30.985945    30.985945    30.985945    29750.497 
 4575000     306.5804   -1253.6903   -23155.567   -25081.066    1925.4987    1.1610133    30.985945    30.985945    30.985945    29750.497 
 4576000    304.49755   -726.74952   -23237.688   -25150.106    1912.4172    1.1610133    30.985945    30.985945    30.985945    29750.497 
 4577000    296.05067   -1058.9361   -23288.088   -25147.454     1859.366    1.1610133    30.985945    30.985945    30.985945    29750.497 
 4578000    302.92994   -1030.0217   -23262.652   -25165.224    1902.5717    1.1610133    30.985945    30.985945    30.985945    29750.497 
 4579000    307.34003   -1042.0097   -23082.363   -25012.633    1930.2696    1.1610133    30.985945    30.985945    30.985945    29750.497 
 4580000    296.49119    7.1488019    -23264.01   -25126.143    1862.1327    1.1610133    30.985945    30.985945    30.985945    29750.497 
 4581000    299.80052   -974.82378   -23165.271   -25048.188    1882.9172    1.1610133    30.985945    30.985945    30.985945    29750.497 
 4582000     295.3893   -177.43457   -23229.611   -25084.823    1855.2122    1.1610133    30.985945    30.985945    30.985945    29750.497 
 4583000    297.62067   -862.02307   -23172.801   -25042.027    1869.2265    1.1610133    30.985945    30.985945    30.985945    29750.497 
 4584000    296.74648   -840.58136   -23218.665   -25082.401    1863.7361    1.1610133    30.985945    30.985945    30.985945    29750.497 
 4585000    291.64892   -1073.8789   -23201.604   -25033.324    1831.7205    1.1610133    30.985945    30.985945    30.985945    29750.497 
 4586000    290.46871   -177.13879   -23186.481    -25010.79    1824.3081    1.1610133    30.985945    30.985945    30.985945    29750.497 
 4587000    297.96789    -195.0391   -23167.274   -25038.681    1871.4072    1.1610133    30.985945    30.985945    30.985945    29750.497 
 4588000     295.1094   -640.38418   -23214.909   -25068.364    1853.4543    1.1610133    30.985945    30.985945    30.985945    29750.497 
 4589000    306.02331   -438.56266   -23180.871    -25102.87    1921.9999    1.1610133    30.985945    30.985945    30.985945    29750.497 
 4590000    295.62836   -418.70973   -23308.845   -25165.559    1856.7137    1.1610133    30.985945    30.985945    30.985945    29750.497 
 4591000     294.9484   -44.583653   -23289.376   -25141.819    1852.4431    1.1610133    30.985945    30.985945    30.985945    29750.497 
 4592000    302.93894   -50.133992   -23218.944   -25121.573    1902.6282    1.1610133    30.985945    30.985945    30.985945    29750.497 
 4593000    307.52325    42.207795   -23175.908   -25107.328    1931.4203    1.1610133    30.985945    30.985945    30.985945    29750.497 
 4594000    294.53154   -374.80438   -23271.002   -25120.827     1849.825    1.1610133    30.985945    30.985945    30.985945    29750.497 
 4595000    295.55767   -455.23501   -23323.103   -25179.373    1856.2697    1.1610133    30.985945    30.985945    30.985945    29750.497 
 4596000     305.8196    -760.6671    -23246.68     -25167.4    1920.7204    1.1610133    30.985945    30.985945    30.985945    29750.497 
 4597000    290.57732   -326.73772   -23328.268   -25153.258    1824.9902    1.1610133    30.985945    30.985945    30.985945    29750.497 
 4598000    301.07264   -418.17136   -23132.176   -25023.083    1890.9068    1.1610133    30.985945    30.985945    30.985945    29750.497 
 4599000    295.72493   -929.45886   -23284.464   -25141.784    1857.3202    1.1610133    30.985945    30.985945    30.985945    29750.497 
 4600000    295.19682   -675.62603   -23170.223   -25024.226    1854.0033    1.1610133    30.985945    30.985945    30.985945    29750.497 
 4601000     299.1788    203.95964   -23191.497   -25070.509    1879.0124    1.1610133    30.985945    30.985945    30.985945    29750.497 
 4602000    295.55212   -281.92563   -23298.265     -25154.5    1856.2348    1.1610133    30.985945    30.985945    30.985945    29750.497 
 4603000    300.57178   -210.11096   -23270.033   -25157.794    1887.7611    1.1610133    30.985945    30.985945    30.985945    29750.497 
 4604000    302.04268   -580.87932   -23182.444   -25079.444    1896.9992    1.1610133    30.985945    30.985945    30.985945    29750.497 
 4605000    304.49717   -331.44558   -23198.926   -25111.341    1912.4148    1.1610133    30.985945    30.985945    30.985945    29750.497 
 4606000    292.69841   -804.28556   -23210.242   -25048.554    1838.3119    1.1610133    30.985945    30.985945    30.985945    29750.497 
 4607000     297.4605   -936.41816   -23226.445   -25094.665    1868.2205    1.1610133    30.985945    30.985945    30.985945    29750.497 
 4608000    293.37064   -962.76643   -23210.535   -25053.069    1842.5339    1.1610133    30.985945    30.985945    30.985945    29750.497 
 4609000    297.49044   -385.92297   -23120.238   -24988.647    1868.4086    1.1610133    30.985945    30.985945    30.985945    29750.497 
 4610000    298.36441    426.98939   -23170.832    -25044.73    1873.8976    1.1610133    30.985945    30.985945    30.985945    29750.497 
 4611000     293.8923   -976.62962   -23225.296   -25071.106    1845.8102    1.1610133    30.985945    30.985945    30.985945    29750.497 
 4612000    300.10444   -594.44451   -23243.771   -25128.597     1884.826    1.1610133    30.985945    30.985945    30.985945    29750.497 
 4613000    294.36623   -807.75177   -23244.384   -25093.171    1848.7868    1.1610133    30.985945    30.985945    30.985945    29750.497 
 4614000    295.83066   -663.59979   -23271.743   -25129.728    1857.9842    1.1610133    30.985945    30.985945    30.985945    29750.497 
 4615000    303.79849   -442.66455   -23154.127   -25062.154    1908.0267    1.1610133    30.985945    30.985945    30.985945    29750.497 
 4616000    302.81851    -317.1815   -23177.911   -25079.783    1901.8718    1.1610133    30.985945    30.985945    30.985945    29750.497 
 4617000    299.24258   -497.83508   -23195.905   -25075.318     1879.413    1.1610133    30.985945    30.985945    30.985945    29750.497 
 4618000    290.73484   -1002.8845   -23292.223   -25118.203    1825.9796    1.1610133    30.985945    30.985945    30.985945    29750.497 
 4619000    303.32584   -782.43797   -23208.837   -25113.895    1905.0582    1.1610133    30.985945    30.985945    30.985945    29750.497 
 4620000    302.92499    1263.0073    -23179.28    -25081.82    1902.5406    1.1610133    30.985945    30.985945    30.985945    29750.497 
 4621000    297.79669    -699.0676   -23272.237   -25142.569     1870.332    1.1610133    30.985945    30.985945    30.985945    29750.497 
 4622000    297.38092   -175.13696   -23204.089   -25071.809    1867.7207    1.1610133    30.985945    30.985945    30.985945    29750.497 
 4623000    298.33185    120.17573   -23234.107     -25107.8    1873.6931    1.1610133    30.985945    30.985945    30.985945    29750.497 
 4624000    286.13858   -286.63098   -23292.841   -25089.953    1797.1125    1.1610133    30.985945    30.985945    30.985945    29750.497 
 4625000     298.5348   -772.04478     -23219.9   -25094.868    1874.9677    1.1610133    30.985945    30.985945    30.985945    29750.497 
 4626000    300.62884    -952.2797   -23215.897   -25104.017    1888.1195    1.1610133    30.985945    30.985945    30.985945    29750.497 
 4627000    299.45511   -535.36036   -23159.369   -25040.117    1880.7478    1.1610133    30.985945    30.985945    30.985945    29750.497 
 4628000    296.76357   -793.69309   -23257.813   -25121.656    1863.8434    1.1610133    30.985945    30.985945    30.985945    29750.497 
 4629000     293.2876   -116.53364   -23223.997   -25066.009    1842.0124    1.1610133    30.985945    30.985945    30.985945    29750.497 
 4630000    297.15513    346.62746   -23282.194   -25148.496    1866.3027    1.1610133    30.985945    30.985945    30.985945    29750.497 
 4631000    303.15833    117.90882   -23119.945   -25023.951    1904.0061    1.1610133    30.985945    30.985945    30.985945    29750.497 
 4632000    301.30763    534.20598   -23193.498   -25085.881    1892.3827    1.1610133    30.985945    30.985945    30.985945    29750.497 
 4633000     298.3024   -1290.6426   -23196.647   -25070.155    1873.5081    1.1610133    30.985945    30.985945    30.985945    29750.497 
 4634000    292.04813   -255.14408   -23218.984   -25053.212    1834.2278    1.1610133    30.985945    30.985945    30.985945    29750.497 
 4635000    292.15086   -659.27178   -23293.555   -25128.428     1834.873    1.1610133    30.985945    30.985945    30.985945    29750.497 
 4636000    294.21172   -870.16128   -23270.881   -25118.698    1847.8163    1.1610133    30.985945    30.985945    30.985945    29750.497 
 4637000    299.31539   -239.51256   -23300.961   -25180.831    1879.8703    1.1610133    30.985945    30.985945    30.985945    29750.497 
 4638000    300.60194   -637.44613   -23219.159    -25107.11    1887.9506    1.1610133    30.985945    30.985945    30.985945    29750.497 
 4639000    308.00925    -46.47233   -23091.431   -25025.904    1934.4727    1.1610133    30.985945    30.985945    30.985945    29750.497 
 4640000    289.59058   -1232.4333   -23297.508   -25116.301     1818.793    1.1610133    30.985945    30.985945    30.985945    29750.497 
 4641000    301.19938    -42.68165   -23149.087    -25040.79    1891.7028    1.1610133    30.985945    30.985945    30.985945    29750.497 
 4642000    300.82183   -582.72267    -23136.19   -25025.522    1889.3316    1.1610133    30.985945    30.985945    30.985945    29750.497 
 4643000    291.03081   -613.07587   -23246.268   -25074.106    1827.8385    1.1610133    30.985945    30.985945    30.985945    29750.497 
 4644000    300.88914   -41.117308   -23170.906   -25060.661    1889.7543    1.1610133    30.985945    30.985945    30.985945    29750.497 
 4645000    296.99945   -262.27416   -23226.025    -25091.35    1865.3249    1.1610133    30.985945    30.985945    30.985945    29750.497 
 4646000    294.96231   -130.36438   -23133.217   -24985.747    1852.5305    1.1610133    30.985945    30.985945    30.985945    29750.497 
 4647000    290.04513   -284.72408   -23193.793   -25015.441    1821.6478    1.1610133    30.985945    30.985945    30.985945    29750.497 
 4648000    289.97274   -226.12051   -23173.875   -24995.068    1821.1932    1.1610133    30.985945    30.985945    30.985945    29750.497 
 4649000    293.01778   -1155.0241   -23156.571   -24996.889    1840.3177    1.1610133    30.985945    30.985945    30.985945    29750.497 
 4650000     297.2079    -943.9519   -23209.691   -25076.325    1866.6341    1.1610133    30.985945    30.985945    30.985945    29750.497 
 4651000    307.32143   -2107.5131   -23110.001   -25040.154    1930.1528    1.1610133    30.985945    30.985945    30.985945    29750.497 
 4652000    300.17341   -186.35206   -23186.915   -25072.174    1885.2592    1.1610133    30.985945    30.985945    30.985945    29750.497 
 4653000    304.52783   -128.40169   -23138.108   -25050.715    1912.6074    1.1610133    30.985945    30.985945    30.985945    29750.497 
 4654000    301.22237   -313.88027   -23223.133    -25114.98    1891.8472    1.1610133    30.985945    30.985945    30.985945    29750.497 
 4655000    301.81977    -915.0225   -23155.216   -25050.815    1895.5993    1.1610133    30.985945    30.985945    30.985945    29750.497 
 4656000    298.82915     -603.756   -23095.836   -24972.652    1876.8164    1.1610133    30.985945    30.985945    30.985945    29750.497 
 4657000    299.49473      74.6318   -23148.906   -25029.902    1880.9967    1.1610133    30.985945    30.985945    30.985945    29750.497 
 4658000    298.30209     439.1478   -23185.152   -25058.658    1873.5062    1.1610133    30.985945    30.985945    30.985945    29750.497 
 4659000    293.38938    630.06892   -23228.696   -25071.347    1842.6516    1.1610133    30.985945    30.985945    30.985945    29750.497 
 4660000    306.63276   -1131.3675   -23115.295   -25041.122    1925.8275    1.1610133    30.985945    30.985945    30.985945    29750.497 
 4661000    300.32211   -551.43392    -23233.65   -25119.843     1886.193    1.1610133    30.985945    30.985945    30.985945    29750.497 
 4662000    300.72681    327.36484   -23203.869   -25092.604    1888.7348    1.1610133    30.985945    30.985945    30.985945    29750.497 
 4663000    294.15312   -632.28077    -23222.13   -25069.578    1847.4483    1.1610133    30.985945    30.985945    30.985945    29750.497 
 4664000    295.03066   -479.64445    -23207.03    -25059.99    1852.9598    1.1610133    30.985945    30.985945    30.985945    29750.497 
 4665000    297.09662   -182.25822   -23208.985    -25074.92    1865.9352    1.1610133    30.985945    30.985945    30.985945    29750.497 
 4666000    310.10561   -56.524235   -23093.585   -25041.224     1947.639    1.1610133    30.985945    30.985945    30.985945    29750.497 
 4667000    304.93815   -851.94788   -23102.296   -25017.481    1915.1844    1.1610133    30.985945    30.985945    30.985945    29750.497 
 4668000    300.27132    49.824463   -23137.789   -25023.664    1885.8741    1.1610133    30.985945    30.985945    30.985945    29750.497 
 4669000    292.00138    -827.4562   -23250.526    -25084.46    1833.9341    1.1610133    30.985945    30.985945    30.985945    29750.497 
 4670000    301.98301   -449.32147   -23203.326    -25099.95    1896.6244    1.1610133    30.985945    30.985945    30.985945    29750.497 
 4671000    288.09392    661.59835   -23287.971   -25097.365    1809.3931    1.1610133    30.985945    30.985945    30.985945    29750.497 
 4672000    304.77344    314.61337   -23155.702   -25069.852    1914.1499    1.1610133    30.985945    30.985945    30.985945    29750.497 
 4673000    306.58658   -905.25194   -23149.587   -25075.124    1925.5375    1.1610133    30.985945    30.985945    30.985945    29750.497 
 4674000    295.00469    475.26738    -23222.62   -25075.417    1852.7966    1.1610133    30.985945    30.985945    30.985945    29750.497 
 4675000     308.1565    191.28848   -23125.482   -25060.879    1935.3975    1.1610133    30.985945    30.985945    30.985945    29750.497 
 4676000    294.23182     -343.833    -23210.77   -25058.713    1847.9426    1.1610133    30.985945    30.985945    30.985945    29750.497 
 4677000    297.39962   -1045.5254    -23259.58   -25127.418    1867.8382    1.1610133    30.985945    30.985945    30.985945    29750.497 
 4678000    301.43523   -554.57436   -23238.396    -25131.58    1893.1841    1.1610133    30.985945    30.985945    30.985945    29750.497 
 4679000    301.93778   -797.83887   -23141.023   -25037.363    1896.3404    1.1610133    30.985945    30.985945    30.985945    29750.497 
 4680000    288.49032   -457.93343   -23341.245   -25153.128    1811.8827    1.1610133    30.985945    30.985945    30.985945    29750.497 
 4681000    304.54673   -458.30353   -23172.279   -25085.005    1912.7261    1.1610133    30.985945    30.985945    30.985945    29750.497 
 4682000    288.16336   -48.610246   -23252.779   -25062.608    1809.8292    1.1610133    30.985945    30.985945    30.985945    29750.497 
 4683000    299.38784   -304.56612   -23248.611   -25128.937    1880.3253    1.1610133    30.985945    30.985945    30.985945    29750.497 
 4684000    302.37309   -606.63112   -23318.118   -25217.192    1899.0744    1.1610133    30.985945    30.985945    30.985945    29750.497 
 4685000    295.30876    381.92063   -23249.922   -25104.628    1854.7064    1.1610133    30.985945    30.985945    30.985945    29750.497 
 4686000    299.39729    376.62729   -23247.356   -25127.741    1880.3846    1.1610133    30.985945    30.985945    30.985945    29750.497 
 4687000    293.87168   -122.19085   -23182.558   -25028.238    1845.6807    1.1610133    30.985945    30.985945    30.985945    29750.497 
 4688000    301.12933   -314.75062   -23214.721   -25105.983    1891.2628    1.1610133    30.985945    30.985945    30.985945    29750.497 
 4689000    293.08183     877.1767   -23221.973   -25062.693      1840.72    1.1610133    30.985945    30.985945    30.985945    29750.497 
 4690000    296.82415   -558.61013    -23159.07   -25023.294    1864.2239    1.1610133    30.985945    30.985945    30.985945    29750.497 
 4691000    304.06929    204.45449   -23112.188   -25021.915    1909.7274    1.1610133    30.985945    30.985945    30.985945    29750.497 
 4692000    301.23343    378.98517   -23226.615   -25118.531    1891.9167    1.1610133    30.985945    30.985945    30.985945    29750.497 
 4693000    302.90275    459.44145   -23104.963   -25007.364    1902.4009    1.1610133    30.985945    30.985945    30.985945    29750.497 
 4694000    296.91365   -292.64717   -23106.846   -24971.632     1864.786    1.1610133    30.985945    30.985945    30.985945    29750.497 
 4695000    295.46803   -158.39135   -23190.719   -25046.426    1855.7067    1.1610133    30.985945    30.985945    30.985945    29750.497 
 4696000    303.06378   -887.04802   -23159.491   -25062.903    1903.4123    1.1610133    30.985945    30.985945    30.985945    29750.497 
 4697000    303.03573   -440.15656   -23163.684    -25066.92    1903.2362    1.1610133    30.985945    30.985945    30.985945    29750.497 
 4698000    292.59653   -145.47041   -23296.307    -25133.98    1837.6721    1.1610133    30.985945    30.985945    30.985945    29750.497 
 4699000    305.31125   -964.02668   -23153.186   -25070.714    1917.5277    1.1610133    30.985945    30.985945    30.985945    29750.497 
 4700000    289.45548   -885.72663   -23202.127   -25020.071    1817.9445    1.1610133    30.985945    30.985945    30.985945    29750.497 
 4701000    285.93881   -421.97337   -23339.334   -25135.191    1795.8578    1.1610133    30.985945    30.985945    30.985945    29750.497 
 4702000    296.03991   -450.64686   -23243.085   -25102.383    1859.2984    1.1610133    30.985945    30.985945    30.985945    29750.497 
 4703000    298.29948   -421.61623   -23231.209   -25104.699    1873.4898    1.1610133    30.985945    30.985945    30.985945    29750.497 
 4704000    299.19926   -659.22439   -23218.626   -25097.767     1879.141    1.1610133    30.985945    30.985945    30.985945    29750.497 
 4705000    298.12763   -386.48347   -23234.817   -25107.227    1872.4105    1.1610133    30.985945    30.985945    30.985945    29750.497 
 4706000    298.91219  -0.93896287   -23221.087   -25098.425    1877.3379    1.1610133    30.985945    30.985945    30.985945    29750.497 
 4707000    295.56245    473.28861    -23271.62   -25127.919    1856.2997    1.1610133    30.985945    30.985945    30.985945    29750.497 
 4708000    305.94521    181.65279   -23169.417   -25090.927    1921.5094    1.1610133    30.985945    30.985945    30.985945    29750.497 
 4709000    295.72042   -991.80394   -23204.562   -25061.854    1857.2919    1.1610133    30.985945    30.985945    30.985945    29750.497 
 4710000    288.72792   -802.07652   -23263.562   -25076.937     1813.375    1.1610133    30.985945    30.985945    30.985945    29750.497 
 4711000    299.87058    131.77536   -23156.418   -25039.775    1883.3572    1.1610133    30.985945    30.985945    30.985945    29750.497 
 4712000    297.82682   -1566.0521   -23205.549    -25076.07    1870.5212    1.1610133    30.985945    30.985945    30.985945    29750.497 
 4713000    290.43215   -415.29378   -23276.582    -25100.66    1824.0785    1.1610133    30.985945    30.985945    30.985945    29750.497 
 4714000    296.37115   -554.72815   -23227.211   -25088.589    1861.3788    1.1610133    30.985945    30.985945    30.985945    29750.497 
 4715000    309.94191    320.58224   -23137.583   -25084.194    1946.6109    1.1610133    30.985945    30.985945    30.985945    29750.497 
 4716000     294.4518    -821.2451   -23254.148   -25103.472    1849.3242    1.1610133    30.985945    30.985945    30.985945    29750.497 
 4717000    309.07475   -146.15322   -23133.744   -25074.909    1941.1646    1.1610133    30.985945    30.985945    30.985945    29750.497 
 4718000      290.008    118.72097   -23251.301   -25072.716    1821.4146    1.1610133    30.985945    30.985945    30.985945    29750.497 
 4719000    301.27452   -562.56432   -23111.495   -25003.669    1892.1747    1.1610133    30.985945    30.985945    30.985945    29750.497 
 4720000    296.83087   -55.884272   -23239.489   -25103.755    1864.2661    1.1610133    30.985945    30.985945    30.985945    29750.497 
 4721000    306.24956   -452.79853   -23154.502   -25077.923    1923.4208    1.1610133    30.985945    30.985945    30.985945    29750.497 
 4722000     298.9055   -500.24491   -23237.848   -25115.144    1877.2959    1.1610133    30.985945    30.985945    30.985945    29750.497 
 4723000    290.09964   -999.37062   -23205.718   -25027.708    1821.9901    1.1610133    30.985945    30.985945    30.985945    29750.497 
 4724000    295.80783   -779.91175   -23221.856   -25079.697    1857.8408    1.1610133    30.985945    30.985945    30.985945    29750.497 
 4725000    296.65878    31.161846    -23286.46   -25149.646    1863.1853    1.1610133    30.985945    30.985945    30.985945    29750.497 
 4726000    296.42453   -292.80258   -23248.199   -25109.913    1861.7141    1.1610133    30.985945    30.985945    30.985945    29750.497 
 4727000     302.3588   -635.45388   -23124.311   -25023.295    1898.9846    1.1610133    30.985945    30.985945    30.985945    29750.497 
 4728000    296.14608   -567.91586   -23186.365    -25046.33    1859.9652    1.1610133    30.985945    30.985945    30.985945    29750.497 
 4729000    302.93866   -88.832272   -23166.619   -25069.246    1902.6265    1.1610133    30.985945    30.985945    30.985945    29750.497 
 4730000    301.85077   -869.50549   -23162.884   -25058.678    1895.7939    1.1610133    30.985945    30.985945    30.985945    29750.497 
 4731000    297.63181   -419.56639   -23239.345   -25108.641    1869.2964    1.1610133    30.985945    30.985945    30.985945    29750.497 
 4732000    297.38195    -815.6327   -23168.239   -25035.966    1867.7272    1.1610133    30.985945    30.985945    30.985945    29750.497 
 4733000    302.15583   -1065.0669   -23172.087   -25069.797    1897.7098    1.1610133    30.985945    30.985945    30.985945    29750.497 
 4734000    302.40631   -1092.0079   -23155.316   -25054.599     1899.283    1.1610133    30.985945    30.985945    30.985945    29750.497 
 4735000    294.24899   -35.398138   -23146.865   -24994.915    1848.0504    1.1610133    30.985945    30.985945    30.985945    29750.497 
 4736000    300.70989   -633.54759   -23173.251    -25061.88    1888.6285    1.1610133    30.985945    30.985945    30.985945    29750.497 
 4737000    287.63272     -771.035   -23207.353    -25013.85    1806.4965    1.1610133    30.985945    30.985945    30.985945    29750.497 
 4738000    291.44556   -935.52442   -23155.685   -24986.128    1830.4433    1.1610133    30.985945    30.985945    30.985945    29750.497 
 4739000    296.86227    -46.72089    -23203.33   -25067.793    1864.4633    1.1610133    30.985945    30.985945    30.985945    29750.497 
 4740000    297.70001   -543.53226    -23189.35   -25059.075    1869.7248    1.1610133    30.985945    30.985945    30.985945    29750.497 
 4741000    307.61687   -639.23322   -23093.879   -25025.887    1932.0083    1.1610133    30.985945    30.985945    30.985945    29750.497 
 4742000     299.3879    4.6036099    -23214.32   -25094.646    1880.3257    1.1610133    30.985945    30.985945    30.985945    29750.497 
 4743000    295.02308   -256.42137   -23225.366   -25078.278    1852.9122    1.1610133    30.985945    30.985945    30.985945    29750.497 
 4744000    293.11864    258.77772   -23264.077   -25105.029    1840.9512    1.1610133    30.985945    30.985945    30.985945    29750.497 
 4745000    297.97618   -350.09273   -23234.231   -25105.691    1871.4593    1.1610133    30.985945    30.985945    30.985945    29750.497 
 4746000    296.28184   -518.96818   -23203.342    -25064.16    1860.8179    1.1610133    30.985945    30.985945    30.985945    29750.497 
 4747000    305.93777   -205.70798   -23106.172   -25027.635    1921.4626    1.1610133    30.985945    30.985945    30.985945    29750.497 
 4748000    297.04557   -638.74219   -23220.931   -25086.546    1865.6146    1.1610133    30.985945    30.985945    30.985945    29750.497 
 4749000    300.62695     296.4003   -23179.274   -25067.382    1888.1076    1.1610133    30.985945    30.985945    30.985945    29750.497 
 4750000    299.00162    166.41894   -23309.986   -25187.886    1877.8996    1.1610133    30.985945    30.985945    30.985945    29750.497 
 4751000    300.98375   -464.50394   -23188.274   -25078.622    1890.3485    1.1610133    30.985945    30.985945    30.985945    29750.497 
 4752000    295.38359   -535.19048    -23147.44   -25002.617    1855.1764    1.1610133    30.985945    30.985945    30.985945    29750.497 
 4753000    301.54369   -339.56372   -23212.633   -25106.498    1893.8653    1.1610133    30.985945    30.985945    30.985945    29750.497 
 4754000    301.23404   -252.71254   -23168.999   -25060.919    1891.9205    1.1610133    30.985945    30.985945    30.985945    29750.497 
 4755000    305.06794   -724.04201   -23131.194   -25047.193    1915.9996    1.1610133    30.985945    30.985945    30.985945    29750.497 
 4756000    300.25889   -1586.8422   -23117.837   -25003.633     1885.796    1.1610133    30.985945    30.985945    30.985945    29750.497 
 4757000    294.49735   -219.82795   -23173.782   -25023.392    1849.6103    1.1610133    30.985945    30.985945    30.985945    29750.497 
 4758000     291.2902   -1468.7414   -23270.949   -25100.416    1829.4675    1.1610133    30.985945    30.985945    30.985945    29750.497 
 4759000    296.03792   -508.04032   -23225.668   -25084.954    1859.2859    1.1610133    30.985945    30.985945    30.985945    29750.497 
 4760000    298.09459    477.31345   -23164.486   -25036.689     1872.203    1.1610133    30.985945    30.985945    30.985945    29750.497 
 4761000    302.57205   -572.04021   -23103.307   -25003.631    1900.3239    1.1610133    30.985945    30.985945    30.985945    29750.497 
 4762000    288.90073   -866.17042   -23179.459   -24993.919    1814.4604    1.1610133    30.985945    30.985945    30.985945    29750.497 
 4763000    300.23868   -1277.9835   -23201.491    -25087.16    1885.6691    1.1610133    30.985945    30.985945    30.985945    29750.497 
 4764000    309.45982   -75.444802   -23099.393   -25042.976     1943.583    1.1610133    30.985945    30.985945    30.985945    29750.497 
 4765000     299.6687   -270.64146   -23165.329   -25047.419    1882.0893    1.1610133    30.985945    30.985945    30.985945    29750.497 
 4766000    299.49042   -230.33654   -23199.033   -25080.002    1880.9696    1.1610133    30.985945    30.985945    30.985945    29750.497 
 4767000      305.617   -672.91923   -23222.212    -25141.66    1919.4479    1.1610133    30.985945    30.985945    30.985945    29750.497 
 4768000    294.42888   -1364.5694    -23219.33    -25068.51    1849.1802    1.1610133    30.985945    30.985945    30.985945    29750.497 
 4769000    305.31143    435.14821   -23143.133   -25060.662    1917.5288    1.1610133    30.985945    30.985945    30.985945    29750.497 
 4770000    293.69052   -368.79141   -23186.231   -25030.774    1844.5429    1.1610133    30.985945    30.985945    30.985945    29750.497 
 4771000    304.30984   -769.23306   -23162.668   -25073.907    1911.2383    1.1610133    30.985945    30.985945    30.985945    29750.497 
 4772000     305.7882   -1095.4965   -23209.135   -25129.658    1920.5232    1.1610133    30.985945    30.985945    30.985945    29750.497 
 4773000    308.33856   -104.20137    -23052.92   -24989.461    1936.5409    1.1610133    30.985945    30.985945    30.985945    29750.497 
 4774000    303.20158   -634.84708   -23268.291   -25172.569    1904.2778    1.1610133    30.985945    30.985945    30.985945    29750.497 
 4775000    294.26122   -12.156443   -23219.486   -25067.613    1848.1273    1.1610133    30.985945    30.985945    30.985945    29750.497 
 4776000    299.73423   -598.23937   -23175.059    -25057.56    1882.5008    1.1610133    30.985945    30.985945    30.985945    29750.497 
 4777000    296.81588   -1056.2406   -23232.014   -25096.186     1864.172    1.1610133    30.985945    30.985945    30.985945    29750.497 
 4778000    307.99284   -685.72298   -23117.219   -25051.589    1934.3696    1.1610133    30.985945    30.985945    30.985945    29750.497 
 4779000    284.94677   -1321.4946   -23260.955   -25050.583    1789.6272    1.1610133    30.985945    30.985945    30.985945    29750.497 
 4780000     297.4451       69.426   -23224.608   -25092.732    1868.1238    1.1610133    30.985945    30.985945    30.985945    29750.497 
 4781000    286.53323   -636.17908   -23333.031   -25132.622    1799.5911    1.1610133    30.985945    30.985945    30.985945    29750.497 
 4782000    297.15499   -1416.5385   -23264.956   -25131.258    1866.3018    1.1610133    30.985945    30.985945    30.985945    29750.497 
 4783000    296.49632   -823.36466   -23274.373   -25136.538    1862.1649    1.1610133    30.985945    30.985945    30.985945    29750.497 
 4784000    293.31284   -201.04187   -23300.443   -25142.614    1842.1709    1.1610133    30.985945    30.985945    30.985945    29750.497 
 4785000    298.68604   -266.96832   -23237.168   -25113.085    1875.9176    1.1610133    30.985945    30.985945    30.985945    29750.497 
 4786000    301.80878   -1452.3397   -23200.808   -25096.338    1895.5302    1.1610133    30.985945    30.985945    30.985945    29750.497 
 4787000    296.43381   -177.89242   -23205.882   -25067.654    1861.7723    1.1610133    30.985945    30.985945    30.985945    29750.497 
 4788000    299.82949   -328.73826   -23213.663   -25096.762    1883.0992    1.1610133    30.985945    30.985945    30.985945    29750.497 
 4789000     298.6979   -609.55064    -23116.61   -24992.602    1875.9921    1.1610133    30.985945    30.985945    30.985945    29750.497 
 4790000     299.2534   -259.33958   -23180.542   -25060.023    1879.4809    1.1610133    30.985945    30.985945    30.985945    29750.497 
 4791000    294.12805   -164.83268   -23244.629    -25091.92    1847.2909    1.1610133    30.985945    30.985945    30.985945    29750.497 
 4792000     304.3359   -1694.0288   -23156.825   -25068.227    1911.4019    1.1610133    30.985945    30.985945    30.985945    29750.497 
 4793000    290.96191    -696.8789   -23216.419   -25043.824    1827.4057    1.1610133    30.985945    30.985945    30.985945    29750.497 
 4794000    301.39205   -1520.1035   -23162.228   -25055.141    1892.9129    1.1610133    30.985945    30.985945    30.985945    29750.497 
 4795000     293.3414   -860.30542   -23209.706   -25052.056    1842.3502    1.1610133    30.985945    30.985945    30.985945    29750.497 
 4796000    299.88465   -390.51464   -23136.711   -25020.157    1883.4456    1.1610133    30.985945    30.985945    30.985945    29750.497 
 4797000    300.41625    -805.4589   -23096.637   -24983.421    1886.7843    1.1610133    30.985945    30.985945    30.985945    29750.497 
 4798000    295.88642   -929.10483   -23283.415   -25141.749    1858.3344    1.1610133    30.985945    30.985945    30.985945    29750.497 
 4799000    298.32405   -709.23487   -23183.698   -25057.342    1873.6441    1.1610133    30.985945    30.985945    30.985945    29750.497 
 4800000    294.08605   -532.66554   -23276.829   -25123.856    1847.0271    1.1610133    30.985945    30.985945    30.985945    29750.497 
 4801000    296.29492   -797.17285    -23160.51    -25021.41       1860.9    1.1610133    30.985945    30.985945    30.985945    29750.497 
 4802000    307.00852   -1315.6241   -22962.996   -24891.183    1928.1875    1.1610133    30.985945    30.985945    30.985945    29750.497 
 4803000    292.12211   -364.68824   -23214.345   -25049.037    1834.6924    1.1610133    30.985945    30.985945    30.985945    29750.497 
 4804000    297.99314   -706.98588   -23157.476   -25029.042    1871.5658    1.1610133    30.985945    30.985945    30.985945    29750.497 
 4805000    298.12086   -573.31641   -23198.847   -25071.215     1872.368    1.1610133    30.985945    30.985945    30.985945    29750.497 
 4806000     298.2536    329.03022   -23193.998     -25067.2    1873.2017    1.1610133    30.985945    30.985945    30.985945    29750.497 
 4807000    295.51981   -808.93642   -23233.454   -25089.486    1856.0319    1.1610133    30.985945    30.985945    30.985945    29750.497 
 4808000    300.60398   -280.20081   -23211.261   -25099.225    1887.9633    1.1610133    30.985945    30.985945    30.985945    29750.497 
 4809000    301.66056    195.43811   -23239.584   -25134.184    1894.5993    1.1610133    30.985945    30.985945    30.985945    29750.497 
 4810000    297.90433     120.3751   -23174.562    -25045.57     1871.008    1.1610133    30.985945    30.985945    30.985945    29750.497 
 4811000    289.57924   -127.69531   -23225.324   -25044.046    1818.7217    1.1610133    30.985945    30.985945    30.985945    29750.497 
 4812000    297.01657    11.479159   -23255.033   -25120.465    1865.4324    1.1610133    30.985945    30.985945    30.985945    29750.497 
 4813000    310.64131   -905.50008   -23096.001   -25047.004    1951.0035    1.1610133    30.985945    30.985945    30.985945    29750.497 
 4814000    295.06069    374.88134   -23168.901   -25022.049    1853.1484    1.1610133    30.985945    30.985945    30.985945    29750.497 
 4815000    295.77032    -164.3024   -23234.778   -25092.384    1857.6052    1.1610133    30.985945    30.985945    30.985945    29750.497 
 4816000    308.96396   -1153.2497   -23124.852    -25065.32    1940.4688    1.1610133    30.985945    30.985945    30.985945    29750.497 
 4817000    301.15042   -85.762158   -23111.496   -25002.891    1891.3953    1.1610133    30.985945    30.985945    30.985945    29750.497 
 4818000    293.12494   -1368.4605   -23247.738   -25088.729    1840.9907    1.1610133    30.985945    30.985945    30.985945    29750.497 
 4819000    306.32717   -465.05502   -23186.533   -25110.442    1923.9082    1.1610133    30.985945    30.985945    30.985945    29750.497 
 4820000    302.47048   -535.54376   -23162.072   -25061.758     1899.686    1.1610133    30.985945    30.985945    30.985945    29750.497 
 4821000    300.25012   -1175.6303   -23264.961   -25150.702     1885.741    1.1610133    30.985945    30.985945    30.985945    29750.497 
 4822000    300.40606   -1518.2223   -23246.761   -25133.481    1886.7203    1.1610133    30.985945    30.985945    30.985945    29750.497 
 4823000    294.77608   -738.38823   -23196.311   -25047.671    1851.3609    1.1610133    30.985945    30.985945    30.985945    29750.497 
 4824000    295.50927   -428.31213   -23179.651   -25035.617    1855.9657    1.1610133    30.985945    30.985945    30.985945    29750.497 
 4825000    300.00615   -47.384338   -23043.264   -24927.472    1884.2087    1.1610133    30.985945    30.985945    30.985945    29750.497 
 4826000     300.6027   -1603.1657   -23213.909   -25101.864    1887.9553    1.1610133    30.985945    30.985945    30.985945    29750.497 
 4827000    292.79137   -592.89127   -23195.842   -25034.738    1838.8957    1.1610133    30.985945    30.985945    30.985945    29750.497 
 4828000     303.5923   -432.04102   -23161.597   -25068.329    1906.7317    1.1610133    30.985945    30.985945    30.985945    29750.497 
 4829000    301.24271   -204.10458   -23201.007   -25092.982    1891.9749    1.1610133    30.985945    30.985945    30.985945    29750.497 
 4830000    292.86198   -472.38504   -23240.821    -25080.16    1839.3392    1.1610133    30.985945    30.985945    30.985945    29750.497 
 4831000    297.96033   -807.79266   -23180.467   -25051.827    1871.3597    1.1610133    30.985945    30.985945    30.985945    29750.497 
 4832000    304.12606    -533.0854   -23163.994   -25074.078     1910.084    1.1610133    30.985945    30.985945    30.985945    29750.497 
 4833000    300.75016   -636.43411   -23189.563   -25078.444    1888.8814    1.1610133    30.985945    30.985945    30.985945    29750.497 
 4834000     291.8955   -1554.5003   -23225.128   -25058.397    1833.2692    1.1610133    30.985945    30.985945    30.985945    29750.497 
 4835000    293.40954   -598.87842    -23247.74   -25090.518    1842.7782    1.1610133    30.985945    30.985945    30.985945    29750.497 
 4836000    303.98181   -377.47383   -23228.766   -25137.944    1909.1781    1.1610133    30.985945    30.985945    30.985945    29750.497 
 4837000    301.58738   -423.45268   -23185.254   -25079.393    1894.1397    1.1610133    30.985945    30.985945    30.985945    29750.497 
 4838000    300.05542    517.87159   -23227.973   -25112.491    1884.5181    1.1610133    30.985945    30.985945    30.985945    29750.497 
 4839000    292.83302   -386.08078   -23273.129   -25112.286    1839.1573    1.1610133    30.985945    30.985945    30.985945    29750.497 
 4840000    295.73571   -708.70628   -23194.902   -25052.289    1857.3879    1.1610133    30.985945    30.985945    30.985945    29750.497 
 4841000    292.35994   -562.37223   -23238.367   -25074.553    1836.1861    1.1610133    30.985945    30.985945    30.985945    29750.497 
 4842000    296.30535    401.91756   -23174.363   -25035.328    1860.9655    1.1610133    30.985945    30.985945    30.985945    29750.497 
 4843000    305.25938   -553.81396   -23140.504   -25057.706    1917.2019    1.1610133    30.985945    30.985945    30.985945    29750.497 
 4844000     298.0134   -446.25115   -23180.059   -25051.752     1871.693    1.1610133    30.985945    30.985945    30.985945    29750.497 
 4845000    298.27386   -1178.4831   -23238.556   -25111.885    1873.3289    1.1610133    30.985945    30.985945    30.985945    29750.497 
 4846000    300.19822    -1689.311   -23294.516   -25179.931     1885.415    1.1610133    30.985945    30.985945    30.985945    29750.497 
 4847000    297.89732   -505.82458   -23256.719   -25127.683     1870.964    1.1610133    30.985945    30.985945    30.985945    29750.497 
 4848000    296.88592   -551.88242   -23269.815   -25134.427    1864.6118    1.1610133    30.985945    30.985945    30.985945    29750.497 
 4849000     291.7069    113.29034   -23179.747   -25011.832    1832.0847    1.1610133    30.985945    30.985945    30.985945    29750.497 
 4850000    291.33732   -804.23266   -23243.924   -25073.688    1829.7635    1.1610133    30.985945    30.985945    30.985945    29750.497 
 4851000    295.35026    -1438.848    -23173.95   -25028.917     1854.967    1.1610133    30.985945    30.985945    30.985945    29750.497 
 4852000    287.56888   -671.71612   -23244.824    -25050.92    1806.0955    1.1610133    30.985945    30.985945    30.985945    29750.497 
 4853000    295.07735   -799.13305   -23207.823   -25061.076     1853.253    1.1610133    30.985945    30.985945    30.985945    29750.497 
 4854000    295.46025   -112.98241    -23210.08   -25065.738    1855.6578    1.1610133    30.985945    30.985945    30.985945    29750.497 
 4855000    294.98822   -511.38864   -23236.211   -25088.904    1852.6932    1.1610133    30.985945    30.985945    30.985945    29750.497 
 4856000    301.04436   -1012.6298   -23157.605   -25048.334    1890.7292    1.1610133    30.985945    30.985945    30.985945    29750.497 
 4857000    294.50728    287.42849    -23229.88   -25079.552    1849.6726    1.1610133    30.985945    30.985945    30.985945    29750.497 
 4858000    296.80596   -1057.2471   -23285.938   -25150.047    1864.1096    1.1610133    30.985945    30.985945    30.985945    29750.497 
 4859000    301.29106   -962.13059   -23206.762   -25099.041    1892.2786    1.1610133    30.985945    30.985945    30.985945    29750.497 
 4860000    299.05663   -423.82054   -23235.089   -25113.334    1878.2451    1.1610133    30.985945    30.985945    30.985945    29750.497 
 4861000    303.81343    -83.38093   -23195.192   -25103.312    1908.1205    1.1610133    30.985945    30.985945    30.985945    29750.497 
 4862000    296.07686    842.36414   -23160.245   -25019.775    1859.5305    1.1610133    30.985945    30.985945    30.985945    29750.497 
 4863000    293.68982    -389.7925   -23195.781   -25040.319    1844.5386    1.1610133    30.985945    30.985945    30.985945    29750.497 
 4864000    301.30656    302.91375   -23241.655   -25134.031     1892.376    1.1610133    30.985945    30.985945    30.985945    29750.497 
 4865000    299.40834   -325.58444     -23206.5   -25086.954    1880.4541    1.1610133    30.985945    30.985945    30.985945    29750.497 
 4866000    306.34331   -61.586885   -23085.467   -25009.477    1924.0096    1.1610133    30.985945    30.985945    30.985945    29750.497 
 4867000    295.93872    469.68047   -23252.215   -25110.878    1858.6629    1.1610133    30.985945    30.985945    30.985945    29750.497 
 4868000    309.13263   -1819.7574   -23138.621   -25080.149    1941.5281    1.1610133    30.985945    30.985945    30.985945    29750.497 
 4869000     307.4496   -1135.7699   -23239.217   -25170.175    1930.9577    1.1610133    30.985945    30.985945    30.985945    29750.497 
 4870000    296.69433     -1542.68   -23246.992   -25110.401    1863.4086    1.1610133    30.985945    30.985945    30.985945    29750.497 
 4871000     308.8012   -425.26359   -23133.301   -25072.748    1939.4465    1.1610133    30.985945    30.985945    30.985945    29750.497 
 4872000    297.17831   -290.64643   -23203.747   -25070.196    1866.4482    1.1610133    30.985945    30.985945    30.985945    29750.497 
 4873000    299.90741   -550.47876   -23107.139   -24990.727    1883.5885    1.1610133    30.985945    30.985945    30.985945    29750.497 
 4874000    303.92646   -389.40113   -23223.641   -25132.471    1908.8304    1.1610133    30.985945    30.985945    30.985945    29750.497 
 4875000    293.12221   -1320.6046   -23218.102   -25059.075    1840.9736    1.1610133    30.985945    30.985945    30.985945    29750.497 
 4876000    301.03429   -1448.6184    -23224.91   -25115.576    1890.6659    1.1610133    30.985945    30.985945    30.985945    29750.497 
 4877000    303.05528    42.472542   -23253.824   -25157.182    1903.3589    1.1610133    30.985945    30.985945    30.985945    29750.497 
 4878000    302.30884   -295.62401   -23193.165   -25091.835    1898.6709    1.1610133    30.985945    30.985945    30.985945    29750.497 
 4879000    302.34884    399.66002   -23192.162   -25091.084    1898.9221    1.1610133    30.985945    30.985945    30.985945    29750.497 
 4880000    299.47563    -76.13048   -23215.457   -25096.333    1880.8767    1.1610133    30.985945    30.985945    30.985945    29750.497 
 4881000    289.63467   -1858.0965    -23254.68    -25073.75    1819.0699    1.1610133    30.985945    30.985945    30.985945    29750.497 
 4882000    303.04905   -1105.6269   -23123.921    -25027.24    1903.3198    1.1610133    30.985945    30.985945    30.985945    29750.497 
 4883000    302.30511    -410.1021   -23194.302   -25092.949    1898.6475    1.1610133    30.985945    30.985945    30.985945    29750.497 
 4884000    300.05055    270.55087   -23223.355   -25107.842    1884.4875    1.1610133    30.985945    30.985945    30.985945    29750.497 
 4885000    305.18431   -908.27816   -23141.147   -25057.878    1916.7304    1.1610133    30.985945    30.985945    30.985945    29750.497 
 4886000    297.82503    -1528.388   -23147.907   -25018.417      1870.51    1.1610133    30.985945    30.985945    30.985945    29750.497 
 4887000    304.91559   -214.28244   -23162.078   -25077.121    1915.0427    1.1610133    30.985945    30.985945    30.985945    29750.497 
 4888000    304.16453    110.51047   -23100.226   -25010.552    1910.3256    1.1610133    30.985945    30.985945    30.985945    29750.497 
 4889000    298.28458    147.37218   -23138.613   -25012.009    1873.3962    1.1610133    30.985945    30.985945    30.985945    29750.497 
 4890000    286.24766   -1003.0328   -23185.404   -24983.202    1797.7975    1.1610133    30.985945    30.985945    30.985945    29750.497 
 4891000    298.46457   -65.453007    -23182.55   -25057.077    1874.5266    1.1610133    30.985945    30.985945    30.985945    29750.497 
 4892000    289.86538   -221.82382    -23271.04   -25091.559    1820.5189    1.1610133    30.985945    30.985945    30.985945    29750.497 
 4893000    302.44345   -1084.6237    -23197.96   -25097.477    1899.5163    1.1610133    30.985945    30.985945    30.985945    29750.497 
 4894000    297.99747    3.9725816   -23273.978   -25145.571     1871.593    1.1610133    30.985945    30.985945    30.985945    29750.497 
 4895000    294.25368   -754.98912   -23237.075   -25085.155    1848.0799    1.1610133    30.985945    30.985945    30.985945    29750.497 
 4896000    297.86803   -158.14908   -23183.834   -25054.614    1870.7801    1.1610133    30.985945    30.985945    30.985945    29750.497 
 4897000    301.42525   -308.38646   -23162.729    -25055.85    1893.1214    1.1610133    30.985945    30.985945    30.985945    29750.497 
 4898000    299.04181   -1208.1729   -23181.991   -25060.143    1878.1521    1.1610133    30.985945    30.985945    30.985945    29750.497 
 4899000    303.49639   -1187.5416    -23214.31    -25120.44    1906.1293    1.1610133    30.985945    30.985945    30.985945    29750.497 
 4900000    306.84386   -654.98625   -23054.895   -24982.049    1927.1533    1.1610133    30.985945    30.985945    30.985945    29750.497 
 4901000    298.63388   -757.41454   -23188.395   -25063.985      1875.59    1.1610133    30.985945    30.985945    30.985945    29750.497 
 4902000    301.73988   -780.84713   -23187.179   -25082.277    1895.0975    1.1610133    30.985945    30.985945    30.985945    29750.497 
 4903000    298.30145   -314.70526    -23122.58   -24996.082    1873.5022    1.1610133    30.985945    30.985945    30.985945    29750.497 
 4904000     290.6726    83.176178   -23251.188   -25076.777    1825.5887    1.1610133    30.985945    30.985945    30.985945    29750.497 
 4905000    296.08039    -642.6693   -23294.052   -25153.604    1859.5526    1.1610133    30.985945    30.985945    30.985945    29750.497 
 4906000    312.16937   -560.47271   -23084.708   -25045.309    1960.6006    1.1610133    30.985945    30.985945    30.985945    29750.497 
 4907000    290.82455   -481.49534   -23270.061   -25096.604     1826.543    1.1610133    30.985945    30.985945    30.985945    29750.497 
 4908000    299.15289   -1474.6527   -23267.694   -25146.544    1878.8497    1.1610133    30.985945    30.985945    30.985945    29750.497 
 4909000    304.06346   -930.86779   -23120.012   -25029.703    1909.6908    1.1610133    30.985945    30.985945    30.985945    29750.497 
 4910000     301.1358   -154.85077   -23140.028   -25031.331    1891.3035    1.1610133    30.985945    30.985945    30.985945    29750.497 
 4911000    294.84747    88.078179   -23278.221   -25130.031    1851.8092    1.1610133    30.985945    30.985945    30.985945    29750.497 
 4912000    289.84698     272.0174   -23271.245   -25091.649    1820.4033    1.1610133    30.985945    30.985945    30.985945    29750.497 
 4913000    294.80787   -391.28812   -23212.122   -25063.683    1851.5605    1.1610133    30.985945    30.985945    30.985945    29750.497 
 4914000    304.05756   -704.56288   -23100.908   -25010.562    1909.6538    1.1610133    30.985945    30.985945    30.985945    29750.497 
 4915000    299.05245    -473.2506   -23175.045   -25053.264    1878.2189    1.1610133    30.985945    30.985945    30.985945    29750.497 
 4916000    295.33734   -493.35536   -23213.988   -25068.873    1854.8859    1.1610133    30.985945    30.985945    30.985945    29750.497 
 4917000    297.08279    -56.56039   -23137.027   -25002.875    1865.8483    1.1610133    30.985945    30.985945    30.985945    29750.497 
 4918000    293.59631   -1230.5283   -23289.938   -25133.889    1843.9512    1.1610133    30.985945    30.985945    30.985945    29750.497 
 4919000    310.17563   -1042.4846   -23121.464   -25069.543    1948.0788    1.1610133    30.985945    30.985945    30.985945    29750.497 
 4920000    294.87984   -50.835113   -23190.452   -25042.464    1852.0125    1.1610133    30.985945    30.985945    30.985945    29750.497 
 4921000     300.7525    135.70819   -23187.665   -25076.561    1888.8961    1.1610133    30.985945    30.985945    30.985945    29750.497 
 4922000    299.21043   -154.22485    -23148.65   -25027.861    1879.2111    1.1610133    30.985945    30.985945    30.985945    29750.497 
 4923000     297.6115   -118.52028   -23212.991    -25082.16    1869.1689    1.1610133    30.985945    30.985945    30.985945    29750.497 
 4924000    292.56385   -425.90239   -23173.315   -25010.782    1837.4668    1.1610133    30.985945    30.985945    30.985945    29750.497 
 4925000    291.90395   -441.04477   -23280.362   -25113.684    1833.3222    1.1610133    30.985945    30.985945    30.985945    29750.497 
 4926000    301.33847   -425.94989   -23137.057   -25029.634    1892.5764    1.1610133    30.985945    30.985945    30.985945    29750.497 
 4927000    303.80318    327.42963   -23112.678   -25020.734    1908.0562    1.1610133    30.985945    30.985945    30.985945    29750.497 
 4928000    284.13615    183.44354   -23218.044    -25002.58     1784.536    1.1610133    30.985945    30.985945    30.985945    29750.497 
 4929000    295.29774   -342.01916   -23186.153    -25040.79    1854.6372    1.1610133    30.985945    30.985945    30.985945    29750.497 
 4930000    290.30693   -271.00944    -23280.75   -25104.042    1823.2921    1.1610133    30.985945    30.985945    30.985945    29750.497 
 4931000    302.51811   -1046.2528   -23083.916   -24983.901    1899.9852    1.1610133    30.985945    30.985945    30.985945    29750.497 
 4932000    298.23097    37.645055   -23126.844   -24999.904    1873.0595    1.1610133    30.985945    30.985945    30.985945    29750.497 
 4933000    306.66366   -988.27676   -23190.627   -25116.648    1926.0216    1.1610133    30.985945    30.985945    30.985945    29750.497 
 4934000    298.13577    133.50238   -23161.757   -25034.219    1872.4616    1.1610133    30.985945    30.985945    30.985945    29750.497 
 4935000    297.14186   -56.524267   -23109.223   -24975.442    1866.2193    1.1610133    30.985945    30.985945    30.985945    29750.497 
 4936000    295.54155   -336.80005   -23131.287   -24987.455    1856.1685    1.1610133    30.985945    30.985945    30.985945    29750.497 
 4937000    299.62989    -306.1383   -23252.025   -25133.871    1881.8456    1.1610133    30.985945    30.985945    30.985945    29750.497 
 4938000    310.15181    177.54645   -23133.429   -25081.358    1947.9292    1.1610133    30.985945    30.985945    30.985945    29750.497 
 4939000    301.51218   -1512.1513   -23233.209   -25126.876    1893.6674    1.1610133    30.985945    30.985945    30.985945    29750.497 
 4940000    293.09864   -1527.0673     -23249.8   -25090.625    1840.8256    1.1610133    30.985945    30.985945    30.985945    29750.497 
 4941000    301.46515   -1769.9501   -23076.766   -24970.138     1893.372    1.1610133    30.985945    30.985945    30.985945    29750.497 
 4942000    290.17979   -731.47772   -23242.338   -25064.831    1822.4935    1.1610133    30.985945    30.985945    30.985945    29750.497 
 4943000     301.3926   -436.19592   -23110.788   -25003.704    1892.9164    1.1610133    30.985945    30.985945    30.985945    29750.497 
 4944000    295.99151   -653.87086   -23123.595   -24982.589    1858.9944    1.1610133    30.985945    30.985945    30.985945    29750.497 
 4945000    305.59149   -731.64082    -23141.47   -25060.758    1919.2877    1.1610133    30.985945    30.985945    30.985945    29750.497 
 4946000    297.26593   -1.8290316   -23152.707   -25019.706    1866.9985    1.1610133    30.985945    30.985945    30.985945    29750.497 
 4947000    305.04227    126.43826   -23118.112   -25033.951    1915.8383    1.1610133    30.985945    30.985945    30.985945    29750.497 
 4948000     300.9301   -354.99324    -23076.98   -24966.992    1890.0116    1.1610133    30.985945    30.985945    30.985945    29750.497 
 4949000    302.10795   -1025.0238   -23149.796   -25047.205    1897.4091    1.1610133    30.985945    30.985945    30.985945    29750.497 
 4950000    293.61917   -900.52159   -23307.184   -25151.279    1844.0948    1.1610133    30.985945    30.985945    30.985945    29750.497 
 4951000    295.78381    95.255826   -23160.731   -25018.421      1857.69    1.1610133    30.985945    30.985945    30.985945    29750.497 
 4952000    306.53064   -1241.9338   -23076.153    -25001.34    1925.1862    1.1610133    30.985945    30.985945    30.985945    29750.497 
 4953000     295.8827   -529.89475   -23228.848   -25087.159     1858.311    1.1610133    30.985945    30.985945    30.985945    29750.497 
 4954000    313.55332    437.92926   -23061.009   -25030.302    1969.2926    1.1610133    30.985945    30.985945    30.985945    29750.497 
 4955000    306.49938   -869.02089   -23120.144   -25045.134    1924.9898    1.1610133    30.985945    30.985945    30.985945    29750.497 
 4956000    294.88076   -839.74721   -23199.537   -25051.556    1852.0183    1.1610133    30.985945    30.985945    30.985945    29750.497 
 4957000    301.93354    682.42336   -23178.091   -25074.404    1896.3138    1.1610133    30.985945    30.985945    30.985945    29750.497 
 4958000    296.87421   -883.23829   -23194.239   -25058.778    1864.5383    1.1610133    30.985945    30.985945    30.985945    29750.497 
 4959000    296.61868   -836.11248   -23181.385   -25044.318    1862.9334    1.1610133    30.985945    30.985945    30.985945    29750.497 
 4960000    300.95316   -423.63361   -23192.557   -25082.713    1890.1564    1.1610133    30.985945    30.985945    30.985945    29750.497 
 4961000    299.77724   -150.65043   -23230.545   -25113.316     1882.771    1.1610133    30.985945    30.985945    30.985945    29750.497 
 4962000    302.22076   -75.334919   -23171.879   -25069.996    1898.1177    1.1610133    30.985945    30.985945    30.985945    29750.497 
 4963000    293.92328   -1129.2508    -23194.19   -25040.195    1846.0048    1.1610133    30.985945    30.985945    30.985945    29750.497 
 4964000     297.0634   -1224.1214    -23121.77   -24987.496    1865.7265    1.1610133    30.985945    30.985945    30.985945    29750.497 
 4965000    299.02248   -649.86213   -23168.483   -25046.514    1878.0307    1.1610133    30.985945    30.985945    30.985945    29750.497 
 4966000    308.26179   -107.97947   -23181.988   -25118.047    1936.0587    1.1610133    30.985945    30.985945    30.985945    29750.497 
 4967000    299.48586    255.87674   -23186.698   -25067.639    1880.9409    1.1610133    30.985945    30.985945    30.985945    29750.497 
 4968000    296.37881   -280.96218   -23167.318   -25028.745    1861.4269    1.1610133    30.985945    30.985945    30.985945    29750.497 
 4969000    302.02736   -70.601789   -23135.964   -25032.867     1896.903    1.1610133    30.985945    30.985945    30.985945    29750.497 
 4970000    299.93608   -703.80203   -23219.067   -25102.836    1883.7686    1.1610133    30.985945    30.985945    30.985945    29750.497 
 4971000    298.72968   -357.26091   -23236.856   -25113.048    1876.1917    1.1610133    30.985945    30.985945    30.985945    29750.497 
 4972000    291.58023   -457.63691   -23235.752   -25067.041    1831.2891    1.1610133    30.985945    30.985945    30.985945    29750.497 
 4973000    308.14152   -561.90709    -23087.62   -25022.924    1935.3034    1.1610133    30.985945    30.985945    30.985945    29750.497 
 4974000    299.03511   -986.17923   -23185.515   -25063.625      1878.11    1.1610133    30.985945    30.985945    30.985945    29750.497 
 4975000    296.96439   -485.79997   -23178.099   -25043.204    1865.1047    1.1610133    30.985945    30.985945    30.985945    29750.497 
 4976000    304.39678   -313.94995   -23133.345   -25045.129    1911.7843    1.1610133    30.985945    30.985945    30.985945    29750.497 
 4977000     299.6305   -615.68433   -23198.567   -25080.416    1881.8493    1.1610133    30.985945    30.985945    30.985945    29750.497 
 4978000    300.01313   -1138.0534   -23192.842   -25077.094    1884.2525    1.1610133    30.985945    30.985945    30.985945    29750.497 
 4979000    299.44552   -681.00483    -23216.97   -25097.658    1880.6876    1.1610133    30.985945    30.985945    30.985945    29750.497 
 4980000    299.67915   -881.93613   -23138.089   -25020.244    1882.1549    1.1610133    30.985945    30.985945    30.985945    29750.497 
 4981000    305.52848   -337.53863   -23079.972   -24998.864     1918.892    1.1610133    30.985945    30.985945    30.985945    29750.497 
 4982000    295.71972    -1008.895   -23169.127   -25026.414    1857.2875    1.1610133    30.985945    30.985945    30.985945    29750.497 
 4983000    296.97077     1.221909   -23200.379   -25065.524    1865.1448    1.1610133    30.985945    30.985945    30.985945    29750.497 
 4984000    290.20633   -1691.9883   -23272.584   -25095.245    1822.6602    1.1610133    30.985945    30.985945    30.985945    29750.497 
 4985000    294.94616   -980.52838   -23193.969   -25046.398    1852.4291    1.1610133    30.985945    30.985945    30.985945    29750.497 
 4986000    306.04321   -184.13828   -23061.874   -24983.999    1922.1248    1.1610133    30.985945    30.985945    30.985945    29750.497 
 4987000    301.14806   -1086.0925   -23161.523   -25052.904    1891.3805    1.1610133    30.985945    30.985945    30.985945    29750.497 
 4988000    306.00502   -1207.0493   -23118.637   -25040.522    1921.8849    1.1610133    30.985945    30.985945    30.985945    29750.497 
 4989000    298.83912   -264.64443   -23191.296   -25068.175    1876.8791    1.1610133    30.985945    30.985945    30.985945    29750.497 
 4990000    296.20287   -373.36671   -23141.219   -25001.541    1860.3219    1.1610133    30.985945    30.985945    30.985945    29750.497 
 4991000    297.42551   -1328.4651   -23128.036   -24996.037    1868.0008    1.1610133    30.985945    30.985945    30.985945    29750.497 
 4992000    305.83506   -1573.7237   -23139.225   -25060.043    1920.8175    1.1610133    30.985945    30.985945    30.985945    29750.497 
 4993000    298.31197   -924.13773   -23203.886   -25077.455    1873.5682    1.1610133    30.985945    30.985945    30.985945    29750.497 
 4994000    289.56436   -451.64049   -23253.333   -25071.961    1818.6283    1.1610133    30.985945    30.985945    30.985945    29750.497 
 4995000    301.80425   -1017.9705   -23192.879   -25088.381    1895.5017    1.1610133    30.985945    30.985945    30.985945    29750.497 
 4996000    300.60644    522.30143   -23297.221     -25185.2    1887.9788    1.1610133    30.985945    30.985945    30.985945    29750.497 
 4997000    298.01661   -241.56184   -23197.349   -25069.062    1871.7132    1.1610133    30.985945    30.985945    30.985945    29750.497 
 4998000    290.63192   -458.95086   -23246.274   -25071.607    1825.3332    1.1610133    30.985945    30.985945    30.985945    29750.497 
 4999000     296.0199   -720.20914   -23153.112   -25012.285    1859.1727    1.1610133    30.985945    30.985945    30.985945    29750.497 
 5000000    299.79966   -383.49074   -23133.504   -25016.416    1882.9118    1.1610133    30.985945    30.985945    30.985945    29750.497 
 5001000    296.06498   -1038.4808   -23212.504    -25071.96    1859.4559    1.1610133    30.985945    30.985945    30.985945    29750.497 
 5002000    306.05421   -632.25321   -23153.732   -25075.926    1922.1939    1.1610133    30.985945    30.985945    30.985945    29750.497 
 5003000    299.82984   -707.35147    -23212.52   -25095.622    1883.1013    1.1610133    30.985945    30.985945    30.985945    29750.497 
 5004000    291.88581   -225.16687   -23312.669   -25145.877    1833.2083    1.1610133    30.985945    30.985945    30.985945    29750.497 
 5005000    292.34893   -450.90848   -23223.209   -25059.326     1836.117    1.1610133    30.985945    30.985945    30.985945    29750.497 
 5006000    292.00414   -505.94792   -23124.256   -24958.207    1833.9515    1.1610133    30.985945    30.985945    30.985945    29750.497 
 5007000    297.51772   -81.340367   -23101.328   -24969.907    1868.5799    1.1610133    30.985945    30.985945    30.985945    29750.497 
 5008000    295.58633   -795.31901   -23103.136   -24959.585    1856.4497    1.1610133    30.985945    30.985945    30.985945    29750.497 
 5009000    297.67647   -285.13993   -23157.495   -25027.072     1869.577    1.1610133    30.985945    30.985945    30.985945    29750.497 
 5010000    304.96015   -834.65518   -23175.831   -25091.153    1915.3226    1.1610133    30.985945    30.985945    30.985945    29750.497 
 5011000     298.4597   -697.39085   -23163.418   -25037.914    1874.4961    1.1610133    30.985945    30.985945    30.985945    29750.497 
 5012000    293.75174   -254.32423   -23257.239   -25102.166    1844.9274    1.1610133    30.985945    30.985945    30.985945    29750.497 
 5013000    299.42882   -1260.0383   -23245.441   -25126.024    1880.5827    1.1610133    30.985945    30.985945    30.985945    29750.497 
 5014000    308.79492   -601.14664   -23115.276   -25054.683    1939.4071    1.1610133    30.985945    30.985945    30.985945    29750.497 
 5015000    298.68318   -624.59968   -23213.608   -25089.508    1875.8996    1.1610133    30.985945    30.985945    30.985945    29750.497 
 5016000    300.37813    347.23184   -23051.729   -24938.274    1886.5449    1.1610133    30.985945    30.985945    30.985945    29750.497 
 5017000    291.08866    351.64643   -23213.876   -25042.078    1828.2018    1.1610133    30.985945    30.985945    30.985945    29750.497 
 5018000    299.49514    -1039.465   -23243.688   -25124.687    1880.9992    1.1610133    30.985945    30.985945    30.985945    29750.497 
 5019000     292.0981    -868.1499   -23207.504   -25042.046    1834.5416    1.1610133    30.985945    30.985945    30.985945    29750.497 
 5020000    294.12396   -493.72452    -23157.76   -25005.025    1847.2652    1.1610133    30.985945    30.985945    30.985945    29750.497 
 5021000    300.35662   -1187.2664   -23179.313   -25065.723    1886.4098    1.1610133    30.985945    30.985945    30.985945    29750.497 
 5022000    298.74026   -250.95051   -23097.735   -24973.993    1876.2581    1.1610133    30.985945    30.985945    30.985945    29750.497 
 5023000    296.54123   -374.00917   -23213.279   -25075.726     1862.447    1.1610133    30.985945    30.985945    30.985945    29750.497 
 5024000    305.71906    34.259902   -23127.094   -25047.183    1920.0889    1.1610133    30.985945    30.985945    30.985945    29750.497 
 5025000    299.47417   -1531.4476   -23225.952   -25106.819    1880.8675    1.1610133    30.985945    30.985945    30.985945    29750.497 
 5026000    299.39667     -1176.96   -23182.417   -25062.798    1880.3808    1.1610133    30.985945    30.985945    30.985945    29750.497 
 5027000    305.99738   -480.52584   -23049.687   -24971.524     1921.837    1.1610133    30.985945    30.985945    30.985945    29750.497 
 5028000    295.25344   -1231.8287   -23165.995   -25020.354     1854.359    1.1610133    30.985945    30.985945    30.985945    29750.497 
 5029000    295.65509   -363.96325   -23210.093   -25066.974    1856.8815    1.1610133    30.985945    30.985945    30.985945    29750.497 
 5030000    302.34798    167.36343   -23154.072   -25052.989    1898.9167    1.1610133    30.985945    30.985945    30.985945    29750.497 
 5031000    295.53753   -250.48493   -23236.317    -25092.46    1856.1432    1.1610133    30.985945    30.985945    30.985945    29750.497 
 5032000    293.05095    -1534.984   -23291.371   -25131.897    1840.5261    1.1610133    30.985945    30.985945    30.985945    29750.497 
 5033000    296.26714    -340.6308   -23256.111   -25116.837    1860.7255    1.1610133    30.985945    30.985945    30.985945    29750.497 
 5034000      295.042   -813.37052   -23192.725   -25045.756     1853.031    1.1610133    30.985945    30.985945    30.985945    29750.497 
 5035000    298.25627   -900.64933   -23146.715   -25019.933    1873.2184    1.1610133    30.985945    30.985945    30.985945    29750.497 
 5036000    297.18017   -230.09035   -23187.957   -25054.417    1866.4599    1.1610133    30.985945    30.985945    30.985945    29750.497 
 5037000    295.38036   -700.27024   -23150.878   -25006.034    1855.1561    1.1610133    30.985945    30.985945    30.985945    29750.497 
 5038000    292.37928   -1322.1644   -23216.641   -25052.949    1836.3076    1.1610133    30.985945    30.985945    30.985945    29750.497 
 5039000    301.63543   -1211.0698   -23081.294   -24975.736    1894.4414    1.1610133    30.985945    30.985945    30.985945    29750.497 
 5040000    304.93384    184.65238   -23137.915   -25053.073    1915.1574    1.1610133    30.985945    30.985945    30.985945    29750.497 
 5041000     311.0364   -301.99475    -23038.28   -24991.765    1953.4849    1.1610133    30.985945    30.985945    30.985945    29750.497 
 5042000    304.87999   -673.10525   -23138.683   -25053.502    1914.8191    1.1610133    30.985945    30.985945    30.985945    29750.497 
 5043000    295.99217    23.848593   -23161.429   -25020.428    1858.9986    1.1610133    30.985945    30.985945    30.985945    29750.497 
 5044000     298.4732   -729.82214   -23127.395   -25001.975    1874.5809    1.1610133    30.985945    30.985945    30.985945    29750.497 
 5045000    299.31795   -1433.6728   -23090.345   -24970.232    1879.8864    1.1610133    30.985945    30.985945    30.985945    29750.497 
 5046000    304.07721   -816.83642   -23117.132    -25026.91    1909.7772    1.1610133    30.985945    30.985945    30.985945    29750.497 
 5047000    298.03803   -1850.8615   -23247.508   -25119.356    1871.8478    1.1610133    30.985945    30.985945    30.985945    29750.497 
 5048000    300.45476   -706.68417   -23276.634    -25163.66    1887.0262    1.1610133    30.985945    30.985945    30.985945    29750.497 
 5049000    302.14732   -714.14576    -23210.66   -25108.317    1897.6564    1.1610133    30.985945    30.985945    30.985945    29750.497 
 5050000    309.26501    74.886536     -23233.1   -25175.459    1942.3595    1.1610133    30.985945    30.985945    30.985945    29750.497 
 5051000    296.67138   -410.34856   -23265.275    -25128.54    1863.2644    1.1610133    30.985945    30.985945    30.985945    29750.497 
 5052000    303.07901   -939.22314   -23097.589   -25001.097    1903.5079    1.1610133    30.985945    30.985945    30.985945    29750.497 
 5053000     289.0951      -594.62   -23188.732   -25004.413    1815.6811    1.1610133    30.985945    30.985945    30.985945    29750.497 
 5054000    303.63952   -83.426042   -23152.801   -25059.829    1907.0283    1.1610133    30.985945    30.985945    30.985945    29750.497 
 5055000    292.40186   -361.37676   -23193.775   -25030.224    1836.4494    1.1610133    30.985945    30.985945    30.985945    29750.497 
 5056000    306.05298    120.36707   -23124.332   -25046.518    1922.1862    1.1610133    30.985945    30.985945    30.985945    29750.497 
 5057000    305.43118   -1078.7717    -23049.78   -24968.061     1918.281    1.1610133    30.985945    30.985945    30.985945    29750.497 
 5058000    292.54114    -1211.147   -23188.375   -25025.699    1837.3242    1.1610133    30.985945    30.985945    30.985945    29750.497 
 5059000     300.2937   -586.71359   -23140.751   -25026.765    1886.0146    1.1610133    30.985945    30.985945    30.985945    29750.497 
 5060000    296.84263   -659.85493   -23245.056   -25109.396      1864.34    1.1610133    30.985945    30.985945    30.985945    29750.497 
 5061000    295.90592   -690.39984   -23266.905   -25125.362    1858.4569    1.1610133    30.985945    30.985945    30.985945    29750.497 
 5062000    310.19671   -2139.2887   -23110.701   -25058.913    1948.2111    1.1610133    30.985945    30.985945    30.985945    29750.497 
 5063000    309.13227    639.64014   -23107.819   -25049.345    1941.5259    1.1610133    30.985945    30.985945    30.985945    29750.497 
 5064000    288.82817   -494.60163   -23314.684   -25128.689    1814.0046    1.1610133    30.985945    30.985945    30.985945    29750.497 
 5065000     293.0291   -999.68263   -23226.565   -25066.954    1840.3888    1.1610133    30.985945    30.985945    30.985945    29750.497 
 5066000    296.99754   -1084.6798   -23298.883   -25164.196    1865.3129    1.1610133    30.985945    30.985945    30.985945    29750.497 
 5067000     304.3188   -194.38685    -23218.99   -25130.284    1911.2946    1.1610133    30.985945    30.985945    30.985945    29750.497 
 5068000    289.72683   -684.73136   -23287.865   -25107.514    1819.6487    1.1610133    30.985945    30.985945    30.985945    29750.497 
 5069000    296.45287   -383.98875   -23166.123   -25028.015    1861.8921    1.1610133    30.985945    30.985945    30.985945    29750.497 
 5070000    295.38349   -441.73898   -23289.121   -25144.297    1855.1757    1.1610133    30.985945    30.985945    30.985945    29750.497 
 5071000    300.36451   -1116.9674   -23177.813   -25064.273    1886.4594    1.1610133    30.985945    30.985945    30.985945    29750.497 
 5072000    301.78714   -457.86665   -23124.672   -25020.066    1895.3943    1.1610133    30.985945    30.985945    30.985945    29750.497 
 5073000    286.04148    176.10176   -23262.873   -25059.376    1796.5026    1.1610133    30.985945    30.985945    30.985945    29750.497 
 5074000    302.57899   -308.67895   -23201.255   -25101.623    1900.3676    1.1610133    30.985945    30.985945    30.985945    29750.497 
 5075000    309.54921   -518.35436   -23068.093   -25012.237    1944.1445    1.1610133    30.985945    30.985945    30.985945    29750.497 
 5076000    291.46313   -136.03286   -23122.943   -24953.497    1830.5536    1.1610133    30.985945    30.985945    30.985945    29750.497 
 5077000     302.9676   -536.91588   -23060.203   -24963.011    1902.8083    1.1610133    30.985945    30.985945    30.985945    29750.497 
 5078000    296.02449   -200.66655   -23143.636   -25002.838    1859.2016    1.1610133    30.985945    30.985945    30.985945    29750.497 
 5079000    289.14452    9.6890162   -23268.635   -25084.626    1815.9915    1.1610133    30.985945    30.985945    30.985945    29750.497 
 5080000    300.33254   -483.10217   -23129.067   -25015.325    1886.2586    1.1610133    30.985945    30.985945    30.985945    29750.497 
 5081000    291.81137   -869.09424   -23199.828   -25032.569    1832.7408    1.1610133    30.985945    30.985945    30.985945    29750.497 
 5082000    287.46137   -1337.4628   -23192.157   -24997.577    1805.4203    1.1610133    30.985945    30.985945    30.985945    29750.497 
 5083000    296.35126    -360.6759   -23215.448   -25076.702    1861.2539    1.1610133    30.985945    30.985945    30.985945    29750.497 
 5084000    296.26137    395.08632   -23166.437   -25027.126    1860.6893    1.1610133    30.985945    30.985945    30.985945    29750.497 
 5085000    302.42852   -424.52567   -23115.074   -25014.497    1899.4225    1.1610133    30.985945    30.985945    30.985945    29750.497 
 5086000    302.59433   -173.56415   -23203.107   -25103.571    1900.4639    1.1610133    30.985945    30.985945    30.985945    29750.497 
 5087000    287.23902   -1010.2218   -23279.989   -25084.013    1804.0238    1.1610133    30.985945    30.985945    30.985945    29750.497 
 5088000    297.38606    657.45133   -23176.103   -25043.856     1867.753    1.1610133    30.985945    30.985945    30.985945    29750.497 
 5089000    296.94914    559.41666   -23145.621   -25010.629    1865.0089    1.1610133    30.985945    30.985945    30.985945    29750.497 
 5090000    301.69032    -1748.671   -23247.248   -25142.034    1894.7862    1.1610133    30.985945    30.985945    30.985945    29750.497 
 5091000    304.68407   -227.42826   -23144.346   -25057.935    1913.5886    1.1610133    30.985945    30.985945    30.985945    29750.497 
 5092000    302.45442   -241.03587   -23171.118   -25070.703    1899.5852    1.1610133    30.985945    30.985945    30.985945    29750.497 
 5093000    297.64649   -830.20911   -23112.737   -24982.126    1869.3887    1.1610133    30.985945    30.985945    30.985945    29750.497 
 5094000    313.61724   -553.36357   -23159.247   -25128.941     1969.694    1.1610133    30.985945    30.985945    30.985945    29750.497 
 5095000    297.86818   -271.58496   -23152.931   -25023.712     1870.781    1.1610133    30.985945    30.985945    30.985945    29750.497 
 5096000    294.22303   -1178.6942   -23193.867   -25041.754    1847.8874    1.1610133    30.985945    30.985945    30.985945    29750.497 
 5097000    299.45135   -39.743386    -23192.69   -25073.414    1880.7242    1.1610133    30.985945    30.985945    30.985945    29750.497 
 5098000    293.17183   -321.66823   -23224.332   -25065.617    1841.2853    1.1610133    30.985945    30.985945    30.985945    29750.497 
 5099000    298.77503   -687.62087   -23116.667   -24993.144    1876.4765    1.1610133    30.985945    30.985945    30.985945    29750.497 
 5100000    289.90623    121.58288   -23237.643   -25058.418    1820.7754    1.1610133    30.985945    30.985945    30.985945    29750.497 
 5101000    305.81226   -491.29785   -23141.042   -25061.716    1920.6743    1.1610133    30.985945    30.985945    30.985945    29750.497 
 5102000    302.53889   -1329.8994   -23115.586   -25015.702    1900.1157    1.1610133    30.985945    30.985945    30.985945    29750.497 
 5103000    304.97106   -452.81836   -23144.504   -25059.895    1915.3911    1.1610133    30.985945    30.985945    30.985945    29750.497 
 5104000    296.38105    300.91537   -23250.155   -25111.596     1861.441    1.1610133    30.985945    30.985945    30.985945    29750.497 
 5105000    299.09509    -1283.206   -23139.142   -25017.629    1878.4867    1.1610133    30.985945    30.985945    30.985945    29750.497 
 5106000    290.69252   -564.11752   -23278.655   -25104.369    1825.7138    1.1610133    30.985945    30.985945    30.985945    29750.497 
 5107000     294.9259   -807.63854   -23297.196   -25149.497    1852.3018    1.1610133    30.985945    30.985945    30.985945    29750.497 
 5108000    295.98972   -22.869055   -23197.214   -25056.198    1858.9832    1.1610133    30.985945    30.985945    30.985945    29750.497 
 5109000    296.08152   -3.8742804   -23192.996   -25052.556    1859.5597    1.1610133    30.985945    30.985945    30.985945    29750.497 
 5110000    297.52059   -754.91037   -23215.019   -25083.617     1868.598    1.1610133    30.985945    30.985945    30.985945    29750.497 
 5111000    295.67361   -125.92076   -23184.958   -25041.956    1856.9979    1.1610133    30.985945    30.985945    30.985945    29750.497 
 5112000    298.99567   -719.29897   -23200.269   -25078.131    1877.8623    1.1610133    30.985945    30.985945    30.985945    29750.497 
 5113000    302.17738   -459.31051   -23125.962   -25023.807    1897.8452    1.1610133    30.985945    30.985945    30.985945    29750.497 
 5114000    285.32747   -531.93686   -23189.788   -24981.806    1792.0182    1.1610133    30.985945    30.985945    30.985945    29750.497 
 5115000    292.82714    280.50219   -23200.013   -25039.134    1839.1204    1.1610133    30.985945    30.985945    30.985945    29750.497 
 5116000    295.81374   -1014.0993   -23244.413    -25102.29    1857.8779    1.1610133    30.985945    30.985945    30.985945    29750.497 
 5117000    291.13123   -870.87904   -23194.642   -25023.111    1828.4691    1.1610133    30.985945    30.985945    30.985945    29750.497 
 5118000    299.56059   -543.89372   -23216.105   -25097.515    1881.4103    1.1610133    30.985945    30.985945    30.985945    29750.497 
 5119000    291.76989   -67.605376   -23267.847   -25100.327    1832.4803    1.1610133    30.985945    30.985945    30.985945    29750.497 
 5120000    296.63462   -772.65311   -23167.663   -25030.696    1863.0335    1.1610133    30.985945    30.985945    30.985945    29750.497 
 5121000    290.48963   -663.86216   -23295.601    -25120.04    1824.4395    1.1610133    30.985945    30.985945    30.985945    29750.497 
 5122000    294.52825   -771.91864    -23133.55   -24983.354    1849.8044    1.1610133    30.985945    30.985945    30.985945    29750.497 
 5123000    296.13302    530.57405   -23241.651   -25101.534    1859.8832    1.1610133    30.985945    30.985945    30.985945    29750.497 
 5124000      302.383   -1256.5788   -23166.377   -25065.514    1899.1366    1.1610133    30.985945    30.985945    30.985945    29750.497 
 5125000    303.11696    -28.17787   -23189.217   -25092.963    1903.7463    1.1610133    30.985945    30.985945    30.985945    29750.497 
 5126000    311.11671   -738.83061   -23080.795   -25034.784    1953.9893    1.1610133    30.985945    30.985945    30.985945    29750.497 
 5127000    303.72562   -370.88961   -23163.336   -25070.905    1907.5691    1.1610133    30.985945    30.985945    30.985945    29750.497 
 5128000    302.41742   -190.28447   -23098.773   -24998.126    1899.3528    1.1610133    30.985945    30.985945    30.985945    29750.497 
 5129000    298.46288   -476.60925   -23214.235   -25088.751     1874.516    1.1610133    30.985945    30.985945    30.985945    29750.497 
 5130000    296.84311   -1192.5044    -23088.42   -24952.763     1864.343    1.1610133    30.985945    30.985945    30.985945    29750.497 
 5131000    297.79412     422.8885   -23163.355   -25033.671    1870.3158    1.1610133    30.985945    30.985945    30.985945    29750.497 
 5132000    301.37944   -267.86053   -23179.936    -25072.77    1892.8337    1.1610133    30.985945    30.985945    30.985945    29750.497 
 5133000    295.22197   -1098.2479   -23208.999   -25063.161    1854.1613    1.1610133    30.985945    30.985945    30.985945    29750.497 
 5134000    294.01679   -1168.1426    -23251.61   -25098.202    1846.5921    1.1610133    30.985945    30.985945    30.985945    29750.497 
 5135000     299.6504     -413.674   -23210.087   -25092.061    1881.9743    1.1610133    30.985945    30.985945    30.985945    29750.497 
 5136000    298.51702    115.30567   -23209.533   -25084.389    1874.8561    1.1610133    30.985945    30.985945    30.985945    29750.497 
 5137000    299.89995   -377.18844   -23141.929   -25025.471    1883.5417    1.1610133    30.985945    30.985945    30.985945    29750.497 
 5138000    296.64677   -727.59123   -23208.386   -25071.496    1863.1098    1.1610133    30.985945    30.985945    30.985945    29750.497 
 5139000    293.92414   -148.11847   -23300.985   -25146.995    1846.0102    1.1610133    30.985945    30.985945    30.985945    29750.497 
 5140000    301.52549   -96.483699   -23238.291   -25132.042    1893.7509    1.1610133    30.985945    30.985945    30.985945    29750.497 
 5141000    299.93767   -802.75844   -23210.428   -25094.206    1883.7786    1.1610133    30.985945    30.985945    30.985945    29750.497 
 5142000    298.32564     58.79964   -23155.002   -25028.656    1873.6541    1.1610133    30.985945    30.985945    30.985945    29750.497 
 5143000     309.8809    -672.6323   -23229.345   -25175.573    1946.2277    1.1610133    30.985945    30.985945    30.985945    29750.497 
 5144000    288.45512   -717.07204    -23281.32   -25092.982    1811.6617    1.1610133    30.985945    30.985945    30.985945    29750.497 
 5145000    293.63783     -474.274   -23318.627   -25162.839     1844.212    1.1610133    30.985945    30.985945    30.985945    29750.497 
 5146000    297.34278   -1063.8074   -23210.659    -25078.14    1867.4812    1.1610133    30.985945    30.985945    30.985945    29750.497 
 5147000    294.94429   -692.98316   -23207.734   -25060.151    1852.4173    1.1610133    30.985945    30.985945    30.985945    29750.497 
 5148000    289.74886   -752.86644   -23251.416   -25071.203     1819.787    1.1610133    30.985945    30.985945    30.985945    29750.497 
 5149000    302.73005   -31.091747   -23115.872   -25017.188    1901.3163    1.1610133    30.985945    30.985945    30.985945    29750.497 
 5150000    292.99577    765.26471   -23283.547   -25123.726    1840.1795    1.1610133    30.985945    30.985945    30.985945    29750.497 
 5151000    296.92035   -315.67585   -23234.098   -25098.926    1864.8281    1.1610133    30.985945    30.985945    30.985945    29750.497 
 5152000    295.79358    -38.91273   -23211.374   -25069.126    1857.7514    1.1610133    30.985945    30.985945    30.985945    29750.497 
 5153000    301.16175   -461.09004   -23248.166   -25139.632    1891.4665    1.1610133    30.985945    30.985945    30.985945    29750.497 
 5154000    300.96458    276.08419   -23204.587   -25094.815    1890.2281    1.1610133    30.985945    30.985945    30.985945    29750.497 
 5155000     303.1727   -357.83239   -23146.496   -25050.593    1904.0964    1.1610133    30.985945    30.985945    30.985945    29750.497 
 5156000    296.87002    -483.8254   -23277.891   -25142.403     1864.512    1.1610133    30.985945    30.985945    30.985945    29750.497 
 5157000    300.24446    -365.7076   -23207.411   -25093.116    1885.7054    1.1610133    30.985945    30.985945    30.985945    29750.497 
 5158000     295.3332   -548.16449   -23252.379   -25107.239    1854.8599    1.1610133    30.985945    30.985945    30.985945    29750.497 
 5159000    300.49287    127.33751   -23166.225    -25053.49    1887.2656    1.1610133    30.985945    30.985945    30.985945    29750.497 
 5160000    303.17363   -672.53381   -23225.099   -25129.201    1904.1022    1.1610133    30.985945    30.985945    30.985945    29750.497 
 5161000    296.64377   -616.17714   -23196.771   -25059.862     1863.091    1.1610133    30.985945    30.985945    30.985945    29750.497 
 5162000    295.80606   -207.00217   -23227.189   -25085.018    1857.8297    1.1610133    30.985945    30.985945    30.985945    29750.497 
 5163000    300.89535   -179.19669   -23224.288   -25114.082    1889.7933    1.1610133    30.985945    30.985945    30.985945    29750.497 
 5164000     298.9972   -354.19678   -23225.306   -25103.178    1877.8719    1.1610133    30.985945    30.985945    30.985945    29750.497 
 5165000     293.6965   -372.64693   -23195.542   -25040.122    1844.5804    1.1610133    30.985945    30.985945    30.985945    29750.497 
 5166000    307.83104   -81.823931   -23101.416   -25034.769    1933.3534    1.1610133    30.985945    30.985945    30.985945    29750.497 
 5167000    293.90919   -951.11423   -23196.696   -25042.612    1845.9163    1.1610133    30.985945    30.985945    30.985945    29750.497 
 5168000    300.80442   -524.64981   -23051.592   -24940.814    1889.2222    1.1610133    30.985945    30.985945    30.985945    29750.497 
 5169000    307.13923   -404.62417    -22991.83   -24920.839    1929.0084    1.1610133    30.985945    30.985945    30.985945    29750.497 
 5170000    299.63121   -515.64048   -23166.409   -25048.263    1881.8538    1.1610133    30.985945    30.985945    30.985945    29750.497 
 5171000    302.17862   -258.32085   -23118.202   -25016.055     1897.853    1.1610133    30.985945    30.985945    30.985945    29750.497 
 5172000     299.8237   -971.54326   -23117.707    -25000.77    1883.0628    1.1610133    30.985945    30.985945    30.985945    29750.497 
 5173000    298.43458   -401.23176   -23161.316   -25035.655    1874.3383    1.1610133    30.985945    30.985945    30.985945    29750.497 
 5174000    291.90412   -157.10656   -23210.511   -25043.834    1833.3233    1.1610133    30.985945    30.985945    30.985945    29750.497 
 5175000    297.12204    1203.8303   -23166.687   -25032.781    1866.0948    1.1610133    30.985945    30.985945    30.985945    29750.497 
 5176000    292.53243   -1058.1887   -23239.183   -25076.452    1837.2695    1.1610133    30.985945    30.985945    30.985945    29750.497 
 5177000    301.37052   -1489.3907   -23159.603   -25052.381    1892.7777    1.1610133    30.985945    30.985945    30.985945    29750.497 
 5178000    295.53382   -314.49938   -23257.593   -25113.713    1856.1199    1.1610133    30.985945    30.985945    30.985945    29750.497 
 5179000    303.60095   -637.60382   -23097.464    -25004.25     1906.786    1.1610133    30.985945    30.985945    30.985945    29750.497 
 5180000    296.42141   -252.65778   -23230.647   -25092.342    1861.6945    1.1610133    30.985945    30.985945    30.985945    29750.497 
 5181000     302.9782   -800.08575   -23149.203   -25052.078    1902.8748    1.1610133    30.985945    30.985945    30.985945    29750.497 
 5182000    303.08486   -339.08539   -23235.421   -25138.966    1903.5447    1.1610133    30.985945    30.985945    30.985945    29750.497 
 5183000    297.60633   -228.02815   -23271.977   -25141.114    1869.1364    1.1610133    30.985945    30.985945    30.985945    29750.497 
 5184000    291.07499   -143.43089   -23301.078   -25129.194    1828.1159    1.1610133    30.985945    30.985945    30.985945    29750.497 
 5185000    291.04441   -459.24204   -23226.719   -25054.643    1827.9239    1.1610133    30.985945    30.985945    30.985945    29750.497 
 5186000    297.75092   -545.50273   -23317.587   -25187.632    1870.0445    1.1610133    30.985945    30.985945    30.985945    29750.497 
 5187000    303.43275     -328.978    -23235.68    -25141.41    1905.7297    1.1610133    30.985945    30.985945    30.985945    29750.497 
 5188000    298.90109   -176.71611   -23206.665   -25083.933    1877.2683    1.1610133    30.985945    30.985945    30.985945    29750.497 
 5189000    301.62091   -802.00068   -23099.445   -24993.795    1894.3502    1.1610133    30.985945    30.985945    30.985945    29750.497 
 5190000    298.04868   -680.70742   -23282.701   -25154.616    1871.9146    1.1610133    30.985945    30.985945    30.985945    29750.497 
 5191000    300.39133    -679.0662   -23225.126   -25111.754    1886.6278    1.1610133    30.985945    30.985945    30.985945    29750.497 
 5192000    300.28574   -764.42135   -23159.783   -25045.747    1885.9647    1.1610133    30.985945    30.985945    30.985945    29750.497 
 5193000    300.76606   -622.97325   -23200.204   -25089.186    1888.9813    1.1610133    30.985945    30.985945    30.985945    29750.497 
 5194000    297.27792   -262.01088   -23175.859   -25042.932    1867.0738    1.1610133    30.985945    30.985945    30.985945    29750.497 
 5195000    295.03083    171.34568   -23237.037   -25089.998    1852.9609    1.1610133    30.985945    30.985945    30.985945    29750.497 
 5196000    301.72897   -147.44458   -23152.363   -25047.392     1895.029    1.1610133    30.985945    30.985945    30.985945    29750.497 
 5197000    297.21274   -641.40236   -23135.036     -25001.7    1866.6644    1.1610133    30.985945    30.985945    30.985945    29750.497 
 5198000    300.56369   -663.16686   -23129.829   -25017.539    1887.7104    1.1610133    30.985945    30.985945    30.985945    29750.497 
 5199000    301.40807    -1021.813   -23243.663   -25136.676    1893.0135    1.1610133    30.985945    30.985945    30.985945    29750.497 
 5200000     309.4146   -1123.6634   -23114.284   -25057.583    1943.2991    1.1610133    30.985945    30.985945    30.985945    29750.497 
 5201000    296.75545   -713.56876   -23220.021   -25083.814    1863.7924    1.1610133    30.985945    30.985945    30.985945    29750.497 
 5202000    296.92873      598.817   -23225.273   -25090.153    1864.8807    1.1610133    30.985945    30.985945    30.985945    29750.497 
 5203000    309.88461    207.94569   -23165.768   -25112.019     1946.251    1.1610133    30.985945    30.985945    30.985945    29750.497 
 5204000    292.80119    -1128.029   -23269.692   -25108.649    1838.9574    1.1610133    30.985945    30.985945    30.985945    29750.497 
 5205000    295.27546   -847.60269   -23146.699   -25001.196    1854.4972    1.1610133    30.985945    30.985945    30.985945    29750.497 
 5206000    299.16926    127.82397   -23222.814   -25101.767    1878.9525    1.1610133    30.985945    30.985945    30.985945    29750.497 
 5207000    303.86209     -1412.23    -23227.75   -25136.176    1908.4262    1.1610133    30.985945    30.985945    30.985945    29750.497 
 5208000    298.61752    546.00201   -23220.614   -25096.102    1875.4873    1.1610133    30.985945    30.985945    30.985945    29750.497 
 5209000    296.74891    -77.02555   -23250.334   -25114.085    1863.7513    1.1610133    30.985945    30.985945    30.985945    29750.497 
 5210000     276.0797   -579.39771   -23356.283    -25090.22     1733.937    1.1610133    30.985945    30.985945    30.985945    29750.497 
 5211000    305.48105   -943.26887   -23194.765   -25113.359    1918.5941    1.1610133    30.985945    30.985945    30.985945    29750.497 
 5212000    287.89296   -485.86448   -23299.837   -25107.968     1808.131    1.1610133    30.985945    30.985945    30.985945    29750.497 
 5213000    301.24899   -1022.5376   -23287.311   -25179.325    1892.0144    1.1610133    30.985945    30.985945    30.985945    29750.497 
 5214000    306.91721    711.87398   -23074.938   -25002.552     1927.614    1.1610133    30.985945    30.985945    30.985945    29750.497 
 5215000    297.09919   -22.740365   -23148.312   -25014.264    1865.9513    1.1610133    30.985945    30.985945    30.985945    29750.497 
 5216000    300.80779    -435.3745   -23154.999   -25044.243    1889.2434    1.1610133    30.985945    30.985945    30.985945    29750.497 
 5217000    303.33226   -691.89247   -23143.318   -25048.417    1905.0985    1.1610133    30.985945    30.985945    30.985945    29750.497 
 5218000    296.93861   -1472.7013   -23250.417    -25115.36    1864.9428    1.1610133    30.985945    30.985945    30.985945    29750.497 
 5219000    294.45712   -297.35276   -23238.688   -25088.045    1849.3576    1.1610133    30.985945    30.985945    30.985945    29750.497 
 5220000    299.38762   -601.79987   -23142.242   -25022.565    1880.3239    1.1610133    30.985945    30.985945    30.985945    29750.497 
 5221000    299.57576    -1083.618     -23132.4   -25013.905    1881.5056    1.1610133    30.985945    30.985945    30.985945    29750.497 
 5222000    307.71878    177.09169   -23123.174   -25055.823    1932.6484    1.1610133    30.985945    30.985945    30.985945    29750.497 
 5223000    302.12797   -671.62773   -23166.212   -25063.746    1897.5349    1.1610133    30.985945    30.985945    30.985945    29750.497 
 5224000    304.80704   -872.52129   -23237.551   -25151.912     1914.361    1.1610133    30.985945    30.985945    30.985945    29750.497 
 5225000    294.38478    245.83357    -23243.44   -25092.343    1848.9032    1.1610133    30.985945    30.985945    30.985945    29750.497 
 5226000    297.53327   -782.27697    -23247.07   -25115.747    1868.6776    1.1610133    30.985945    30.985945    30.985945    29750.497 
 5227000    294.52759   -806.57244   -23204.281   -25054.081    1849.8002    1.1610133    30.985945    30.985945    30.985945    29750.497 
 5228000    296.21394   -730.10928   -23231.343   -25091.734    1860.3914    1.1610133    30.985945    30.985945    30.985945    29750.497 
 5229000    293.28561    566.81167   -23298.033   -25140.033    1841.9999    1.1610133    30.985945    30.985945    30.985945    29750.497 
 5230000    306.44028   -434.67742   -23260.177   -25184.796    1924.6186    1.1610133    30.985945    30.985945    30.985945    29750.497 
 5231000      302.992    172.98654   -23128.508   -25031.469    1902.9615    1.1610133    30.985945    30.985945    30.985945    29750.497 
 5232000    298.66014   -1246.7304   -23234.837   -25110.592     1875.755    1.1610133    30.985945    30.985945    30.985945    29750.497 
 5233000    297.75021   -643.25244   -23234.285   -25104.325    1870.0401    1.1610133    30.985945    30.985945    30.985945    29750.497 
 5234000    282.67431   -183.08981    -23318.23   -25093.585    1775.3549    1.1610133    30.985945    30.985945    30.985945    29750.497 
 5235000     296.3801    97.725935   -23225.177   -25086.612     1861.435    1.1610133    30.985945    30.985945    30.985945    29750.497 
 5236000    297.67876    12.675773   -23182.543   -25052.134    1869.5914    1.1610133    30.985945    30.985945    30.985945    29750.497 
 5237000    296.56756   -1449.0318   -23250.271   -25112.883    1862.6123    1.1610133    30.985945    30.985945    30.985945    29750.497 
 5238000     293.8293   -421.49587   -23197.999   -25043.413    1845.4145    1.1610133    30.985945    30.985945    30.985945    29750.497 
 5239000    298.28174   -594.77328   -23196.434   -25069.812    1873.3784    1.1610133    30.985945    30.985945    30.985945    29750.497 
 5240000    296.80827   -159.05155    -23187.79   -25051.914    1864.1241    1.1610133    30.985945    30.985945    30.985945    29750.497 
 5241000    306.73932   -233.19144   -23083.193    -25009.69    1926.4968    1.1610133    30.985945    30.985945    30.985945    29750.497 
 5242000    298.20402   -94.947454   -23222.233   -25095.123    1872.8902    1.1610133    30.985945    30.985945    30.985945    29750.497 
 5243000    306.58695   -396.92033   -23088.822   -25014.362    1925.5398    1.1610133    30.985945    30.985945    30.985945    29750.497 
 5244000    290.51481   -1938.1811   -23217.937   -25042.534    1824.5977    1.1610133    30.985945    30.985945    30.985945    29750.497 
 5245000    292.80619   -785.26856   -23248.976   -25087.965    1838.9888    1.1610133    30.985945    30.985945    30.985945    29750.497 
 5246000    296.55247   -260.86703   -23200.998   -25063.516    1862.5176    1.1610133    30.985945    30.985945    30.985945    29750.497 
 5247000    296.72214   -603.35123   -23141.255   -25004.838    1863.5832    1.1610133    30.985945    30.985945    30.985945    29750.497 
 5248000    302.89045    307.57982   -23148.618   -25050.942    1902.3237    1.1610133    30.985945    30.985945    30.985945    29750.497 
 5249000    292.72935   -1290.5007   -23197.762   -25036.268    1838.5062    1.1610133    30.985945    30.985945    30.985945    29750.497 
 5250000    294.91345   -261.08951   -23150.347    -25002.57    1852.2236    1.1610133    30.985945    30.985945    30.985945    29750.497 
 5251000    303.11738   -190.69271   -23133.425   -25037.174    1903.7489    1.1610133    30.985945    30.985945    30.985945    29750.497 
 5252000    298.16706    -370.6491   -23252.102    -25124.76    1872.6581    1.1610133    30.985945    30.985945    30.985945    29750.497 
 5253000    294.64306    399.67611   -23209.568   -25060.094    1850.5254    1.1610133    30.985945    30.985945    30.985945    29750.497 
 5254000    305.05258    86.437083   -23178.906   -25094.809    1915.9031    1.1610133    30.985945    30.985945    30.985945    29750.497 
 5255000    301.86072   -1316.5051   -23197.275   -25093.131    1895.8564    1.1610133    30.985945    30.985945    30.985945    29750.497 
 5256000    303.71277   -292.76925   -23122.347   -25029.835    1907.4883    1.1610133    30.985945    30.985945    30.985945    29750.497 
 5257000    302.99612   -623.97459   -23155.258   -25058.245    1902.9874    1.1610133    30.985945    30.985945    30.985945    29750.497 
 5258000    305.81921   -688.29271   -23214.892    -25135.61     1920.718    1.1610133    30.985945    30.985945    30.985945    29750.497 
 5259000      302.135   -868.32158   -23168.973   -25066.552     1897.579    1.1610133    30.985945    30.985945    30.985945    29750.497 
 5260000    298.79755   -183.67033   -23232.546   -25109.164     1876.618    1.1610133    30.985945    30.985945    30.985945    29750.497 
 5261000    304.42165     411.4077    -23179.28   -25091.221    1911.9405    1.1610133    30.985945    30.985945    30.985945    29750.497 
 5262000    297.09269   -143.81183   -23215.372   -25081.282    1865.9105    1.1610133    30.985945    30.985945    30.985945    29750.497 
 5263000    294.70844   -1373.7944    -23206.86   -25057.796     1850.936    1.1610133    30.985945    30.985945    30.985945    29750.497 
 5264000     293.8581   -31.602667   -23241.387   -25086.983    1845.5954    1.1610133    30.985945    30.985945    30.985945    29750.497 
 5265000    298.52294    15.128445    -23163.58   -25038.473    1874.8933    1.1610133    30.985945    30.985945    30.985945    29750.497 
 5266000    302.67799   -436.47944    -23148.38   -25049.369    1900.9894    1.1610133    30.985945    30.985945    30.985945    29750.497 
 5267000    297.22193   -1064.9215   -23208.621   -25075.343    1866.7221    1.1610133    30.985945    30.985945    30.985945    29750.497 
 5268000    303.18864   -1135.7423   -23146.405   -25050.601    1904.1965    1.1610133    30.985945    30.985945    30.985945    29750.497 
 5269000    301.30294   -311.84168   -23192.421   -25084.774    1892.3532    1.1610133    30.985945    30.985945    30.985945    29750.497 
 5270000    302.05999   -808.07615   -23126.667   -25023.775    1897.1079    1.1610133    30.985945    30.985945    30.985945    29750.497 
 5271000    298.74712   -1210.9326   -23164.382   -25040.683    1876.3012    1.1610133    30.985945    30.985945    30.985945    29750.497 
 5272000    302.69514    378.44094   -23205.678   -25106.775    1901.0971    1.1610133    30.985945    30.985945    30.985945    29750.497 
 5273000    300.55115    -400.6564   -23174.247   -25061.878    1887.6316    1.1610133    30.985945    30.985945    30.985945    29750.497 
 5274000    296.59883   -1103.9846   -23208.215   -25071.024    1862.8088    1.1610133    30.985945    30.985945    30.985945    29750.497 
 5275000    299.64421    25.372219   -23138.608   -25020.543    1881.9355    1.1610133    30.985945    30.985945    30.985945    29750.497 
 5276000    292.24037    -517.6325   -23197.617   -25033.052    1835.4351    1.1610133    30.985945    30.985945    30.985945    29750.497 
 5277000    301.76262   -161.22485    -23008.72    -24903.96    1895.2403    1.1610133    30.985945    30.985945    30.985945    29750.497 
 5278000    296.92523   -541.09998   -23177.989   -25042.848    1864.8587    1.1610133    30.985945    30.985945    30.985945    29750.497 
 5279000    290.20006    -455.6751   -23223.852   -25046.473    1822.6208    1.1610133    30.985945    30.985945    30.985945    29750.497 
 5280000    304.70893   -680.55181   -23156.879   -25070.624    1913.7448    1.1610133    30.985945    30.985945    30.985945    29750.497 
 5281000    297.75753   -1090.5728   -23260.089   -25130.175    1870.0861    1.1610133    30.985945    30.985945    30.985945    29750.497 
 5282000    298.43779   -384.36105   -23191.926   -25066.284    1874.3584    1.1610133    30.985945    30.985945    30.985945    29750.497 
 5283000    295.84888    -653.8209   -23168.119   -25026.218    1858.0986    1.1610133    30.985945    30.985945    30.985945    29750.497 
 5284000    301.91804   -929.29069   -23208.448   -25104.664    1896.2164    1.1610133    30.985945    30.985945    30.985945    29750.497 
 5285000    301.81362   -976.81182   -23195.177   -25090.738    1895.5606    1.1610133    30.985945    30.985945    30.985945    29750.497 
 5286000    301.89174    602.29471   -23230.768   -25126.819    1896.0513    1.1610133    30.985945    30.985945    30.985945    29750.497 
 5287000    297.78651   -794.10013   -23220.218   -25090.486     1870.268    1.1610133    30.985945    30.985945    30.985945    29750.497 
 5288000    300.66643   -577.47474   -23261.888   -25150.244    1888.3556    1.1610133    30.985945    30.985945    30.985945    29750.497 
 5289000    300.98786     -1104.26    -23257.26   -25147.634    1890.3744    1.1610133    30.985945    30.985945    30.985945    29750.497 
 5290000    301.04495    2.1434721   -23238.756   -25129.489    1890.7329    1.1610133    30.985945    30.985945    30.985945    29750.497 
 5291000    299.12174   -318.99261   -23273.829   -25152.483    1878.6541    1.1610133    30.985945    30.985945    30.985945    29750.497 
 5292000    300.76867    42.230243   -23214.398   -25103.396    1888.9977    1.1610133    30.985945    30.985945    30.985945    29750.497 
 5293000    305.00528   -325.03307   -23041.184    -24956.79     1915.606    1.1610133    30.985945    30.985945    30.985945    29750.497 
 5294000    295.01994   -1169.1376   -23120.071   -24972.964    1852.8924    1.1610133    30.985945    30.985945    30.985945    29750.497 
 5295000     293.7104   -907.07437   -23179.089   -25023.756    1844.6678    1.1610133    30.985945    30.985945    30.985945    29750.497 
 5296000    300.57635   -553.70249   -23241.104   -25128.894    1887.7898    1.1610133    30.985945    30.985945    30.985945    29750.497 
 5297000      292.909    120.31726   -23164.928   -25004.563    1839.6345    1.1610133    30.985945    30.985945    30.985945    29750.497 
 5298000    287.39932   -1126.4887    -23266.78   -25071.811    1805.0306    1.1610133    30.985945    30.985945    30.985945    29750.497 
 5299000    304.28318   -389.60965   -23122.298   -25033.369    1911.0708    1.1610133    30.985945    30.985945    30.985945    29750.497 
 5300000    304.92599     303.4652   -23191.135   -25106.243     1915.108    1.1610133    30.985945    30.985945    30.985945    29750.497 
 5301000     302.5496   -785.11835   -23108.953   -25009.136     1900.183    1.1610133    30.985945    30.985945    30.985945    29750.497 
 5302000    309.29344    97.971362   -23074.243   -25016.781    1942.5381    1.1610133    30.985945    30.985945    30.985945    29750.497 
 5303000    296.20603   -152.06465   -23219.084   -25079.425    1860.3418    1.1610133    30.985945    30.985945    30.985945    29750.497 
 5304000    287.01025    -80.68678   -23303.569   -25106.156     1802.587    1.1610133    30.985945    30.985945    30.985945    29750.497 
 5305000    295.30246    722.29766   -23106.198   -24960.865    1854.6668    1.1610133    30.985945    30.985945    30.985945    29750.497 
 5306000     298.0599   -106.22404   -23136.337   -25008.323    1871.9851    1.1610133    30.985945    30.985945    30.985945    29750.497 
 5307000    292.68293   -1261.0142   -23328.698   -25166.913    1838.2147    1.1610133    30.985945    30.985945    30.985945    29750.497 
 5308000    300.07092   -122.60496    -23203.66   -25088.275    1884.6155    1.1610133    30.985945    30.985945    30.985945    29750.497 
 5309000    295.75143   -236.01059   -23251.975   -25109.462    1857.4866    1.1610133    30.985945    30.985945    30.985945    29750.497 
 5310000    309.34065   -11.308979   -23120.049   -25062.883    1942.8346    1.1610133    30.985945    30.985945    30.985945    29750.497 
 5311000    292.08784   -743.17196   -23287.019   -25121.496    1834.4772    1.1610133    30.985945    30.985945    30.985945    29750.497 
 5312000    301.61204   -940.08475   -23152.363   -25046.658    1894.2946    1.1610133    30.985945    30.985945    30.985945    29750.497 
 5313000    294.26828    144.10352    -23200.14   -25048.311    1848.1716    1.1610133    30.985945    30.985945    30.985945    29750.497 
 5314000    296.54025   -757.99564   -23325.284   -25187.725    1862.4409    1.1610133    30.985945    30.985945    30.985945    29750.497 
 5315000    296.68589   -39.932002   -23162.552   -25025.908    1863.3555    1.1610133    30.985945    30.985945    30.985945    29750.497 
 5316000    298.03892   -1129.8315   -23205.679   -25077.533    1871.8533    1.1610133    30.985945    30.985945    30.985945    29750.497 
 5317000    287.20115     -653.673   -23255.215   -25059.001     1803.786    1.1610133    30.985945    30.985945    30.985945    29750.497 
 5318000    293.52128   -812.03934   -23171.431   -25014.911      1843.48    1.1610133    30.985945    30.985945    30.985945    29750.497 
 5319000    289.03401    -591.3425    -23247.89   -25063.187    1815.2974    1.1610133    30.985945    30.985945    30.985945    29750.497 
 5320000    300.63971   -672.11418   -23183.413   -25071.601    1888.1878    1.1610133    30.985945    30.985945    30.985945    29750.497 
 5321000    311.12059   -201.32832   -23132.466   -25086.479    1954.0136    1.1610133    30.985945    30.985945    30.985945    29750.497 
 5322000     299.2897    -800.4208   -23204.606   -25084.315     1879.709    1.1610133    30.985945    30.985945    30.985945    29750.497 
 5323000    293.43146   -956.58525   -23275.741   -25118.657    1842.9159    1.1610133    30.985945    30.985945    30.985945    29750.497 
 5324000    301.91018   -427.81849   -23192.229   -25088.396     1896.167    1.1610133    30.985945    30.985945    30.985945    29750.497 
 5325000    295.34864   -828.04964   -23115.854   -24970.811    1854.9568    1.1610133    30.985945    30.985945    30.985945    29750.497 
 5326000    286.67955   -771.06381   -23220.651   -25021.162    1800.5101    1.1610133    30.985945    30.985945    30.985945    29750.497 
 5327000    295.28913   -523.07811   -23171.169   -25025.752    1854.5831    1.1610133    30.985945    30.985945    30.985945    29750.497 
 5328000    290.11757   -981.77415   -23278.723   -25100.826    1822.1028    1.1610133    30.985945    30.985945    30.985945    29750.497 
 5329000    301.74662   -939.98635   -23180.154   -25075.294    1895.1398    1.1610133    30.985945    30.985945    30.985945    29750.497 
 5330000    301.08893   -960.32284   -23087.748   -24978.757    1891.0091    1.1610133    30.985945    30.985945    30.985945    29750.497 
 5331000    298.40671   -1167.2003   -23109.504   -24983.667    1874.1633    1.1610133    30.985945    30.985945    30.985945    29750.497 
 5332000    301.39386   -619.27412   -23100.015   -24992.939    1892.9243    1.1610133    30.985945    30.985945    30.985945    29750.497 
 5333000    296.56139   -102.14839   -23259.195   -25121.769    1862.5736    1.1610133    30.985945    30.985945    30.985945    29750.497 
 5334000    296.36271   -829.05506   -23274.366   -25135.692    1861.3258    1.1610133    30.985945    30.985945    30.985945    29750.497 
 5335000    297.00859   -325.38969   -23163.042   -25028.424    1865.3823    1.1610133    30.985945    30.985945    30.985945    29750.497 
 5336000    295.18356    -296.6581    -23226.93    -25080.85      1853.92    1.1610133    30.985945    30.985945    30.985945    29750.497 
 5337000     306.0479   -406.76277   -23172.947   -25095.101    1922.1543    1.1610133    30.985945    30.985945    30.985945    29750.497 
 5338000    302.51129   -131.98438   -23192.958   -25092.901    1899.9424    1.1610133    30.985945    30.985945    30.985945    29750.497 
 5339000    303.68921    361.45948   -23222.099    -25129.44    1907.3404    1.1610133    30.985945    30.985945    30.985945    29750.497 
 5340000    303.22773    -1142.389   -23117.373   -25021.815     1904.442    1.1610133    30.985945    30.985945    30.985945    29750.497 
 5341000    304.24419   -1542.9652   -23125.852   -25036.678    1910.8259    1.1610133    30.985945    30.985945    30.985945    29750.497 
 5342000    298.27464   -313.05287   -23204.039   -25077.373    1873.3338    1.1610133    30.985945    30.985945    30.985945    29750.497 
 5343000    299.38766   -38.345141   -23185.242   -25065.566    1880.3242    1.1610133    30.985945    30.985945    30.985945    29750.497 
 5344000    298.44333   -742.68607   -23148.324   -25022.717    1874.3933    1.1610133    30.985945    30.985945    30.985945    29750.497 
 5345000    301.14718   -887.59829   -23064.508   -24955.883     1891.375    1.1610133    30.985945    30.985945    30.985945    29750.497 
 5346000    291.96279   -712.17728   -23218.071   -25051.762    1833.6918    1.1610133    30.985945    30.985945    30.985945    29750.497 
 5347000    295.74995   -1245.4904   -23171.407   -25028.885    1857.4773    1.1610133    30.985945    30.985945    30.985945    29750.497 
 5348000    306.40239    29.926538   -23087.955   -25012.335    1924.3807    1.1610133    30.985945    30.985945    30.985945    29750.497 
 5349000    299.30386    781.41067   -23166.809   -25046.607    1879.7979    1.1610133    30.985945    30.985945    30.985945    29750.497 
 5350000    293.92538   -988.39873   -23201.818   -25047.836     1846.018    1.1610133    30.985945    30.985945    30.985945    29750.497 
 5351000    303.69554   -493.92768   -23118.782   -25026.162    1907.3801    1.1610133    30.985945    30.985945    30.985945    29750.497 
 5352000    298.52804   -918.73158    -23214.58   -25089.506    1874.9253    1.1610133    30.985945    30.985945    30.985945    29750.497 
 5353000    292.55527   -1.5148666   -23164.875   -25002.288    1837.4129    1.1610133    30.985945    30.985945    30.985945    29750.497 
 5354000    293.59096   -602.01377   -23180.599   -25024.516    1843.9176    1.1610133    30.985945    30.985945    30.985945    29750.497 
 5355000    299.86982   -1197.4619   -23157.329   -25040.682    1883.3524    1.1610133    30.985945    30.985945    30.985945    29750.497 
 5356000    308.38123   -92.496114   -23086.158   -25022.967    1936.8089    1.1610133    30.985945    30.985945    30.985945    29750.497 
 5357000    291.68776   -523.80288   -23189.545   -25021.509    1831.9645    1.1610133    30.985945    30.985945    30.985945    29750.497 
 5358000    306.55911   -248.14926   -23227.726   -25153.091     1925.365    1.1610133    30.985945    30.985945    30.985945    29750.497 
 5359000    296.94111   -514.68966    -23210.48   -25075.439    1864.9585    1.1610133    30.985945    30.985945    30.985945    29750.497 
 5360000    298.63516    -1278.404   -23231.571   -25107.169     1875.598    1.1610133    30.985945    30.985945    30.985945    29750.497 
 5361000    306.36402    106.43337   -23210.175   -25134.315    1924.1397    1.1610133    30.985945    30.985945    30.985945    29750.497 
 5362000    292.20317   -262.19271   -23261.837   -25097.039    1835.2015    1.1610133    30.985945    30.985945    30.985945    29750.497 
 5363000    296.22437   -227.93435   -23218.465   -25078.922     1860.457    1.1610133    30.985945    30.985945    30.985945    29750.497 
 5364000    295.89507   -211.77062    -23149.92   -25008.309    1858.3887    1.1610133    30.985945    30.985945    30.985945    29750.497 
 5365000    303.69373   -575.29893   -23141.184   -25048.553    1907.3687    1.1610133    30.985945    30.985945    30.985945    29750.497 
 5366000    295.52377   -816.82103   -23236.511   -25092.568    1856.0568    1.1610133    30.985945    30.985945    30.985945    29750.497 
 5367000    308.55669   -1113.5879   -23161.526   -25099.437    1937.9109    1.1610133    30.985945    30.985945    30.985945    29750.497 
 5368000    295.30614   -768.86183   -23164.624   -25019.314    1854.6899    1.1610133    30.985945    30.985945    30.985945    29750.497 
 5369000    292.87971    122.11542    -23212.59   -25052.041    1839.4506    1.1610133    30.985945    30.985945    30.985945    29750.497 
 5370000    296.13773   -300.12138   -23328.773   -25188.686    1859.9128    1.1610133    30.985945    30.985945    30.985945    29750.497 
 5371000    300.93499   -60.271091   -23186.775   -25076.817    1890.0423    1.1610133    30.985945    30.985945    30.985945    29750.497 
 5372000    294.22085   -152.59962   -23231.074   -25078.947    1847.8737    1.1610133    30.985945    30.985945    30.985945    29750.497 
 5373000    302.91463      117.186   -23223.133   -25125.609    1902.4756    1.1610133    30.985945    30.985945    30.985945    29750.497 
 5374000    304.15338    -71.65596   -23240.569   -25150.824    1910.2556    1.1610133    30.985945    30.985945    30.985945    29750.497 
 5375000    295.39202    523.05732   -23199.242   -25054.471    1855.2293    1.1610133    30.985945    30.985945    30.985945    29750.497 
 5376000    292.46985   -936.28517   -23184.134   -25021.011    1836.8764    1.1610133    30.985945    30.985945    30.985945    29750.497 
 5377000    299.44903   -594.64381   -23178.527   -25059.236    1880.7096    1.1610133    30.985945    30.985945    30.985945    29750.497 
 5378000    295.02959   -319.40497   -23253.566   -25106.519     1852.953    1.1610133    30.985945    30.985945    30.985945    29750.497 
 5379000    304.81095    237.63343   -23212.212   -25126.597    1914.3855    1.1610133    30.985945    30.985945    30.985945    29750.497 
 5380000    302.35616   -198.58313   -23262.562    -25161.53     1898.968    1.1610133    30.985945    30.985945    30.985945    29750.497 
 5381000    293.57927    421.04882    -23275.84   -25119.685    1843.8442    1.1610133    30.985945    30.985945    30.985945    29750.497 
 5382000    290.01799    424.85841   -23210.378   -25031.855    1821.4773    1.1610133    30.985945    30.985945    30.985945    29750.497 
 5383000    296.86428   -16.387489   -23230.119   -25094.595    1864.4759    1.1610133    30.985945    30.985945    30.985945    29750.497 
 5384000    304.04001   -1159.3388   -23151.277   -25060.821    1909.5436    1.1610133    30.985945    30.985945    30.985945    29750.497 
 5385000    300.47054   -835.16004   -23231.447   -25118.572    1887.1253    1.1610133    30.985945    30.985945    30.985945    29750.497 
 5386000    297.63696   -720.65755   -23234.507   -25103.836    1869.3288    1.1610133    30.985945    30.985945    30.985945    29750.497 
 5387000    290.45747   -411.81747   -23275.375   -25099.612    1824.2375    1.1610133    30.985945    30.985945    30.985945    29750.497 
 5388000    297.54873   -11.776311   -23247.932   -25116.707    1868.7747    1.1610133    30.985945    30.985945    30.985945    29750.497 
 5389000    301.79211   -817.24829   -23162.185    -25057.61    1895.4255    1.1610133    30.985945    30.985945    30.985945    29750.497 
 5390000    298.34334   -720.38651   -23267.908   -25141.673    1873.7653    1.1610133    30.985945    30.985945    30.985945    29750.497 
 5391000    306.84715   -73.953127   -23133.252   -25060.426     1927.174    1.1610133    30.985945    30.985945    30.985945    29750.497 
 5392000    297.60266   -713.50702     -23246.9   -25116.013    1869.1134    1.1610133    30.985945    30.985945    30.985945    29750.497 
 5393000    299.47947   -184.36425   -23151.734   -25032.635    1880.9008    1.1610133    30.985945    30.985945    30.985945    29750.497 
 5394000    295.55504   -757.19683   -23212.394   -25068.647    1856.2531    1.1610133    30.985945    30.985945    30.985945    29750.497 
 5395000    298.88823   -319.63413   -23155.822   -25033.009    1877.1875    1.1610133    30.985945    30.985945    30.985945    29750.497 
 5396000    301.49382   -706.73933   -23230.474   -25124.026     1893.552    1.1610133    30.985945    30.985945    30.985945    29750.497 
 5397000     292.1798    39.045067    -23171.09   -25006.145    1835.0548    1.1610133    30.985945    30.985945    30.985945    29750.497 
 5398000    296.74809   -131.84821   -23081.273   -24945.019    1863.7462    1.1610133    30.985945    30.985945    30.985945    29750.497 
 5399000    296.28232    240.75095   -23132.635   -24993.455    1860.8209    1.1610133    30.985945    30.985945    30.985945    29750.497 
 5400000    296.81423   -622.01022   -23150.158    -25014.32    1864.1616    1.1610133    30.985945    30.985945    30.985945    29750.497 
 5401000    305.32927    189.35723   -23062.984   -24980.625    1917.6409    1.1610133    30.985945    30.985945    30.985945    29750.497 
 5402000    295.77706     388.4954   -23211.123   -25068.771    1857.6476    1.1610133    30.985945    30.985945    30.985945    29750.497 
 5403000    294.17349   -764.12982   -23261.642   -25109.218    1847.5763    1.1610133    30.985945    30.985945    30.985945    29750.497 
 5404000    305.34843   -432.02577   -23233.881   -25151.642    1917.7612    1.1610133    30.985945    30.985945    30.985945    29750.497 
 5405000    305.96652   -583.53554   -23163.675   -25085.318    1921.6431    1.1610133    30.985945    30.985945    30.985945    29750.497 
 5406000    295.60468   -716.29942   -23202.758   -25059.323     1856.565    1.1610133    30.985945    30.985945    30.985945    29750.497 
 5407000     288.9676   -769.79739    -23280.88   -25095.761    1814.8803    1.1610133    30.985945    30.985945    30.985945    29750.497 
 5408000    299.86534   -995.29279   -23123.885    -25007.21    1883.3243    1.1610133    30.985945    30.985945    30.985945    29750.497 
 5409000     300.1977   -589.57187   -23140.168    -25025.58    1885.4117    1.1610133    30.985945    30.985945    30.985945    29750.497 
 5410000    303.47375   -119.69241   -23116.471   -25022.459    1905.9872    1.1610133    30.985945    30.985945    30.985945    29750.497 
 5411000    301.26692       123.65    -23127.14   -25019.267     1892.127    1.1610133    30.985945    30.985945    30.985945    29750.497 
 5412000    294.83984   -924.67812   -23319.664   -25171.425    1851.7613    1.1610133    30.985945    30.985945    30.985945    29750.497 
 5413000    298.16182   -361.13535    -23176.48   -25049.105    1872.6252    1.1610133    30.985945    30.985945    30.985945    29750.497 
 5414000    292.69892   -1736.3955   -23271.734   -25110.049    1838.3151    1.1610133    30.985945    30.985945    30.985945    29750.497 
 5415000    298.10997   -1392.9106   -23262.747   -25135.046    1872.2996    1.1610133    30.985945    30.985945    30.985945    29750.497 
 5416000    301.59336   -310.11048   -23183.652   -25077.829    1894.1773    1.1610133    30.985945    30.985945    30.985945    29750.497 
 5417000    304.07426   -1391.1915   -23174.476   -25084.234    1909.7587    1.1610133    30.985945    30.985945    30.985945    29750.497 
 5418000    288.88553   -389.21806   -23266.594   -25080.959    1814.3649    1.1610133    30.985945    30.985945    30.985945    29750.497 
 5419000     297.9178   -1193.4001   -23201.268    -25072.36    1871.0927    1.1610133    30.985945    30.985945    30.985945    29750.497 
 5420000    287.16252   -1032.5855   -23239.382   -25042.925    1803.5434    1.1610133    30.985945    30.985945    30.985945    29750.497 
 5421000    301.60278   -1033.3046    -23151.96   -25046.196    1894.2364    1.1610133    30.985945    30.985945    30.985945    29750.497 
 5422000    305.00959   -1035.6125    -23088.68   -25004.313    1915.6331    1.1610133    30.985945    30.985945    30.985945    29750.497 
 5423000     302.0929   -913.27012   -23230.305    -25127.62    1897.3146    1.1610133    30.985945    30.985945    30.985945    29750.497 
 5424000    299.58635    14.393327   -23296.675   -25178.247     1881.572    1.1610133    30.985945    30.985945    30.985945    29750.497 
 5425000    301.14834    287.96055   -23228.571   -25119.953    1891.3823    1.1610133    30.985945    30.985945    30.985945    29750.497 
 5426000    307.47594    149.89811    -23133.19   -25064.314    1931.1232    1.1610133    30.985945    30.985945    30.985945    29750.497 
 5427000    295.24537   -555.37297   -23241.624   -25095.932    1854.3083    1.1610133    30.985945    30.985945    30.985945    29750.497 
 5428000    299.76321     -682.163   -23133.092   -25015.775    1882.6829    1.1610133    30.985945    30.985945    30.985945    29750.497 
 5429000    295.69179    -1338.886    -23167.25   -25024.362    1857.1121    1.1610133    30.985945    30.985945    30.985945    29750.497 
 5430000    298.01923    36.887632   -23230.742   -25102.471    1871.7297    1.1610133    30.985945    30.985945    30.985945    29750.497 
 5431000    298.50505   -660.06184   -23258.883   -25133.664    1874.7809    1.1610133    30.985945    30.985945    30.985945    29750.497 
 5432000    297.98781   -892.41616   -23174.936   -25046.468    1871.5323    1.1610133    30.985945    30.985945    30.985945    29750.497 
 5433000    294.59263    218.93722   -23199.076   -25049.284    1850.2087    1.1610133    30.985945    30.985945    30.985945    29750.497 
 5434000    293.63672   -441.23859   -23228.173   -25072.378     1844.205    1.1610133    30.985945    30.985945    30.985945    29750.497 
 5435000    303.03944   -438.80649   -23105.857   -25009.116    1903.2594    1.1610133    30.985945    30.985945    30.985945    29750.497 
 5436000    305.72956   -821.37406   -23136.964   -25057.118    1920.1549    1.1610133    30.985945    30.985945    30.985945    29750.497 
 5437000    300.81693   -525.95529   -23157.204   -25046.505    1889.3008    1.1610133    30.985945    30.985945    30.985945    29750.497 
 5438000     293.5459   -1087.7559    -23253.14   -25096.775    1843.6346    1.1610133    30.985945    30.985945    30.985945    29750.497 
 5439000    309.74619   -269.90391   -23165.004   -25110.386    1945.3816    1.1610133    30.985945    30.985945    30.985945    29750.497 
 5440000    301.41837   -261.99708   -23158.187   -25051.265    1893.0782    1.1610133    30.985945    30.985945    30.985945    29750.497 
 5441000    297.90957   -797.32919   -23191.044   -25062.085     1871.041    1.1610133    30.985945    30.985945    30.985945    29750.497 
 5442000    296.57754   -363.68472   -23230.706   -25093.381     1862.675    1.1610133    30.985945    30.985945    30.985945    29750.497 
 5443000    288.30273   -444.97848   -23205.581   -25016.286    1810.7046    1.1610133    30.985945    30.985945    30.985945    29750.497 
 5444000    298.78848     36.53878   -23154.918   -25031.479     1876.561    1.1610133    30.985945    30.985945    30.985945    29750.497 
 5445000    303.17002    29.644701   -23170.587   -25074.667    1904.0796    1.1610133    30.985945    30.985945    30.985945    29750.497 
 5446000     305.3068    72.571733   -23198.521   -25116.021    1917.4998    1.1610133    30.985945    30.985945    30.985945    29750.497 
 5447000    299.91272    -444.3934   -23133.379   -25017.001    1883.6219    1.1610133    30.985945    30.985945    30.985945    29750.497 
 5448000    300.25664   -185.54367   -23126.935   -25012.717    1885.7819    1.1610133    30.985945    30.985945    30.985945    29750.497 
 5449000    292.86963   -364.19832   -23152.022   -24991.409    1839.3873    1.1610133    30.985945    30.985945    30.985945    29750.497 
 5450000    291.97461   -245.53187   -23160.318   -24994.084     1833.766    1.1610133    30.985945    30.985945    30.985945    29750.497 
 5451000    295.82384   -1035.3991   -23141.383   -24999.324    1857.9414    1.1610133    30.985945    30.985945    30.985945    29750.497 
 5452000    306.02791   -899.71646   -23062.046   -24984.074    1922.0287    1.1610133    30.985945    30.985945    30.985945    29750.497 
 5453000    296.42432    -542.0682   -23207.838   -25069.551    1861.7127    1.1610133    30.985945    30.985945    30.985945    29750.497 
 5454000    299.93485    296.68847   -23284.636   -25168.397    1883.7609    1.1610133    30.985945    30.985945    30.985945    29750.497 
 5455000     301.3792   -577.46499   -23220.314   -25113.146    1892.8322    1.1610133    30.985945    30.985945    30.985945    29750.497 
 5456000    285.36744   -158.24379   -23355.786   -25148.056    1792.2692    1.1610133    30.985945    30.985945    30.985945    29750.497 
 5457000    293.18517   -894.89726   -23197.953   -25039.322    1841.3691    1.1610133    30.985945    30.985945    30.985945    29750.497 
 5458000    299.79139   -518.60975   -23159.732   -25042.592    1882.8598    1.1610133    30.985945    30.985945    30.985945    29750.497 
 5459000    293.90538    348.10854   -23252.047    -25097.94    1845.8924    1.1610133    30.985945    30.985945    30.985945    29750.497 
 5460000    297.51193   -1019.9018   -23209.837    -25078.38    1868.5436    1.1610133    30.985945    30.985945    30.985945    29750.497 
 5461000     297.1445   -1791.1056   -23295.039   -25161.274    1866.2359    1.1610133    30.985945    30.985945    30.985945    29750.497 
 5462000    293.87578   -1297.9395   -23244.557   -25090.263    1845.7065    1.1610133    30.985945    30.985945    30.985945    29750.497 
 5463000    294.45132   -746.47562   -23205.806   -25055.127    1849.3212    1.1610133    30.985945    30.985945    30.985945    29750.497 
 5464000    304.11325    -1402.619   -23179.011   -25089.014    1910.0035    1.1610133    30.985945    30.985945    30.985945    29750.497 
 5465000    300.60996   -331.19837    -23199.99   -25087.991    1888.0009    1.1610133    30.985945    30.985945    30.985945    29750.497 
 5466000    299.46912   -504.40105   -23097.475    -24978.31    1880.8358    1.1610133    30.985945    30.985945    30.985945    29750.497 
 5467000      300.332   -795.00123   -23247.328   -25133.583    1886.2552    1.1610133    30.985945    30.985945    30.985945    29750.497 
 5468000     295.2403   -62.143004    -23173.39   -25027.667    1854.2764    1.1610133    30.985945    30.985945    30.985945    29750.497 
 5469000     295.9255   -513.81686   -23191.258   -25049.838    1858.5798    1.1610133    30.985945    30.985945    30.985945    29750.497 
 5470000    298.48893   -462.67607   -23122.722   -24997.402    1874.6797    1.1610133    30.985945    30.985945    30.985945    29750.497 
 5471000    296.12889   -558.92154   -23130.931   -24990.788    1859.8572    1.1610133    30.985945    30.985945    30.985945    29750.497 
 5472000    288.90327    -651.1879   -23195.729   -25010.206    1814.4763    1.1610133    30.985945    30.985945    30.985945    29750.497 
 5473000    302.49066   -1453.8003   -23092.028   -24991.841    1899.8128    1.1610133    30.985945    30.985945    30.985945    29750.497 
 5474000    304.41752    -444.6708   -23226.368   -25138.282    1911.9146    1.1610133    30.985945    30.985945    30.985945    29750.497 
 5475000    304.92089   -1224.5095   -23251.765   -25166.841     1915.076    1.1610133    30.985945    30.985945    30.985945    29750.497 
 5476000    303.56915   -611.98666   -23241.965   -25148.551    1906.5863    1.1610133    30.985945    30.985945    30.985945    29750.497 
 5477000    296.68264   -399.14758   -23237.651   -25100.986    1863.3351    1.1610133    30.985945    30.985945    30.985945    29750.497 
 5478000    304.10959   -344.46431   -23276.736   -25186.717    1909.9806    1.1610133    30.985945    30.985945    30.985945    29750.497 
 5479000    304.15629   -531.48894     -23222.8   -25133.074    1910.2739    1.1610133    30.985945    30.985945    30.985945    29750.497 
 5480000    293.93164   -853.27583   -23199.074   -25045.131    1846.0573    1.1610133    30.985945    30.985945    30.985945    29750.497 
 5481000    291.61456   -805.08407   -23221.746   -25053.251    1831.5047    1.1610133    30.985945    30.985945    30.985945    29750.497 
 5482000    302.15966   -822.33207   -23205.668   -25103.402    1897.7339    1.1610133    30.985945    30.985945    30.985945    29750.497 
 5483000    295.03978   -282.87029   -23199.229   -25052.246     1853.017    1.1610133    30.985945    30.985945    30.985945    29750.497 
 5484000    296.47112   -209.90253   -23165.688   -25027.694    1862.0067    1.1610133    30.985945    30.985945    30.985945    29750.497 
 5485000    301.92688    -1460.701   -23154.733   -25051.005    1896.2719    1.1610133    30.985945    30.985945    30.985945    29750.497 
 5486000    296.20445   -93.166735    -23087.39   -24947.722    1860.3319    1.1610133    30.985945    30.985945    30.985945    29750.497 
 5487000    302.15319   -385.21756   -23146.981   -25044.674    1897.6933    1.1610133    30.985945    30.985945    30.985945    29750.497 
 5488000    300.67563   -928.04605   -23179.205   -25067.619    1888.4134    1.1610133    30.985945    30.985945    30.985945    29750.497 
 5489000    294.72697   -690.37754   -23204.651   -25055.704    1851.0524    1.1610133    30.985945    30.985945    30.985945    29750.497 
 5490000    293.49642   -579.85666   -23243.045   -25086.369    1843.3239    1.1610133    30.985945    30.985945    30.985945    29750.497 
 5491000    292.83192    16.747749   -23197.105   -25036.256    1839.1504    1.1610133    30.985945    30.985945    30.985945    29750.497 
 5492000    298.44137   -279.31304   -23247.078   -25121.459     1874.381    1.1610133    30.985945    30.985945    30.985945    29750.497 
 5493000    304.04573    606.42497    -23121.11    -25030.69    1909.5795    1.1610133    30.985945    30.985945    30.985945    29750.497 
 5494000       293.57   -781.12994   -23283.906   -25127.692     1843.786    1.1610133    30.985945    30.985945    30.985945    29750.497 
 5495000    295.15576    -299.4191   -23203.858   -25057.603    1853.7455    1.1610133    30.985945    30.985945    30.985945    29750.497 
 5496000     297.6106     -924.961   -23223.296   -25092.459    1869.1632    1.1610133    30.985945    30.985945    30.985945    29750.497 
 5497000    296.82358   -181.15739   -23117.813   -24982.034    1864.2203    1.1610133    30.985945    30.985945    30.985945    29750.497 
 5498000     300.6896   -717.37455   -23151.225   -25039.726    1888.5011    1.1610133    30.985945    30.985945    30.985945    29750.497 
 5499000    283.84321   -407.18938   -23242.563   -25025.259    1782.6963    1.1610133    30.985945    30.985945    30.985945    29750.497 
 5500000    301.08702   -1213.1557   -23220.051   -25111.048    1890.9971    1.1610133    30.985945    30.985945    30.985945    29750.497 
 5501000    301.15342   -37.812296   -23137.842   -25029.257    1891.4141    1.1610133    30.985945    30.985945    30.985945    29750.497 
 5502000    305.75081   -739.14277   -23253.231   -25173.519    1920.2884    1.1610133    30.985945    30.985945    30.985945    29750.497 
 5503000    300.42327   -710.29067   -23208.797   -25095.626    1886.8284    1.1610133    30.985945    30.985945    30.985945    29750.497 
 5504000    294.84983   -508.28419   -23157.835   -25009.659    1851.8241    1.1610133    30.985945    30.985945    30.985945    29750.497 
 5505000    300.11688    -248.3361   -23223.547   -25108.451    1884.9041    1.1610133    30.985945    30.985945    30.985945    29750.497 
 5506000    305.09426   -608.59786   -23217.955    -25134.12    1916.1649    1.1610133    30.985945    30.985945    30.985945    29750.497 
 5507000    302.87837   -142.15417   -23117.144   -25019.391    1902.2478    1.1610133    30.985945    30.985945    30.985945    29750.497 
 5508000    296.25878   -1106.5503    -23102.62   -24963.293    1860.6731    1.1610133    30.985945    30.985945    30.985945    29750.497 
 5509000    297.59112    -737.5003   -23146.787   -25015.828    1869.0409    1.1610133    30.985945    30.985945    30.985945    29750.497 
 5510000    295.16843   -629.34662   -23202.176   -25056.001     1853.825    1.1610133    30.985945    30.985945    30.985945    29750.497 
 5511000    287.98603   -1749.9341   -23237.998   -25046.713    1808.7155    1.1610133    30.985945    30.985945    30.985945    29750.497 
 5512000    298.10871   -680.73142   -23199.768   -25072.059    1872.2917    1.1610133    30.985945    30.985945    30.985945    29750.497 
 5513000    293.00445   -545.31214   -23240.089   -25080.323     1840.234    1.1610133    30.985945    30.985945    30.985945    29750.497 
 5514000    298.04633   -160.25176   -23212.568   -25084.468    1871.8999    1.1610133    30.985945    30.985945    30.985945    29750.497 
 5515000     305.6454   -510.01034   -23182.907   -25102.533    1919.6263    1.1610133    30.985945    30.985945    30.985945    29750.497 
 5516000    292.26795   -69.984569   -23276.752   -25112.361    1835.6084    1.1610133    30.985945    30.985945    30.985945    29750.497 
 5517000    307.25397    178.39335   -23161.707   -25091.436    1929.7291    1.1610133    30.985945    30.985945    30.985945    29750.497 
 5518000    303.94992    44.683935   -23193.562   -25102.539    1908.9778    1.1610133    30.985945    30.985945    30.985945    29750.497 
 5519000     292.0711   -477.28757   -23265.526   -25099.898    1834.3721    1.1610133    30.985945    30.985945    30.985945    29750.497 
 5520000    302.34637    -973.6905   -23176.692   -25075.599    1898.9066    1.1610133    30.985945    30.985945    30.985945    29750.497 
 5521000    292.91389   -605.73804   -23206.098   -25045.763    1839.6653    1.1610133    30.985945    30.985945    30.985945    29750.497 
 5522000    296.33007   -886.70204   -23258.164   -25119.284    1861.1208    1.1610133    30.985945    30.985945    30.985945    29750.497 
 5523000     305.8621   -35.111316   -23140.155   -25061.142    1920.9873    1.1610133    30.985945    30.985945    30.985945    29750.497 
 5524000    306.90647   -739.18458    -23149.62   -25077.167    1927.5466    1.1610133    30.985945    30.985945    30.985945    29750.497 
 5525000    293.38754   -631.35441   -23154.291   -24996.931      1842.64    1.1610133    30.985945    30.985945    30.985945    29750.497 
 5526000     296.5932    -703.5114   -23282.788   -25145.561    1862.7734    1.1610133    30.985945    30.985945    30.985945    29750.497 
 5527000    295.70712   -226.50871   -23200.029   -25057.237    1857.2083    1.1610133    30.985945    30.985945    30.985945    29750.497 
 5528000    293.67894   -1156.3167   -23190.844   -25035.314    1844.4702    1.1610133    30.985945    30.985945    30.985945    29750.497 
 5529000    297.73022   -334.26866   -23159.369   -25029.283    1869.9145    1.1610133    30.985945    30.985945    30.985945    29750.497 
 5530000    296.41803    54.417391    -23174.88   -25036.553    1861.6732    1.1610133    30.985945    30.985945    30.985945    29750.497 
 5531000    292.50944   -487.60311     -23203.3   -25040.425    1837.1251    1.1610133    30.985945    30.985945    30.985945    29750.497 
 5532000    299.39359   -1299.0913   -23101.366   -24981.727    1880.3614    1.1610133    30.985945    30.985945    30.985945    29750.497 
 5533000    297.31316    73.505116   -23199.134   -25066.429    1867.2951    1.1610133    30.985945    30.985945    30.985945    29750.497 
 5534000     288.3274   -1235.5916   -23232.813   -25043.673    1810.8595    1.1610133    30.985945    30.985945    30.985945    29750.497 
 5535000    293.06502   -964.25859   -23214.188   -25054.802    1840.6144    1.1610133    30.985945    30.985945    30.985945    29750.497 
 5536000       301.58   -581.49288   -23153.491   -25047.584    1894.0934    1.1610133    30.985945    30.985945    30.985945    29750.497 
 5537000    291.96929   -726.04585   -23262.238   -25095.971    1833.7326    1.1610133    30.985945    30.985945    30.985945    29750.497 
 5538000    298.54861   -259.77276   -23126.362   -25001.416    1875.0545    1.1610133    30.985945    30.985945    30.985945    29750.497 
 5539000    292.54621   -169.03853   -23283.396   -25120.752     1837.356    1.1610133    30.985945    30.985945    30.985945    29750.497 
 5540000    288.43113    124.61303   -23321.158   -25132.669     1811.511    1.1610133    30.985945    30.985945    30.985945    29750.497 
 5541000    301.95496   -867.83631   -23151.944   -25048.392    1896.4483    1.1610133    30.985945    30.985945    30.985945    29750.497 
 5542000    298.33576   -538.95836   -23239.218   -25112.936    1873.7177    1.1610133    30.985945    30.985945    30.985945    29750.497 
 5543000    306.79804   -359.29322   -23178.431   -25105.297    1926.8656    1.1610133    30.985945    30.985945    30.985945    29750.497 
 5544000    297.98338    -633.5226   -23260.549   -25132.053    1871.5045    1.1610133    30.985945    30.985945    30.985945    29750.497 
 5545000    303.68909   -866.82871   -23197.059   -25104.399    1907.3396    1.1610133    30.985945    30.985945    30.985945    29750.497 
 5546000    308.25726   -410.36194   -23136.535   -25072.566    1936.0303    1.1610133    30.985945    30.985945    30.985945    29750.497 
 5547000    299.92616   -733.61946   -23226.386   -25110.093    1883.7063    1.1610133    30.985945    30.985945    30.985945    29750.497 
 5548000    301.76037   -1392.9927   -23093.329   -24988.555    1895.2261    1.1610133    30.985945    30.985945    30.985945    29750.497 
 5549000    291.40802    42.115684   -23240.381   -25070.588    1830.2075    1.1610133    30.985945    30.985945    30.985945    29750.497 
 5550000    293.62663   -366.25957   -23133.524   -24977.666    1844.1417    1.1610133    30.985945    30.985945    30.985945    29750.497 
 5551000    290.59319   -1497.3057   -23193.843   -25018.933    1825.0899    1.1610133    30.985945    30.985945    30.985945    29750.497 
 5552000    298.35619   -1433.9435   -23222.951   -25096.797     1873.846    1.1610133    30.985945    30.985945    30.985945    29750.497 
 5553000    308.35664   -1444.0044   -23145.662   -25082.317    1936.6544    1.1610133    30.985945    30.985945    30.985945    29750.497 
 5554000    300.44025   -80.716479   -23191.222   -25078.157     1886.935    1.1610133    30.985945    30.985945    30.985945    29750.497 
 5555000    301.40864    188.50606   -23146.601   -25039.618    1893.0171    1.1610133    30.985945    30.985945    30.985945    29750.497 
 5556000    289.40362   -140.93793   -23186.018   -25003.637    1817.6187    1.1610133    30.985945    30.985945    30.985945    29750.497 
 5557000    292.51497    -407.5438   -23230.501   -25067.661    1837.1598    1.1610133    30.985945    30.985945    30.985945    29750.497 
 5558000    295.58096   -426.74581   -23261.351   -25117.767    1856.4159    1.1610133    30.985945    30.985945    30.985945    29750.497 
 5559000    305.35199    135.07502   -23170.142   -25087.925    1917.7835    1.1610133    30.985945    30.985945    30.985945    29750.497 
 5560000    298.90068   -397.99214   -23176.764   -25054.029    1877.2657    1.1610133    30.985945    30.985945    30.985945    29750.497 
 5561000    298.87793     12.19119   -23222.731   -25099.854    1877.1228    1.1610133    30.985945    30.985945    30.985945    29750.497 
 5562000    300.49381    628.68359   -23266.561   -25153.832    1887.2714    1.1610133    30.985945    30.985945    30.985945    29750.497 
 5563000    302.63981    615.90665   -23228.101   -25128.851    1900.7496    1.1610133    30.985945    30.985945    30.985945    29750.497 
 5564000    299.40833    91.255544   -23266.448   -25146.902     1880.454    1.1610133    30.985945    30.985945    30.985945    29750.497 
 5565000    297.36519    266.04336   -23182.551   -25050.173    1867.6219    1.1610133    30.985945    30.985945    30.985945    29750.497 
 5566000    302.24901   -82.071008   -23204.107   -25102.402    1898.2951    1.1610133    30.985945    30.985945    30.985945    29750.497 
 5567000     293.6914   -257.68172   -23212.323   -25056.872    1844.5484    1.1610133    30.985945    30.985945    30.985945    29750.497 
 5568000    305.41354   -425.94457   -23104.023   -25022.193    1918.1702    1.1610133    30.985945    30.985945    30.985945    29750.497 
 5569000    295.65786   -15.834519   -23158.575   -25015.474    1856.8989    1.1610133    30.985945    30.985945    30.985945    29750.497 
 5570000    299.97755   -787.01665   -23079.783   -24963.812    1884.0291    1.1610133    30.985945    30.985945    30.985945    29750.497 
 5571000    299.94695   -1081.9032    -23072.31   -24956.147    1883.8369    1.1610133    30.985945    30.985945    30.985945    29750.497 
 5572000     298.2999   -48.193797    -23096.92   -24970.413    1873.4925    1.1610133    30.985945    30.985945    30.985945    29750.497 
 5573000    292.73549   -304.42504   -23161.613   -25000.158    1838.5448    1.1610133    30.985945    30.985945    30.985945    29750.497 
 5574000    294.52366    188.02065   -23264.734   -25114.509    1849.7755    1.1610133    30.985945    30.985945    30.985945    29750.497 
 5575000    297.54815    -1128.757   -23124.664   -24993.435     1868.771    1.1610133    30.985945    30.985945    30.985945    29750.497 
 5576000    292.85118   -710.75006   -23204.359    -25043.63    1839.2714    1.1610133    30.985945    30.985945    30.985945    29750.497 
 5577000    306.82204   -1024.6127    -23134.15   -25061.167    1927.0163    1.1610133    30.985945    30.985945    30.985945    29750.497 
 5578000    298.12505   -590.29192    -23194.25   -25066.644    1872.3943    1.1610133    30.985945    30.985945    30.985945    29750.497 
 5579000    305.55131   -566.75114   -23085.116   -25004.152    1919.0354    1.1610133    30.985945    30.985945    30.985945    29750.497 
 5580000    296.72441   -376.75371   -23195.229   -25058.826    1863.5975    1.1610133    30.985945    30.985945    30.985945    29750.497 
 5581000    299.99512    -564.7101   -23115.702   -24999.841    1884.1394    1.1610133    30.985945    30.985945    30.985945    29750.497 
 5582000    301.47759   -83.954965   -23237.318   -25130.768    1893.4501    1.1610133    30.985945    30.985945    30.985945    29750.497 
 5583000    295.09519   -578.07413   -23227.808   -25081.173     1853.365    1.1610133    30.985945    30.985945    30.985945    29750.497 
 5584000    303.25104   -561.34411   -23156.505   -25061.094    1904.5884    1.1610133    30.985945    30.985945    30.985945    29750.497 
 5585000    298.64644    36.264236   -23248.018   -25123.687    1875.6689    1.1610133    30.985945    30.985945    30.985945    29750.497 
 5586000    292.46759   -944.24789   -23237.394   -25074.256    1836.8623    1.1610133    30.985945    30.985945    30.985945    29750.497 
 5587000    302.10028   -936.39663   -23241.297   -25138.658     1897.361    1.1610133    30.985945    30.985945    30.985945    29750.497 
 5588000    297.52126   -12.869373   -23195.798     -25064.4    1868.6021    1.1610133    30.985945    30.985945    30.985945    29750.497 
 5589000    302.18297    96.797817   -23127.414   -25025.294    1897.8803    1.1610133    30.985945    30.985945    30.985945    29750.497 
 5590000    304.08477   -179.55393   -23157.106    -25066.93    1909.8247    1.1610133    30.985945    30.985945    30.985945    29750.497 
 5591000    294.22542   -526.23551   -23171.555   -25019.457    1847.9024    1.1610133    30.985945    30.985945    30.985945    29750.497 
 5592000    292.10226    363.53669    -23210.58   -25045.148    1834.5677    1.1610133    30.985945    30.985945    30.985945    29750.497 
 5593000    301.87202    -931.7473   -23183.151   -25079.078    1895.9274    1.1610133    30.985945    30.985945    30.985945    29750.497 
 5594000    295.51731   -888.34951   -23169.528   -25025.544    1856.0162    1.1610133    30.985945    30.985945    30.985945    29750.497 
 5595000    299.21053   -323.43418   -23157.818    -25037.03    1879.2117    1.1610133    30.985945    30.985945    30.985945    29750.497 
 5596000    294.97714    -1159.583   -23250.972   -25103.595    1852.6236    1.1610133    30.985945    30.985945    30.985945    29750.497 
 5597000    306.06392   -767.86856    -23196.35   -25118.605    1922.2549    1.1610133    30.985945    30.985945    30.985945    29750.497 
 5598000    299.29234    -1187.368   -23207.509   -25087.234    1879.7255    1.1610133    30.985945    30.985945    30.985945    29750.497 
 5599000    286.57897   -619.63576   -23244.112   -25043.991    1799.8784    1.1610133    30.985945    30.985945    30.985945    29750.497 
 5600000    303.41414   -311.20496   -23165.141   -25070.753    1905.6128    1.1610133    30.985945    30.985945    30.985945    29750.497 
 5601000    307.92265    248.61814   -23118.606   -25052.535    1933.9288    1.1610133    30.985945    30.985945    30.985945    29750.497 
 5602000    305.86918   -308.98422   -23092.094   -25013.126    1921.0318    1.1610133    30.985945    30.985945    30.985945    29750.497 
 5603000    311.93788    262.03954   -23026.705   -24985.852    1959.1467    1.1610133    30.985945    30.985945    30.985945    29750.497 
 5604000    294.86705   -327.29453   -23220.429   -25072.362    1851.9322    1.1610133    30.985945    30.985945    30.985945    29750.497 
 5605000    309.93689   -210.54109   -23179.172   -25125.751    1946.5794    1.1610133    30.985945    30.985945    30.985945    29750.497 
 5606000    295.81311    754.84433   -23246.443   -25104.317     1857.874    1.1610133    30.985945    30.985945    30.985945    29750.497 
 5607000    307.38537    305.40226   -23105.429   -25035.983    1930.5543    1.1610133    30.985945    30.985945    30.985945    29750.497 
 5608000    307.92324    -964.1357   -23151.017   -25084.949    1933.9324    1.1610133    30.985945    30.985945    30.985945    29750.497 
 5609000    295.15539   -479.03554   -23230.859   -25084.602    1853.7432    1.1610133    30.985945    30.985945    30.985945    29750.497 
 5610000    303.15713   -432.09165   -23171.855   -25075.854    1903.9986    1.1610133    30.985945    30.985945    30.985945    29750.497 
 5611000    293.47121   -355.40332   -23225.704   -25068.869    1843.1655    1.1610133    30.985945    30.985945    30.985945    29750.497 
 5612000     304.5781   -123.68168   -23087.802   -25000.725    1912.9231    1.1610133    30.985945    30.985945    30.985945    29750.497 
 5613000     294.5604   -564.42641   -23108.662   -24958.668    1850.0062    1.1610133    30.985945    30.985945    30.985945    29750.497 
 5614000    299.04339   -137.09918   -23171.638     -25049.8    1878.1619    1.1610133    30.985945    30.985945    30.985945    29750.497 
 5615000    307.66741    18.683939   -23167.972   -25100.297    1932.3257    1.1610133    30.985945    30.985945    30.985945    29750.497 
 5616000    308.14681    144.46587   -23101.048   -25036.384    1935.3366    1.1610133    30.985945    30.985945    30.985945    29750.497 
 5617000    309.13479   -212.59526   -23145.732   -25087.274    1941.5417    1.1610133    30.985945    30.985945    30.985945    29750.497 
 5618000    308.41746    280.96898   -23173.708   -25110.744    1937.0365    1.1610133    30.985945    30.985945    30.985945    29750.497 
 5619000    304.28087   -1010.2139   -23147.312   -25058.368    1911.0563    1.1610133    30.985945    30.985945    30.985945    29750.497 
 5620000    300.51762   -440.78218   -23207.424   -25094.845     1887.421    1.1610133    30.985945    30.985945    30.985945    29750.497 
 5621000    300.13554   -192.38622   -23188.174   -25073.195    1885.0213    1.1610133    30.985945    30.985945    30.985945    29750.497 
 5622000    294.61118   -1227.1058   -23246.409   -25096.734    1850.3252    1.1610133    30.985945    30.985945    30.985945    29750.497 
 5623000    294.16664   -1689.2158   -23200.928   -25048.461    1847.5332    1.1610133    30.985945    30.985945    30.985945    29750.497 
 5624000    298.31381   -99.705009   -23147.068   -25020.648    1873.5798    1.1610133    30.985945    30.985945    30.985945    29750.497 
 5625000    305.13075   -248.63789   -23097.969   -25014.364     1916.394    1.1610133    30.985945    30.985945    30.985945    29750.497 
 5626000    297.30075    106.21442   -23159.476   -25026.693    1867.2172    1.1610133    30.985945    30.985945    30.985945    29750.497 
 5627000    299.03843   -1480.3206   -23189.681   -25067.811    1878.1309    1.1610133    30.985945    30.985945    30.985945    29750.497 
 5628000    305.84079   -374.27632   -23089.973   -25010.827    1920.8535    1.1610133    30.985945    30.985945    30.985945    29750.497 
 5629000    298.39503   -863.10355   -23216.831   -25090.921    1874.0899    1.1610133    30.985945    30.985945    30.985945    29750.497 
 5630000    295.95324    79.429544   -23261.202   -25119.956    1858.7541    1.1610133    30.985945    30.985945    30.985945    29750.497 
 5631000    298.11449   -265.76819   -23213.023   -25085.351     1872.328    1.1610133    30.985945    30.985945    30.985945    29750.497 
 5632000    298.35294    77.386096   -23193.212   -25067.038    1873.8256    1.1610133    30.985945    30.985945    30.985945    29750.497 
 5633000    293.48777   -617.70259   -23247.568   -25090.837    1843.2695    1.1610133    30.985945    30.985945    30.985945    29750.497 
 5634000    296.98149    184.08931   -23250.085   -25115.297    1865.2121    1.1610133    30.985945    30.985945    30.985945    29750.497 
 5635000     294.4773   -571.78997   -23241.806   -25091.291    1849.4843    1.1610133    30.985945    30.985945    30.985945    29750.497 
 5636000     303.1874   -579.70803   -23119.936   -25024.125    1904.1887    1.1610133    30.985945    30.985945    30.985945    29750.497 
 5637000    306.27434   -26.593831   -23042.527   -24966.104    1923.5765    1.1610133    30.985945    30.985945    30.985945    29750.497 
 5638000    291.66322    550.34852    -23217.85    -25049.66    1831.8103    1.1610133    30.985945    30.985945    30.985945    29750.497 
 5639000     298.1808    280.47667   -23137.539   -25010.283    1872.7444    1.1610133    30.985945    30.985945    30.985945    29750.497 
 5640000     300.5226   -160.08699   -23182.598   -25070.051    1887.4523    1.1610133    30.985945    30.985945    30.985945    29750.497 
 5641000    285.83037   -1205.1995   -23284.406   -25079.583    1795.1767    1.1610133    30.985945    30.985945    30.985945    29750.497 
 5642000    307.75538     262.1703   -23132.897   -25065.775    1932.8782    1.1610133    30.985945    30.985945    30.985945    29750.497 
 5643000    300.07107   -776.97637   -23164.194   -25048.811    1884.6164    1.1610133    30.985945    30.985945    30.985945    29750.497 
 5644000    304.36836   -226.81155   -23232.905   -25144.511    1911.6058    1.1610133    30.985945    30.985945    30.985945    29750.497 
 5645000    294.01399    314.51555   -23281.545    -25128.12    1846.5745    1.1610133    30.985945    30.985945    30.985945    29750.497 
 5646000    303.68728   -177.83026   -23157.837   -25065.165    1907.3283    1.1610133    30.985945    30.985945    30.985945    29750.497 
 5647000    289.27312   -392.71191   -23238.498   -25055.297    1816.7991    1.1610133    30.985945    30.985945    30.985945    29750.497 
 5648000     300.5643     318.0885   -23183.188   -25070.902    1887.7142    1.1610133    30.985945    30.985945    30.985945    29750.497 
 5649000    300.50872   -505.05177   -23255.731   -25143.096    1887.3651    1.1610133    30.985945    30.985945    30.985945    29750.497 
 5650000    302.61633   -1048.3142   -23164.973   -25065.575    1900.6021    1.1610133    30.985945    30.985945    30.985945    29750.497 
 5651000    295.85315     150.5715   -23295.527   -25153.652    1858.1254    1.1610133    30.985945    30.985945    30.985945    29750.497 
 5652000    303.91636   -221.01643   -23245.897   -25154.664     1908.767    1.1610133    30.985945    30.985945    30.985945    29750.497 
 5653000    302.84631    -228.0598    -23203.79   -25105.837    1902.0465    1.1610133    30.985945    30.985945    30.985945    29750.497 
 5654000    301.00246   -377.59287   -23190.712   -25081.178     1890.466    1.1610133    30.985945    30.985945    30.985945    29750.497 
 5655000    306.28778    225.10197   -23145.044   -25068.705    1923.6608    1.1610133    30.985945    30.985945    30.985945    29750.497 
 5656000    305.52096   -281.19791   -23161.177   -25080.022    1918.8448    1.1610133    30.985945    30.985945    30.985945    29750.497 
 5657000    307.49941   -648.07458   -23094.132   -25025.403    1931.2706    1.1610133    30.985945    30.985945    30.985945    29750.497 
 5658000    297.28296    238.75038   -23244.874    -25111.98    1867.1055    1.1610133    30.985945    30.985945    30.985945    29750.497 
 5659000    304.37856   -447.98596    -23180.63   -25092.299    1911.6699    1.1610133    30.985945    30.985945    30.985945    29750.497 
 5660000    301.65843   -911.09829   -23182.945   -25077.531    1894.5859    1.1610133    30.985945    30.985945    30.985945    29750.497 
 5661000    293.95464   -596.15682   -23157.817   -25004.018    1846.2017    1.1610133    30.985945    30.985945    30.985945    29750.497 
 5662000    305.16231   -574.32425     -23198.6   -25115.192    1916.5923    1.1610133    30.985945    30.985945    30.985945    29750.497 
 5663000    298.09243   -1350.1786   -23199.849   -25072.039    1872.1894    1.1610133    30.985945    30.985945    30.985945    29750.497 
 5664000    300.54913   -219.52164   -23214.022    -25101.64    1887.6189    1.1610133    30.985945    30.985945    30.985945    29750.497 
 5665000    294.87297    394.98667   -23303.618   -25155.588    1851.9694    1.1610133    30.985945    30.985945    30.985945    29750.497 
 5666000    306.05364    -767.8884   -23222.884   -25145.074    1922.1903    1.1610133    30.985945    30.985945    30.985945    29750.497 
 5667000    297.80032   -466.19559   -23203.098   -25073.453    1870.3548    1.1610133    30.985945    30.985945    30.985945    29750.497 
 5668000    300.61061   -1057.2942   -23170.615    -25058.62     1888.005    1.1610133    30.985945    30.985945    30.985945    29750.497 
 5669000    306.22065   -427.99537   -23164.544   -25087.784    1923.2392    1.1610133    30.985945    30.985945    30.985945    29750.497 
 5670000    289.68902    116.94788   -23232.168   -25051.579    1819.4113    1.1610133    30.985945    30.985945    30.985945    29750.497 
 5671000    300.94741   -893.50238   -23133.589   -25023.709    1890.1203    1.1610133    30.985945    30.985945    30.985945    29750.497 
 5672000     298.3318   -763.87617   -23277.693   -25151.386    1873.6928    1.1610133    30.985945    30.985945    30.985945    29750.497 
 5673000    302.01501   -229.43617   -23140.399   -25037.224    1896.8254    1.1610133    30.985945    30.985945    30.985945    29750.497 
 5674000    295.46824   -880.87245   -23243.174   -25098.882     1855.708    1.1610133    30.985945    30.985945    30.985945    29750.497 
 5675000    303.94968   -631.02687   -23115.163   -25024.139    1908.9763    1.1610133    30.985945    30.985945    30.985945    29750.497 
 5676000    294.88356    -1425.789   -23215.174    -25067.21    1852.0359    1.1610133    30.985945    30.985945    30.985945    29750.497 
 5677000    296.58982    960.95184   -23193.328    -25056.08    1862.7522    1.1610133    30.985945    30.985945    30.985945    29750.497 
 5678000     297.8627   -410.50259   -23201.227   -25071.974    1870.7466    1.1610133    30.985945    30.985945    30.985945    29750.497 
 5679000    293.08974   -369.15814   -23284.571    -25125.34    1840.7697    1.1610133    30.985945    30.985945    30.985945    29750.497 
 5680000     298.7341   -883.94898   -23233.227   -25109.447    1876.2194    1.1610133    30.985945    30.985945    30.985945    29750.497 
 5681000    296.19958    241.11756   -23198.887   -25059.188    1860.3012    1.1610133    30.985945    30.985945    30.985945    29750.497 
 5682000    293.80671   -637.65445   -23239.049   -25084.321    1845.2726    1.1610133    30.985945    30.985945    30.985945    29750.497 
 5683000    297.86213    646.94184   -23154.564   -25025.307     1870.743    1.1610133    30.985945    30.985945    30.985945    29750.497 
 5684000    295.16032   -848.19097   -23202.193   -25055.967    1853.7741    1.1610133    30.985945    30.985945    30.985945    29750.497 
 5685000    300.61378   -139.87667    -23107.45   -24995.475    1888.0249    1.1610133    30.985945    30.985945    30.985945    29750.497 
 5686000    295.87679   -1164.0185   -23186.675   -25044.949    1858.2739    1.1610133    30.985945    30.985945    30.985945    29750.497 
 5687000    293.61875   -209.25695   -23240.515   -25084.607    1844.0922    1.1610133    30.985945    30.985945    30.985945    29750.497 
 5688000    294.55231   -160.39145   -23238.419   -25088.375    1849.9555    1.1610133    30.985945    30.985945    30.985945    29750.497 
 5689000    294.95884   -48.515476    -23200.94   -25053.448    1852.5087    1.1610133    30.985945    30.985945    30.985945    29750.497 
 5690000    296.47131   -782.67656   -23101.695   -24963.703    1862.0078    1.1610133    30.985945    30.985945    30.985945    29750.497 
 5691000    303.52596   -663.51106    -23224.02   -25130.335     1906.315    1.1610133    30.985945    30.985945    30.985945    29750.497 
 5692000    302.27378   -196.05895   -23126.579   -25025.029    1898.4507    1.1610133    30.985945    30.985945    30.985945    29750.497 
 5693000    297.62482   -733.49507   -23171.239   -25040.492    1869.2525    1.1610133    30.985945    30.985945    30.985945    29750.497 
 5694000    296.01112   -807.30226   -23137.647   -24996.765    1859.1176    1.1610133    30.985945    30.985945    30.985945    29750.497 
 5695000    292.73023    334.74715   -23210.863   -25049.375    1838.5117    1.1610133    30.985945    30.985945    30.985945    29750.497 
 5696000    299.85896    -755.7146   -23131.209   -25014.494    1883.2842    1.1610133    30.985945    30.985945    30.985945    29750.497 
 5697000    303.30192   -670.33744   -23139.011   -25043.919     1904.908    1.1610133    30.985945    30.985945    30.985945    29750.497 
 5698000    295.14981   -87.711485   -23251.264   -25104.972    1853.7081    1.1610133    30.985945    30.985945    30.985945    29750.497 
 5699000    299.92517     657.5219   -23089.221   -24972.921       1883.7    1.1610133    30.985945    30.985945    30.985945    29750.497 
 5700000    303.60914   -59.238801   -22962.556   -24869.393    1906.8375    1.1610133    30.985945    30.985945    30.985945    29750.497 
 5701000    303.32904   -903.78026   -23120.163   -25025.242    1905.0783    1.1610133    30.985945    30.985945    30.985945    29750.497 
 5702000    297.37767   -556.04205   -23226.449   -25094.149    1867.7003    1.1610133    30.985945    30.985945    30.985945    29750.497 
 5703000     296.4148   -1246.8688   -23290.019   -25151.672     1861.653    1.1610133    30.985945    30.985945    30.985945    29750.497 
 5704000     293.5716   -1093.9466   -23246.598   -25090.394     1843.796    1.1610133    30.985945    30.985945    30.985945    29750.497 
 5705000    294.22081   -126.67427   -23209.971   -25057.844    1847.8734    1.1610133    30.985945    30.985945    30.985945    29750.497 
 5706000    302.14474   -766.24646   -23123.857   -25021.497    1897.6402    1.1610133    30.985945    30.985945    30.985945    29750.497 
 5707000    297.58885    188.39917   -23202.074   -25071.101    1869.0267    1.1610133    30.985945    30.985945    30.985945    29750.497 
 5708000    303.75223   -812.38925   -23150.773   -25058.509    1907.7362    1.1610133    30.985945    30.985945    30.985945    29750.497 
 5709000    295.04353    84.283446   -23253.256   -25106.297    1853.0406    1.1610133    30.985945    30.985945    30.985945    29750.497 
 5710000    314.67894    92.462157   -23120.725   -25097.087    1976.3621    1.1610133    30.985945    30.985945    30.985945    29750.497 
 5711000    293.96513   -1087.0561   -23202.304   -25048.571    1846.2676    1.1610133    30.985945    30.985945    30.985945    29750.497 
 5712000    297.88308   -139.55583   -23134.017   -25004.891    1870.8745    1.1610133    30.985945    30.985945    30.985945    29750.497 
 5713000    287.51072   -464.54909   -23245.901   -25051.631    1805.7303    1.1610133    30.985945    30.985945    30.985945    29750.497 
 5714000    295.00861   -525.37398   -23145.496   -24998.318    1852.8213    1.1610133    30.985945    30.985945    30.985945    29750.497 
 5715000    296.46694   -271.36733   -23214.206   -25076.186    1861.9804    1.1610133    30.985945    30.985945    30.985945    29750.497 
 5716000    308.16138    13.417116    -23096.83   -25032.258    1935.4281    1.1610133    30.985945    30.985945    30.985945    29750.497 
 5717000    301.63268   -214.82804   -23134.789   -25029.214    1894.4242    1.1610133    30.985945    30.985945    30.985945    29750.497 
 5718000    304.20901   -429.63541   -23145.505    -25056.11     1910.605    1.1610133    30.985945    30.985945    30.985945    29750.497 
 5719000    301.14238   -1189.9774   -23144.546    -25035.89    1891.3448    1.1610133    30.985945    30.985945    30.985945    29750.497 
 5720000    298.16302   -447.79674    -23228.21   -25100.843    1872.6328    1.1610133    30.985945    30.985945    30.985945    29750.497 
 5721000     290.6668   -215.55665   -23292.379   -25117.931    1825.5523    1.1610133    30.985945    30.985945    30.985945    29750.497 
 5722000    292.90043   -1053.5198   -23240.655   -25080.236    1839.5807    1.1610133    30.985945    30.985945    30.985945    29750.497 
 5723000    298.32973    359.20064   -23203.847   -25077.527    1873.6798    1.1610133    30.985945    30.985945    30.985945    29750.497 
 5724000    295.70971   -596.98321   -23292.455    -25149.68    1857.2246    1.1610133    30.985945    30.985945    30.985945    29750.497 
 5725000     297.1766   -293.93235   -23267.198   -25133.636    1866.4375    1.1610133    30.985945    30.985945    30.985945    29750.497 
 5726000     294.4444   -279.40843   -23409.127   -25258.404    1849.2777    1.1610133    30.985945    30.985945    30.985945    29750.497 
 5727000    301.68925   -729.74273   -23278.965   -25173.744    1894.7795    1.1610133    30.985945    30.985945    30.985945    29750.497 
 5728000    296.74241   -241.12191   -23212.154   -25075.865    1863.7105    1.1610133    30.985945    30.985945    30.985945    29750.497 
 5729000    301.86247   -248.03798   -23219.002   -25114.869    1895.8674    1.1610133    30.985945    30.985945    30.985945    29750.497 
 5730000    297.88236   -584.39568   -23176.754   -25047.624    1870.8701    1.1610133    30.985945    30.985945    30.985945    29750.497 
 5731000    300.51936   -934.02316   -23166.062   -25053.494    1887.4319    1.1610133    30.985945    30.985945    30.985945    29750.497 
 5732000    292.09978   -775.73035   -23295.461   -25130.013    1834.5522    1.1610133    30.985945    30.985945    30.985945    29750.497 
 5733000    298.18842   -568.95443   -23271.167   -25143.959    1872.7923    1.1610133    30.985945    30.985945    30.985945    29750.497 
 5734000    298.25679   -770.80561   -23241.763   -25114.984    1873.2217    1.1610133    30.985945    30.985945    30.985945    29750.497 
 5735000    303.23399     -619.552   -23223.333   -25127.814    1904.4813    1.1610133    30.985945    30.985945    30.985945    29750.497 
 5736000    295.17098    341.37878   -23196.312   -25050.153     1853.841    1.1610133    30.985945    30.985945    30.985945    29750.497 
 5737000    299.55672   -1015.5867   -23297.311   -25178.697     1881.386    1.1610133    30.985945    30.985945    30.985945    29750.497 
 5738000    299.31916   -1143.4802    -23179.94   -25059.833     1879.894    1.1610133    30.985945    30.985945    30.985945    29750.497 
 5739000    304.78765   -550.62505   -23244.701    -25158.94    1914.2392    1.1610133    30.985945    30.985945    30.985945    29750.497 
 5740000    306.64977   -605.79393   -23157.131   -25083.065    1925.9343    1.1610133    30.985945    30.985945    30.985945    29750.497 
 5741000    309.29203   -805.65486   -23255.348   -25197.877    1942.5293    1.1610133    30.985945    30.985945    30.985945    29750.497 
 5742000    292.03991   -792.41235   -23271.194    -25105.37    1834.1761    1.1610133    30.985945    30.985945    30.985945    29750.497 
 5743000    307.43322   -277.63749   -23215.412   -25146.266    1930.8548    1.1610133    30.985945    30.985945    30.985945    29750.497 
 5744000     291.6819   -868.62507   -23240.304   -25072.231    1831.9276    1.1610133    30.985945    30.985945    30.985945    29750.497 
 5745000    287.74529    -515.7728   -23247.133   -25054.337    1807.2035    1.1610133    30.985945    30.985945    30.985945    29750.497 
 5746000    297.56564   -852.51553   -23182.626   -25051.507    1868.8809    1.1610133    30.985945    30.985945    30.985945    29750.497 
 5747000     297.1413   -216.67101   -23159.036   -25025.252    1866.2158    1.1610133    30.985945    30.985945    30.985945    29750.497 
 5748000    300.45895   -833.65254   -23181.104   -25068.157    1887.0525    1.1610133    30.985945    30.985945    30.985945    29750.497 
 5749000    288.18132   -142.07679   -23179.598    -24989.54     1809.942    1.1610133    30.985945    30.985945    30.985945    29750.497 
 5750000    298.42812   -1135.2185   -23196.032    -25070.33    1874.2978    1.1610133    30.985945    30.985945    30.985945    29750.497 
 5751000    316.12296   -654.21981   -23025.604   -25011.035    1985.4313    1.1610133    30.985945    30.985945    30.985945    29750.497 
 5752000    300.97353   -937.71546   -23204.038   -25094.322    1890.2843    1.1610133    30.985945    30.985945    30.985945    29750.497 
 5753000    299.50568   -1045.4349   -23246.975    -25128.04    1881.0654    1.1610133    30.985945    30.985945    30.985945    29750.497 
 5754000    304.64782   -782.92309   -23158.539     -25071.9     1913.361    1.1610133    30.985945    30.985945    30.985945    29750.497 
 5755000    301.14347   -926.29551   -23253.189    -25144.54    1891.3516    1.1610133    30.985945    30.985945    30.985945    29750.497 
 5756000    292.93273   -741.49326   -23233.421   -25073.205    1839.7836    1.1610133    30.985945    30.985945    30.985945    29750.497 
 5757000    294.85704   -725.18925   -23190.584   -25042.453    1851.8693    1.1610133    30.985945    30.985945    30.985945    29750.497 
 5758000    300.15259    258.63427   -23175.326   -25060.454    1885.1284    1.1610133    30.985945    30.985945    30.985945    29750.497 
 5759000    293.29934   -353.63575   -23299.265   -25141.351    1842.0861    1.1610133    30.985945    30.985945    30.985945    29750.497 
 5760000    294.54985   -399.68927   -23206.746   -25056.686      1849.94    1.1610133    30.985945    30.985945    30.985945    29750.497 
 5761000    286.14367   -1028.4245   -23325.467   -25122.612    1797.1444    1.1610133    30.985945    30.985945    30.985945    29750.497 
 5762000    306.44067   -229.66723   -23125.821   -25050.442    1924.6211    1.1610133    30.985945    30.985945    30.985945    29750.497 
 5763000    298.11083   -619.52938   -23163.787   -25036.092     1872.305    1.1610133    30.985945    30.985945    30.985945    29750.497 
 5764000      300.725    -765.1623   -23128.345   -25017.068    1888.7235    1.1610133    30.985945    30.985945    30.985945    29750.497 
 5765000    293.82869   -210.67624   -23169.166   -25014.577    1845.4107    1.1610133    30.985945    30.985945    30.985945    29750.497 
 5766000    310.11346    533.47786   -23103.705   -25051.393    1947.6883    1.1610133    30.985945    30.985945    30.985945    29750.497 
 5767000    301.13083   0.38819161   -23135.251   -25026.523    1891.2723    1.1610133    30.985945    30.985945    30.985945    29750.497 
 5768000    306.69226    -356.1079   -23160.952   -25087.153    1926.2012    1.1610133    30.985945    30.985945    30.985945    29750.497 
 5769000    301.74825    -126.4376   -23154.216   -25049.366      1895.15    1.1610133    30.985945    30.985945    30.985945    29750.497 
 5770000    298.42581    -906.9296   -23174.102   -25048.385    1874.2833    1.1610133    30.985945    30.985945    30.985945    29750.497 
 5771000    305.62735   -672.89633   -23095.642   -25015.155     1919.513    1.1610133    30.985945    30.985945    30.985945    29750.497 
 5772000    302.30803   -330.16353   -23086.295   -24984.961    1898.6658    1.1610133    30.985945    30.985945    30.985945    29750.497 
 5773000    299.66354    129.45652    -23141.75   -25023.806    1882.0569    1.1610133    30.985945    30.985945    30.985945    29750.497 
 5774000    300.76089   -719.48434   -23107.942   -24996.891    1888.9489    1.1610133    30.985945    30.985945    30.985945    29750.497 
 5775000    299.28059    6.8399779   -23240.906   -25120.558    1879.6517    1.1610133    30.985945    30.985945    30.985945    29750.497 
 5776000     298.6283   -464.04531   -23201.306   -25076.861     1875.555    1.1610133    30.985945    30.985945    30.985945    29750.497 
 5777000    302.80538   -949.90354   -23213.177   -25114.967    1901.7894    1.1610133    30.985945    30.985945    30.985945    29750.497 
 5778000    286.67086     521.7439   -23294.978   -25095.434    1800.4555    1.1610133    30.985945    30.985945    30.985945    29750.497 
 5779000    297.06119     111.2635   -23260.653   -25126.365    1865.7126    1.1610133    30.985945    30.985945    30.985945    29750.497 
 5780000    303.97682   -947.21591    -23086.66   -24995.806    1909.1467    1.1610133    30.985945    30.985945    30.985945    29750.497 
 5781000     290.8562   -497.80587   -23218.391   -25045.133    1826.7418    1.1610133    30.985945    30.985945    30.985945    29750.497 
 5782000    302.21824   -515.26128   -23257.533   -25155.635    1898.1018    1.1610133    30.985945    30.985945    30.985945    29750.497 
 5783000     302.6432   -1135.7407   -23138.549   -25039.319    1900.7708    1.1610133    30.985945    30.985945    30.985945    29750.497 
 5784000    285.64368   -1204.3321   -23267.306    -25061.31    1794.0042    1.1610133    30.985945    30.985945    30.985945    29750.497 
 5785000    307.51985   -1149.1325   -23106.364   -25037.763     1931.399    1.1610133    30.985945    30.985945    30.985945    29750.497 
 5786000    302.50778   -1378.3301   -23180.041   -25079.961    1899.9203    1.1610133    30.985945    30.985945    30.985945    29750.497 
 5787000    292.73381    4.9701037   -23269.523   -25108.058    1838.5342    1.1610133    30.985945    30.985945    30.985945    29750.497 
 5788000    298.15955   -383.20071   -23188.011   -25060.622     1872.611    1.1610133    30.985945    30.985945    30.985945    29750.497 
 5789000    296.13815   -680.79348   -23238.271   -25098.187    1859.9154    1.1610133    30.985945    30.985945    30.985945    29750.497 
 5790000    293.48676   -739.64036    -23226.44   -25069.703    1843.2632    1.1610133    30.985945    30.985945    30.985945    29750.497 
 5791000    297.80081    9.8957422   -23254.104   -25124.462    1870.3579    1.1610133    30.985945    30.985945    30.985945    29750.497 
 5792000    301.69883   -882.83265   -23239.004   -25133.844    1894.8396    1.1610133    30.985945    30.985945    30.985945    29750.497 
 5793000    301.26072   -444.22371   -23278.442    -25170.53    1892.0881    1.1610133    30.985945    30.985945    30.985945    29750.497 
 5794000    297.64888   -68.889661    -23196.78   -25066.184    1869.4036    1.1610133    30.985945    30.985945    30.985945    29750.497 
 5795000    297.49954   -303.01655   -23138.397   -25006.863    1868.4657    1.1610133    30.985945    30.985945    30.985945    29750.497 
 5796000    299.06714   -576.04687   -23219.765   -25098.076    1878.3112    1.1610133    30.985945    30.985945    30.985945    29750.497 
 5797000    297.14031    918.21658   -23161.388   -25027.598    1866.2095    1.1610133    30.985945    30.985945    30.985945    29750.497 
 5798000    302.60164   -253.33967   -23162.878   -25063.387    1900.5098    1.1610133    30.985945    30.985945    30.985945    29750.497 
 5799000    294.50399   -264.86234   -23220.073   -25069.725     1849.652    1.1610133    30.985945    30.985945    30.985945    29750.497 
 5800000    298.02736    181.43665   -23186.142   -25057.923    1871.7807    1.1610133    30.985945    30.985945    30.985945    29750.497 
 5801000    304.53907   -642.16442   -23176.846   -25089.524     1912.678    1.1610133    30.985945    30.985945    30.985945    29750.497 
 5802000    300.86642   -431.45637   -23200.721   -25090.332    1889.6116    1.1610133    30.985945    30.985945    30.985945    29750.497 
 5803000    305.81714   -568.48675    -23161.01   -25081.715     1920.705    1.1610133    30.985945    30.985945    30.985945    29750.497 
 5804000     295.0254   -1046.2937    -23183.15   -25036.077    1852.9267    1.1610133    30.985945    30.985945    30.985945    29750.497 
 5805000    301.30558    110.24256   -23207.957   -25100.327    1892.3698    1.1610133    30.985945    30.985945    30.985945    29750.497 
 5806000    297.42454   -28.758272   -23169.606     -25037.6    1867.9947    1.1610133    30.985945    30.985945    30.985945    29750.497 
 5807000    298.03901   -951.97121   -23103.116    -24974.97    1871.8539    1.1610133    30.985945    30.985945    30.985945    29750.497 
 5808000    291.29236    -230.1132   -23222.582   -25052.064    1829.4811    1.1610133    30.985945    30.985945    30.985945    29750.497 
 5809000    293.43037   -191.83514   -23130.195   -24973.104     1842.909    1.1610133    30.985945    30.985945    30.985945    29750.497 
 5810000    296.86729   -327.34724   -23099.941   -24964.436    1864.4949    1.1610133    30.985945    30.985945    30.985945    29750.497 
 5811000    296.53001    328.53018   -23146.086   -25008.463    1862.3765    1.1610133    30.985945    30.985945    30.985945    29750.497 
 5812000    283.50028    12.535122   -23333.235   -25113.778    1780.5425    1.1610133    30.985945    30.985945    30.985945    29750.497 
 5813000    297.95364   -849.22881   -23173.179   -25044.497    1871.3178    1.1610133    30.985945    30.985945    30.985945    29750.497 
 5814000      302.612   -877.21307   -23125.821   -25026.396    1900.5749    1.1610133    30.985945    30.985945    30.985945    29750.497 
 5815000     294.5986   -290.07567   -23152.567   -25002.813    1850.2462    1.1610133    30.985945    30.985945    30.985945    29750.497 
 5816000    305.64955   -262.48449   -23015.918   -24935.571    1919.6524    1.1610133    30.985945    30.985945    30.985945    29750.497 
 5817000    300.91092   -656.04821   -23184.334   -25074.225    1889.8911    1.1610133    30.985945    30.985945    30.985945    29750.497 
 5818000    311.94653   -342.97649   -23109.895   -25069.096     1959.201    1.1610133    30.985945    30.985945    30.985945    29750.497 
 5819000    295.46151   -897.72896   -23231.769   -25087.435    1855.6657    1.1610133    30.985945    30.985945    30.985945    29750.497 
 5820000    306.71564   -657.35816   -23189.715   -25116.063    1926.3481    1.1610133    30.985945    30.985945    30.985945    29750.497 
 5821000    300.97756   -293.45014   -23240.101    -25130.41    1890.3096    1.1610133    30.985945    30.985945    30.985945    29750.497 
 5822000    288.93663    659.29429   -23301.076   -25115.762    1814.6858    1.1610133    30.985945    30.985945    30.985945    29750.497 
 5823000    298.12424   -166.17554   -23254.697   -25127.086    1872.3892    1.1610133    30.985945    30.985945    30.985945    29750.497 
 5824000    294.78868   -265.53856   -23247.137   -25098.577      1851.44    1.1610133    30.985945    30.985945    30.985945    29750.497 
 5825000    299.10228    145.61299   -23200.646   -25079.178    1878.5319    1.1610133    30.985945    30.985945    30.985945    29750.497 
 5826000    297.80928   -927.96079   -23155.839    -25026.25    1870.4111    1.1610133    30.985945    30.985945    30.985945    29750.497 
 5827000    295.96998   -120.42149   -23210.548   -25069.407    1858.8592    1.1610133    30.985945    30.985945    30.985945    29750.497 
 5828000    299.57199   -461.16772   -23167.542   -25049.024    1881.4819    1.1610133    30.985945    30.985945    30.985945    29750.497 
 5829000    297.30346   -76.882055   -23185.101   -25052.336    1867.2342    1.1610133    30.985945    30.985945    30.985945    29750.497 
 5830000    309.43561   -454.44014   -23100.404   -25043.835     1943.431    1.1610133    30.985945    30.985945    30.985945    29750.497 
 5831000    294.80845   -264.10791   -23236.135   -25087.699    1851.5642    1.1610133    30.985945    30.985945    30.985945    29750.497 
 5832000    288.91064    228.16501   -23326.555   -25141.078    1814.5226    1.1610133    30.985945    30.985945    30.985945    29750.497 
 5833000     293.3053    905.49562    -23246.08   -25088.203    1842.1235    1.1610133    30.985945    30.985945    30.985945    29750.497 
 5834000    306.54061   -661.93422   -23137.114   -25062.363    1925.2488    1.1610133    30.985945    30.985945    30.985945    29750.497 
 5835000    296.86215   -671.45363   -23231.263   -25095.725    1864.4626    1.1610133    30.985945    30.985945    30.985945    29750.497 
 5836000    306.21631   -696.27679   -23087.485   -25010.697     1923.212    1.1610133    30.985945    30.985945    30.985945    29750.497 
 5837000    300.04505   -875.49073   -23206.034   -25090.487    1884.4529    1.1610133    30.985945    30.985945    30.985945    29750.497 
 5838000    298.17283   -91.339324   -23254.504   -25127.198    1872.6943    1.1610133    30.985945    30.985945    30.985945    29750.497 
 5839000    292.83807   -785.02331   -23295.976   -25135.165     1839.189    1.1610133    30.985945    30.985945    30.985945    29750.497 
 5840000    292.63248   -826.83843   -23309.097   -25146.995    1837.8978    1.1610133    30.985945    30.985945    30.985945    29750.497 
 5841000    299.54824   -494.11932   -23152.651   -25033.984    1881.3327    1.1610133    30.985945    30.985945    30.985945    29750.497 
 5842000    302.50036   -189.47712   -23287.095   -25186.969    1899.8737    1.1610133    30.985945    30.985945    30.985945    29750.497 
 5843000    289.29483   -255.97914   -23201.855   -25018.791    1816.9355    1.1610133    30.985945    30.985945    30.985945    29750.497 
 5844000    292.08302   -1532.2659   -23239.391   -25073.838    1834.4469    1.1610133    30.985945    30.985945    30.985945    29750.497 
 5845000    306.61901   -706.20492   -23100.944   -25026.685    1925.7411    1.1610133    30.985945    30.985945    30.985945    29750.497 
 5846000    290.78757   -751.68812    -23228.44    -25054.75    1826.3108    1.1610133    30.985945    30.985945    30.985945    29750.497 
 5847000      290.877   -1093.4638   -23267.073   -25093.946    1826.8724    1.1610133    30.985945    30.985945    30.985945    29750.497 
 5848000    297.43644     414.6129   -23152.664   -25020.733    1868.0694    1.1610133    30.985945    30.985945    30.985945    29750.497 
 5849000    297.69953   -678.61413    -23228.27   -25097.992    1869.7218    1.1610133    30.985945    30.985945    30.985945    29750.497 
 5850000     289.4457   -677.27947   -23205.823   -25023.706     1817.883    1.1610133    30.985945    30.985945    30.985945    29750.497 
 5851000    291.25233   -58.602628   -23213.862   -25043.092    1829.2297    1.1610133    30.985945    30.985945    30.985945    29750.497 
 5852000    298.87041    -602.7651   -23156.322   -25033.398    1877.0756    1.1610133    30.985945    30.985945    30.985945    29750.497 
 5853000     296.3579    -675.1614   -23218.165    -25079.46    1861.2956    1.1610133    30.985945    30.985945    30.985945    29750.497 
 5854000    306.16627   -1245.4342   -23143.013    -25065.91    1922.8977    1.1610133    30.985945    30.985945    30.985945    29750.497 
 5855000    299.06636   -610.40704   -23256.246   -25134.552    1878.3062    1.1610133    30.985945    30.985945    30.985945    29750.497 
 5856000    296.64739    272.27718   -23181.564   -25044.678    1863.1138    1.1610133    30.985945    30.985945    30.985945    29750.497 
 5857000    309.00505   -1191.6284   -23088.319   -25029.046    1940.7268    1.1610133    30.985945    30.985945    30.985945    29750.497 
 5858000    296.93136   -703.53546   -23077.243   -24942.141    1864.8973    1.1610133    30.985945    30.985945    30.985945    29750.497 
 5859000    295.45929   -434.27131    -23170.32   -25025.972    1855.6518    1.1610133    30.985945    30.985945    30.985945    29750.497 
 5860000    296.10657   -353.39972   -23207.344   -25067.061    1859.7171    1.1610133    30.985945    30.985945    30.985945    29750.497 
 5861000    300.47672   -155.33777   -23180.983   -25068.147    1887.1641    1.1610133    30.985945    30.985945    30.985945    29750.497 
 5862000    300.68423    426.10088    -23151.49   -25039.958    1888.4674    1.1610133    30.985945    30.985945    30.985945    29750.497 
 5863000    297.14636   -191.63815   -23122.439   -24988.687    1866.2476    1.1610133    30.985945    30.985945    30.985945    29750.497 
 5864000    290.27149     167.5716   -23170.971    -24994.04    1823.0695    1.1610133    30.985945    30.985945    30.985945    29750.497 
 5865000    287.71301   -1470.3878   -23297.284   -25104.284    1807.0007    1.1610133    30.985945    30.985945    30.985945    29750.497 
 5866000    304.50191   -575.21801   -23181.354   -25093.798    1912.4446    1.1610133    30.985945    30.985945    30.985945    29750.497 
 5867000    288.49758   -319.76747   -23309.789   -25121.718    1811.9283    1.1610133    30.985945    30.985945    30.985945    29750.497 
 5868000     309.9698   -793.23397   -23139.723   -25086.509     1946.786    1.1610133    30.985945    30.985945    30.985945    29750.497 
 5869000    295.63016   -1359.8378   -23197.988   -25054.713     1856.725    1.1610133    30.985945    30.985945    30.985945    29750.497 
 5870000       305.97   -91.584267    -23119.72   -25041.385     1921.665    1.1610133    30.985945    30.985945    30.985945    29750.497 
 5871000    289.79976   -199.11954   -23227.367   -25047.473    1820.1068    1.1610133    30.985945    30.985945    30.985945    29750.497 
 5872000    295.58835   -877.39412   -23144.828    -25001.29    1856.4624    1.1610133    30.985945    30.985945    30.985945    29750.497 
 5873000    296.09433   -610.79292   -23285.762   -25145.402    1859.6402    1.1610133    30.985945    30.985945    30.985945    29750.497 
 5874000    291.60819     -1694.87   -23307.509   -25138.974    1831.4647    1.1610133    30.985945    30.985945    30.985945    29750.497 
 5875000    296.99824   -466.60157   -23162.448   -25027.765    1865.3173    1.1610133    30.985945    30.985945    30.985945    29750.497 
 5876000    297.45236   -219.81863   -23242.633   -25110.803    1868.1694    1.1610133    30.985945    30.985945    30.985945    29750.497 
 5877000    291.07885   -1030.1715   -23255.934   -25084.074    1828.1402    1.1610133    30.985945    30.985945    30.985945    29750.497 
 5878000    297.96324   -26.149375   -23179.601   -25050.979    1871.3781    1.1610133    30.985945    30.985945    30.985945    29750.497 
 5879000    282.62567    50.938382   -23242.798   -25017.847    1775.0494    1.1610133    30.985945    30.985945    30.985945    29750.497 
 5880000    296.84751   -175.64633   -23280.122   -25144.492    1864.3706    1.1610133    30.985945    30.985945    30.985945    29750.497 
 5881000     291.2542    -371.5442   -23238.337   -25067.578    1829.2415    1.1610133    30.985945    30.985945    30.985945    29750.497 
 5882000    299.18499   -640.66031   -23188.799    -25067.85    1879.0513    1.1610133    30.985945    30.985945    30.985945    29750.497 
 5883000    299.07452   -1452.7608   -23226.031   -25104.388    1878.3575    1.1610133    30.985945    30.985945    30.985945    29750.497 
 5884000    293.05631    142.60596   -23279.308   -25119.868    1840.5597    1.1610133    30.985945    30.985945    30.985945    29750.497 
 5885000    295.25726    235.63897   -23210.811   -25065.194    1854.3829    1.1610133    30.985945    30.985945    30.985945    29750.497 
 5886000    296.82302    540.27953   -23206.109   -25070.326    1864.2168    1.1610133    30.985945    30.985945    30.985945    29750.497 
 5887000    298.60958   -92.723659   -23292.974   -25168.412    1875.4374    1.1610133    30.985945    30.985945    30.985945    29750.497 
 5888000    295.14499    713.24017   -23369.002    -25222.68    1853.6778    1.1610133    30.985945    30.985945    30.985945    29750.497 
 5889000    304.35247   -346.85101   -23161.285   -25072.791     1911.506    1.1610133    30.985945    30.985945    30.985945    29750.497 
 5890000    305.23882   -726.34482   -23149.665   -25066.738    1917.0728    1.1610133    30.985945    30.985945    30.985945    29750.497 
 5891000      299.141    -716.1829   -23227.144   -25105.919     1878.775    1.1610133    30.985945    30.985945    30.985945    29750.497 
 5892000    297.20573   -422.85438    -23273.43   -25140.051    1866.6204    1.1610133    30.985945    30.985945    30.985945    29750.497 
 5893000    298.68697   -92.934643   -23273.457    -25149.38    1875.9234    1.1610133    30.985945    30.985945    30.985945    29750.497 
 5894000    297.63733   -1106.4275   -23265.105   -25134.436    1869.3312    1.1610133    30.985945    30.985945    30.985945    29750.497 
 5895000    292.21853      134.009   -23266.649   -25101.947     1835.298    1.1610133    30.985945    30.985945    30.985945    29750.497 
 5896000    300.05759   -240.72941   -23129.535   -25014.067    1884.5317    1.1610133    30.985945    30.985945    30.985945    29750.497 
 5897000    290.69725    128.36183    -23235.61   -25061.353    1825.7435    1.1610133    30.985945    30.985945    30.985945    29750.497 
 5898000    288.88058   -562.00357   -23285.259   -25099.593    1814.3338    1.1610133    30.985945    30.985945    30.985945    29750.497 
 5899000    303.30622     502.5052   -23190.829   -25095.764     1904.935    1.1610133    30.985945    30.985945    30.985945    29750.497 
 5900000    297.20254   -591.08881   -23222.834   -25089.434    1866.6004    1.1610133    30.985945    30.985945    30.985945    29750.497 
 5901000    300.48332   -643.91279   -23177.481   -25064.687    1887.2056    1.1610133    30.985945    30.985945    30.985945    29750.497 
 5902000    300.60655   -1074.9068   -23174.192   -25062.172    1887.9795    1.1610133    30.985945    30.985945    30.985945    29750.497 
 5903000    300.20406   -288.72183   -23188.707   -25074.159    1885.4516    1.1610133    30.985945    30.985945    30.985945    29750.497 
 5904000    303.03431   -1151.8309   -23189.402   -25092.629    1903.2272    1.1610133    30.985945    30.985945    30.985945    29750.497 
 5905000    298.90433   -43.937356   -23193.607   -25070.896    1877.2886    1.1610133    30.985945    30.985945    30.985945    29750.497 
 5906000    298.19037   -274.56176   -23215.061   -25087.866    1872.8045    1.1610133    30.985945    30.985945    30.985945    29750.497 
 5907000    298.87631   -72.603589   -23163.231   -25040.343    1877.1126    1.1610133    30.985945    30.985945    30.985945    29750.497 
 5908000    296.19281    39.494958   -23238.844   -25099.103    1860.2587    1.1610133    30.985945    30.985945    30.985945    29750.497 
 5909000    297.38045   -843.50412   -23236.708   -25104.426    1867.7178    1.1610133    30.985945    30.985945    30.985945    29750.497 
 5910000    298.09514   -870.87552   -23199.445   -25071.651    1872.2064    1.1610133    30.985945    30.985945    30.985945    29750.497 
 5911000    293.47216   -910.39808    -23219.06   -25062.232    1843.1715    1.1610133    30.985945    30.985945    30.985945    29750.497 
 5912000    295.06167   -775.58128   -23166.672   -25019.827    1853.1545    1.1610133    30.985945    30.985945    30.985945    29750.497 
 5913000    294.09238   -223.88158   -23311.706   -25158.773    1847.0668    1.1610133    30.985945    30.985945    30.985945    29750.497 
 5914000    296.48811   -497.57183   -23238.812   -25100.926    1862.1133    1.1610133    30.985945    30.985945    30.985945    29750.497 
 5915000    300.07762    182.01084   -23235.753   -25120.411    1884.6575    1.1610133    30.985945    30.985945    30.985945    29750.497 
 5916000    298.42578   -977.01537   -23302.292   -25176.575     1874.283    1.1610133    30.985945    30.985945    30.985945    29750.497 
 5917000    294.07614     2.899836   -23188.393   -25035.358    1846.9648    1.1610133    30.985945    30.985945    30.985945    29750.497 
 5918000    287.60018   -843.26267   -23231.787   -25038.079    1806.2921    1.1610133    30.985945    30.985945    30.985945    29750.497 
 5919000    293.01288    19.004867   -23196.389   -25036.676    1840.2869    1.1610133    30.985945    30.985945    30.985945    29750.497 
 5920000    291.35842   -72.081511   -23391.471   -25221.367     1829.896    1.1610133    30.985945    30.985945    30.985945    29750.497 
 5921000    305.90092   -183.65635   -23104.688   -25025.919    1921.2311    1.1610133    30.985945    30.985945    30.985945    29750.497 
 5922000    298.34436    354.78042   -23222.031   -25095.802    1873.7717    1.1610133    30.985945    30.985945    30.985945    29750.497 
 5923000    291.41723   -1089.5209   -23292.431   -25122.696    1830.2654    1.1610133    30.985945    30.985945    30.985945    29750.497 
 5924000    304.87494   -89.566091   -23214.422    -25129.21    1914.7874    1.1610133    30.985945    30.985945    30.985945    29750.497 
 5925000    299.16732    -1084.003   -23200.007   -25078.947    1878.9403    1.1610133    30.985945    30.985945    30.985945    29750.497 
 5926000    299.77101   -1195.4561   -23282.029   -25164.761    1882.7318    1.1610133    30.985945    30.985945    30.985945    29750.497 
 5927000     303.2108   -67.469606   -23206.156   -25110.491    1904.3357    1.1610133    30.985945    30.985945    30.985945    29750.497 
 5928000    295.40343   -865.35142   -23274.451   -25129.752    1855.3009    1.1610133    30.985945    30.985945    30.985945    29750.497 
 5929000    297.99839   -544.19616    -23143.45   -25015.049    1871.5988    1.1610133    30.985945    30.985945    30.985945    29750.497 
 5930000    297.59098   -1306.3887   -23176.286   -25045.326      1869.04    1.1610133    30.985945    30.985945    30.985945    29750.497 
 5931000    299.14144     -816.351   -23237.711   -25116.489    1878.7778    1.1610133    30.985945    30.985945    30.985945    29750.497 
 5932000    291.46501   -292.70301   -23212.598   -25043.163    1830.5654    1.1610133    30.985945    30.985945    30.985945    29750.497 
 5933000     296.8495   -487.04539   -23212.135   -25076.518    1864.3831    1.1610133    30.985945    30.985945    30.985945    29750.497 
 5934000    306.55799     1.630463    -23285.11   -25210.468    1925.3579    1.1610133    30.985945    30.985945    30.985945    29750.497 
 5935000    289.01535   -743.52168   -23215.111   -25030.292    1815.1802    1.1610133    30.985945    30.985945    30.985945    29750.497 
 5936000    298.90763    478.98433   -23223.806   -25101.115    1877.3093    1.1610133    30.985945    30.985945    30.985945    29750.497 
 5937000    304.53396    2.8017397   -23137.412   -25050.058    1912.6459    1.1610133    30.985945    30.985945    30.985945    29750.497 
 5938000    292.63222   -959.37868   -23197.513   -25035.409    1837.8962    1.1610133    30.985945    30.985945    30.985945    29750.497 
 5939000    307.31629   -552.37506   -23094.942   -25025.062    1930.1205    1.1610133    30.985945    30.985945    30.985945    29750.497 
 5940000    294.59665   -1487.5712   -23268.759   -25118.993    1850.2339    1.1610133    30.985945    30.985945    30.985945    29750.497 
 5941000    299.70339   -357.87831   -23170.698   -25053.005    1882.3071    1.1610133    30.985945    30.985945    30.985945    29750.497 
 5942000    298.59239   -796.72241   -23201.115   -25076.445    1875.3295    1.1610133    30.985945    30.985945    30.985945    29750.497 
 5943000    291.50376   -576.45087    -23260.24   -25091.049    1830.8088    1.1610133    30.985945    30.985945    30.985945    29750.497 
 5944000    305.16963   -428.33477   -23173.521   -25090.159    1916.6382    1.1610133    30.985945    30.985945    30.985945    29750.497 
 5945000    309.25326    419.03475   -23062.323   -25004.609    1942.2858    1.1610133    30.985945    30.985945    30.985945    29750.497 
 5946000    287.25804   -1114.8139   -23235.072   -25039.215    1804.1433    1.1610133    30.985945    30.985945    30.985945    29750.497 
 5947000     302.2773    -1088.808   -23201.956   -25100.429    1898.4728    1.1610133    30.985945    30.985945    30.985945    29750.497 
 5948000    293.74623    510.39754   -23228.746   -25073.639    1844.8928    1.1610133    30.985945    30.985945    30.985945    29750.497 
 5949000    285.93596   -71.603074   -23270.705   -25066.545    1795.8399    1.1610133    30.985945    30.985945    30.985945    29750.497 
 5950000    293.34351    133.90819   -23211.129   -25053.493    1842.3635    1.1610133    30.985945    30.985945    30.985945    29750.497 
 5951000    291.98924   -1492.1954   -23198.188   -25032.045    1833.8579    1.1610133    30.985945    30.985945    30.985945    29750.497 
 5952000    296.46272   -831.12857    -23203.95   -25065.904    1861.9539    1.1610133    30.985945    30.985945    30.985945    29750.497 
 5953000     293.5664    -447.8017    -23335.69   -25179.454    1843.7634    1.1610133    30.985945    30.985945    30.985945    29750.497 
 5954000    301.86611   -161.87854   -23093.912   -24989.802    1895.8903    1.1610133    30.985945    30.985945    30.985945    29750.497 
 5955000     294.3681   -1053.2089   -23136.218   -24985.016    1848.7985    1.1610133    30.985945    30.985945    30.985945    29750.497 
 5956000    297.07597    -385.8086   -23104.828   -24970.634    1865.8055    1.1610133    30.985945    30.985945    30.985945    29750.497 
 5957000    290.95652   -1141.3607   -23195.433   -25022.805    1827.3718    1.1610133    30.985945    30.985945    30.985945    29750.497 
 5958000     303.0121   -452.98745   -23119.766   -25022.854    1903.0877    1.1610133    30.985945    30.985945    30.985945    29750.497 
 5959000    298.55426    5.1324898   -23228.175   -25103.265      1875.09    1.1610133    30.985945    30.985945    30.985945    29750.497 
 5960000    299.65815   -24.109682   -23205.245   -25087.268     1882.023    1.1610133    30.985945    30.985945    30.985945    29750.497 
 5961000    291.26644   -378.15051   -23227.639   -25056.957    1829.3184    1.1610133    30.985945    30.985945    30.985945    29750.497 
 5962000    292.33037   -165.54372   -23278.072   -25114.072    1836.0004    1.1610133    30.985945    30.985945    30.985945    29750.497 
 5963000    295.27425    26.308028   -23270.562   -25125.052    1854.4896    1.1610133    30.985945    30.985945    30.985945    29750.497 
 5964000    293.22241   -474.43729   -23218.272   -25059.875    1841.6029    1.1610133    30.985945    30.985945    30.985945    29750.497 
 5965000    292.19608   -133.51101   -23236.768   -25071.925     1835.157    1.1610133    30.985945    30.985945    30.985945    29750.497 
 5966000    306.01208   -674.52434   -23211.367   -25133.296    1921.9293    1.1610133    30.985945    30.985945    30.985945    29750.497 
 5967000    307.94439    269.78134   -23111.731   -25045.796    1934.0653    1.1610133    30.985945    30.985945    30.985945    29750.497 
 5968000    296.74378   -855.88982   -23258.405   -25122.124    1863.7191    1.1610133    30.985945    30.985945    30.985945    29750.497 
 5969000    305.68577    -804.2214   -23179.673   -25099.553    1919.8799    1.1610133    30.985945    30.985945    30.985945    29750.497 
 5970000    297.08606   -644.59636   -23267.431     -25133.3    1865.8689    1.1610133    30.985945    30.985945    30.985945    29750.497 
 5971000    297.80116   -1204.3532   -23166.895   -25037.255    1870.3601    1.1610133    30.985945    30.985945    30.985945    29750.497 
 5972000    304.27389    128.12172    -23154.54   -25065.553    1911.0125    1.1610133    30.985945    30.985945    30.985945    29750.497 
 5973000    296.89154   -626.85558   -23244.278   -25108.925    1864.6471    1.1610133    30.985945    30.985945    30.985945    29750.497 
 5974000    306.67134    319.55422   -23163.908   -25089.978    1926.0698    1.1610133    30.985945    30.985945    30.985945    29750.497 
 5975000    292.03423   -118.87518   -23248.529   -25082.669    1834.1405    1.1610133    30.985945    30.985945    30.985945    29750.497 
 5976000    297.53049   -304.85105   -23136.347   -25005.008    1868.6601    1.1610133    30.985945    30.985945    30.985945    29750.497 
 5977000    292.26265    196.17591   -23224.242   -25059.817    1835.5751    1.1610133    30.985945    30.985945    30.985945    29750.497 
 5978000    297.39252   -904.15451   -23239.583   -25107.376    1867.7936    1.1610133    30.985945    30.985945    30.985945    29750.497 
 5979000    302.34352   -673.93315   -23225.903   -25124.792    1898.8887    1.1610133    30.985945    30.985945    30.985945    29750.497 
 5980000    294.75823   -707.42832   -23228.699   -25079.948    1851.2488    1.1610133    30.985945    30.985945    30.985945    29750.497 
 5981000    299.80743   -276.22573   -23236.364   -25119.324    1882.9606    1.1610133    30.985945    30.985945    30.985945    29750.497 
 5982000    290.66573   -479.98418   -23316.987   -25142.533    1825.5455    1.1610133    30.985945    30.985945    30.985945    29750.497 
 5983000    300.77541   -447.25972   -23195.988   -25085.028    1889.0401    1.1610133    30.985945    30.985945    30.985945    29750.497 
 5984000    288.86869   -28.295349   -23175.627   -24989.886    1814.2591    1.1610133    30.985945    30.985945    30.985945    29750.497 
 5985000    305.46689    246.43089   -23137.079   -25055.584    1918.5052    1.1610133    30.985945    30.985945    30.985945    29750.497 
 5986000    296.58591   -334.92179   -23234.118   -25096.846    1862.7276    1.1610133    30.985945    30.985945    30.985945    29750.497 
 5987000    304.18504     265.5596   -23156.854   -25067.308    1910.4545    1.1610133    30.985945    30.985945    30.985945    29750.497 
 5988000    305.89137   -817.73661   -23121.891   -25043.062    1921.1712    1.1610133    30.985945    30.985945    30.985945    29750.497 
 5989000    302.78641   -153.08643   -23208.357   -25110.027    1901.6703    1.1610133    30.985945    30.985945    30.985945    29750.497 
 5990000    300.94197   -543.55889   -23231.577   -25121.663    1890.0861    1.1610133    30.985945    30.985945    30.985945    29750.497 
 5991000    298.26327    64.748159   -23251.487    -25124.75    1873.2624    1.1610133    30.985945    30.985945    30.985945    29750.497 
 5992000     293.2728   -471.41479   -23320.295   -25162.215    1841.9194    1.1610133    30.985945    30.985945    30.985945    29750.497 
 5993000    297.26283   -570.12763   -23216.846   -25083.825     1866.979    1.1610133    30.985945    30.985945    30.985945    29750.497 
 5994000    296.25263   -582.39486   -23162.264   -25022.899    1860.6344    1.1610133    30.985945    30.985945    30.985945    29750.497 
 5995000      304.241   -769.74897   -23097.708   -25008.514    1910.8059    1.1610133    30.985945    30.985945    30.985945    29750.497 
 5996000    300.92884   -122.30523   -23192.192   -25082.195    1890.0037    1.1610133    30.985945    30.985945    30.985945    29750.497 
 5997000    304.69368   -469.82582   -23228.171    -25141.82     1913.649    1.1610133    30.985945    30.985945    30.985945    29750.497 
 5998000    297.11965   -340.18664   -23251.028   -25117.108    1866.0798    1.1610133    30.985945    30.985945    30.985945    29750.497 
 5999000    297.18703   -1086.7527   -23227.214   -25093.717     1866.503    1.1610133    30.985945    30.985945    30.985945    29750.497 
 6000000    297.09473   -1330.6883   -23284.594   -25150.518    1865.9233    1.1610133    30.985945    30.985945    30.985945    29750.497 
 6000573    305.30858   -1018.2907   -23076.781   -24994.292    1917.5109    1.1610133    30.985945    30.985945    30.985945    29750.497 
Loop time of 24692.3 on 16 procs for 6000000 steps with 3108 atoms

Performance: 20.994 ns/day, 1.143 hours/ns, 242.991 timesteps/s
1584.2% CPU use with 1 MPI tasks x 16 OpenMP threads

MPI task timing breakdown:
Section |  min time  |  avg time  |  max time  |%varavg| %total
---------------------------------------------------------------
Pair    | 8456.3     | 8456.3     | 8456.3     |   0.0 | 34.25
Bond    | 61.021     | 61.021     | 61.021     |   0.0 |  0.25
Kspace  | 11494      | 11494      | 11494      |   0.0 | 46.55
Neigh   | 855.86     | 855.86     | 855.86     |   0.0 |  3.47
Comm    | 1083.6     | 1083.6     | 1083.6     |   0.0 |  4.39
Output  | 47.409     | 47.409     | 47.409     |   0.0 |  0.19
Modify  | 2643.2     | 2643.2     | 2643.2     |   0.0 | 10.70
Other   |            | 51.24      |            |       |  0.21

Nlocal:        3108.00 ave        3108 max        3108 min
Histogram: 1 0 0 0 0 0 0 0 0 0
Nghost:        14346.0 ave       14346 max       14346 min
Histogram: 1 0 0 0 0 0 0 0 0 0
Neighs:    1.17424e+06 ave 1.17424e+06 max 1.17424e+06 min
Histogram: 1 0 0 0 0 0 0 0 0 0

Total # of neighbors = 1174235
Ave neighs/atom = 377.81049
Ave special neighs/atom = 2.0463320
Neighbor list builds = 272007
Dangerous builds = 0

write_data equil.data
System init for write_data ...
PPPM initialization ...
  using 12-bit tables for long-range coulomb (src/kspace.cpp:340)
  G vector (1/distance) = 0.27356808
  grid = 18 18 18
  stencil order = 5
  estimated absolute RMS force accuracy = 0.022456967
  estimated relative force accuracy = 6.762849e-05
  using double precision KISS FFT
  3d grid and FFT values/proc = 15625 5832
Last active /omp style is kspace_style pppm/omp

write_restart   equil.restart
System init for write_restart ...
PPPM initialization ...
  using 12-bit tables for long-range coulomb (src/kspace.cpp:340)
  G vector (1/distance) = 0.27356808
  grid = 18 18 18
  stencil order = 5
  estimated absolute RMS force accuracy = 0.022456967
  estimated relative force accuracy = 6.762849e-05
  using double precision KISS FFT
  3d grid and FFT values/proc = 15625 5832
Last active /omp style is kspace_style pppm/omp


Total wall time: 6:51:37
