
# Read simulation box and atom positions
read_data       nickel.data
Reading data file ...
  orthogonal box = (0.0040776171 0.0040776171 0.0040776171) to (30.990022 30.990022 30.990022)
  1 by 1 by 1 MPI processor grid
  reading atoms ...
  3108 atoms
  reading velocities ...
  3108 velocities
  scanning bonds ...
  4 = max bonds/atom
  scanning angles ...
  6 = max angles/atom
  reading bonds ...
  2072 bonds
  reading angles ...
  1108 angles
Finding 1-2 1-3 1-4 neighbors ...
  special bond factors lj:    0        0        0       
  special bond factors coul:  0        0        0       
     4 = max # of 1-2 neighbors
     3 = max # of 1-3 neighbors
     3 = max # of 1-4 neighbors
     4 = max # of special neighbors
  special bonds CPU = 0.001 seconds
  read_data CPU = 0.021 seconds

# Mass of each atom type
mass            1 15.9994   # Oxygen
mass            2 1.008   # Hydrogen
mass            3 58.693    #Ni
mass            4 32.06      #S
mass            5 15.9994   # Oxygen in SO4

# Neighbor list settings
neighbor        2.0 bin
neigh_modify    delay 0 every 1 check yes

pair_style   lj/cut/coul/long 10.0 10.0
kspace_style pppm  1e-4
pair_modify     tail yes
pair_modify     mix arithmetic  # Lorentz–Berthelot mixing rule
bond_style      harmonic
angle_style     harmonic

# parameters for lennard jones potential
pair_coeff      1 1 0.1553        3.166   # water O-O SPC/E
pair_coeff      2 2 0.0000        0.000      # H-H
pair_coeff      3 3 0.0366       1.9495      #Ni J. Phys. Chem. A 2006, 110, 691-699
pair_coeff      4 4 0.25         3.55  #S
pair_coeff      5 5 0.20         3.15  # O in SO4

bond_coeff      1 1000.0   1.00  # O-H (water)
bond_coeff      2 250.0   1.49    # S-O
angle_coeff     1 100.0  109.47   # H-O-H (water)
angle_coeff     2 100.0  109.47   # O-S-O


# Initial velocity distribution
velocity        all create ${temp} 9756304 dist gaussian
velocity        all create 298.15 9756304 dist gaussian

min_style       cg
minimize        1e-6 1e-8 2000 20000
PPPM initialization ...
  using 12-bit tables for long-range coulomb (src/kspace.cpp:340)
  G vector (1/distance) = 0.27356808
  grid = 18 18 18
  stencil order = 5
  estimated absolute RMS force accuracy = 0.022456967
  estimated relative force accuracy = 6.762849e-05
  using double precision KISS FFT
  3d grid and FFT values/proc = 15625 5832
Last active /omp style is kspace_style pppm/omp
Neighbor list info ...
  update every 1 steps, delay 0 steps, check yes
  max neighbors/atom: 2000, page size: 100000
  master list distance cutoff = 12
  ghost atom cutoff = 12
  binsize = 6, bins = 6 6 6
  1 neighbor lists, perpetual/occasional/extra = 1 0 0
  (1) pair lj/cut/coul/long/omp, perpetual
      attributes: half, newton on, omp
      pair build: half/bin/newton/omp
      stencil: half/bin/3d
      bin: standard
Per MPI rank memory allocation (min/avg/max) = 41.41 | 41.41 | 41.41 Mbytes
Step Temp E_pair E_mol TotEng Press 
       0       298.15   -25237.883    114.21442   -22362.389    34429.186 
     588       298.15   -28597.413    590.72759   -25245.406   -1533.3684 
Loop time of 6.85779 on 16 procs for 588 steps with 3108 atoms

1586.3% CPU use with 1 MPI tasks x 16 OpenMP threads

Minimization stats:
  Stopping criterion = energy tolerance
  Energy initial, next-to-last, final = 
     -25123.6689007011   -28006.678363416  -28006.6855834699
  Force two-norm initial, final = 1701.7849 9.0630591
  Force max component initial, final = 73.128112 3.1851605
  Final line search alpha, max atom move = 0.010343972 0.032947210
  Iterations, force evaluations = 588 1175

MPI task timing breakdown:
Section |  min time  |  avg time  |  max time  |%varavg| %total
---------------------------------------------------------------
Pair    | 3.1094     | 3.1094     | 3.1094     |   0.0 | 45.34
Bond    | 0.068867   | 0.068867   | 0.068867   |   0.0 |  1.00
Kspace  | 2.9908     | 2.9908     | 2.9908     |   0.0 | 43.61
Neigh   | 0.044821   | 0.044821   | 0.044821   |   0.0 |  0.65
Comm    | 0.30011    | 0.30011    | 0.30011    |   0.0 |  4.38
Output  | 0          | 0          | 0          |   0.0 |  0.00
Modify  | 0.2337     | 0.2337     | 0.2337     |   0.0 |  3.41
Other   |            | 0.1101     |            |       |  1.61

Nlocal:        3108.00 ave        3108 max        3108 min
Histogram: 1 0 0 0 0 0 0 0 0 0
Nghost:        14178.0 ave       14178 max       14178 min
Histogram: 1 0 0 0 0 0 0 0 0 0
Neighs:    1.17467e+06 ave 1.17467e+06 max 1.17467e+06 min
Histogram: 1 0 0 0 0 0 0 0 0 0

Total # of neighbors = 1174667
Ave neighs/atom = 377.94949
Ave special neighs/atom = 2.0463320
Neighbor list builds = 12
Dangerous builds = 0

fix   1 all shake 0.0001 20 0 b 1 a 1
       0 = # of size 2 clusters
       0 = # of size 3 clusters
       0 = # of size 4 clusters
    1000 = # of frozen angles
  find clusters CPU = 0.003 seconds
fix   2 all nvt temp ${temp} ${temp} 100.0
fix   2 all nvt temp 298.15 ${temp} 100.0
fix   2 all nvt temp 298.15 298.15 100.0
fix   3 all efield  0.30 0.00 0.00   #apply electric field in the x-direction
fix   4 all momentum 100 linear 1 1 1  #remove center of mass motion

timestep	${dt}
timestep	1
thermo_style    custom step temp press etotal pe ke density lx ly lz vol
thermo          ${thermo_freq}
thermo          1000
thermo_modify   flush yes

# dumps for analysis
#First dump file with wrapped coordinates (x y z)
dump            1 all custom 1000 wrapped.lammpstrj id type x y z
dump_modify     1 sort id

# Second dump file with unwrapped coordinates and velocities
dump            2 all custom 1000 unwrapped.lammpstrj id type xu yu zu
dump_modify     2 sort id

run             ${nsteps}
run             6000000
PPPM initialization ...
  using 12-bit tables for long-range coulomb (src/kspace.cpp:340)
  G vector (1/distance) = 0.27356808
  grid = 18 18 18
  stencil order = 5
  estimated absolute RMS force accuracy = 0.022456967
  estimated relative force accuracy = 6.762849e-05
  using double precision KISS FFT
  3d grid and FFT values/proc = 15625 5832
Last active /omp style is kspace_style pppm/omp
Per MPI rank memory allocation (min/avg/max) = 40.91 | 40.91 | 40.91 Mbytes
Step Temp Press TotEng PotEng KinEng Density Lx Ly Lz Volume 
     588    439.65451   -2714.5008   -25784.302   -28545.582    2761.2795    1.1610133    30.985945    30.985945    30.985945    29750.497 
    1000    286.96587    892.03912   -23150.872   -24953.181    1802.3083    1.1610133    30.985945    30.985945    30.985945    29750.497 
    2000    298.96658   -2677.7574   -22892.992   -24770.671    1877.6796    1.1610133    30.985945    30.985945    30.985945    29750.497 
    3000    301.32616   -1015.6252    -22870.43   -24762.929    1892.4991    1.1610133    30.985945    30.985945    30.985945    29750.497 
    4000    291.75513   -2189.9685    -23040.41   -24872.798    1832.3876    1.1610133    30.985945    30.985945    30.985945    29750.497 
    5000    304.92053   -2169.8273   -22929.893   -24844.966    1915.0738    1.1610133    30.985945    30.985945    30.985945    29750.497 
    6000    298.32155   -2040.6263   -23028.486   -24902.115    1873.6284    1.1610133    30.985945    30.985945    30.985945    29750.497 
    7000    296.36186   -2871.9503   -22996.272   -24857.592    1861.3205    1.1610133    30.985945    30.985945    30.985945    29750.497 
    8000     291.2912   -3245.5101   -23083.246    -24912.72    1829.4738    1.1610133    30.985945    30.985945    30.985945    29750.497 
    9000    299.03608   -1999.7909   -22968.439   -24846.555    1878.1161    1.1610133    30.985945    30.985945    30.985945    29750.497 
   10000    298.21768   -3043.2143   -22969.634    -24842.61    1872.9761    1.1610133    30.985945    30.985945    30.985945    29750.497 
   11000    302.44797   -3343.7487   -22862.868   -24762.413    1899.5447    1.1610133    30.985945    30.985945    30.985945    29750.497 
   12000    295.61532   -2191.5183    -22978.65   -24835.281    1856.6318    1.1610133    30.985945    30.985945    30.985945    29750.497 
   13000    299.24446    -1908.613   -22954.736   -24834.161    1879.4248    1.1610133    30.985945    30.985945    30.985945    29750.497 
   14000    299.17339    -1134.861   -22877.474   -24756.452    1878.9785    1.1610133    30.985945    30.985945    30.985945    29750.497 
   15000    298.71384   -2022.5485   -22946.765   -24822.857    1876.0922    1.1610133    30.985945    30.985945    30.985945    29750.497 
   16000    296.52056   -1264.2821   -22897.723    -24760.04    1862.3172    1.1610133    30.985945    30.985945    30.985945    29750.497 
   17000    302.34915   -2099.5879   -22898.796    -24797.72     1898.924    1.1610133    30.985945    30.985945    30.985945    29750.497 
   18000    302.14437   -1658.4423    -22936.35   -24833.988    1897.6379    1.1610133    30.985945    30.985945    30.985945    29750.497 
   19000    298.14073   -1552.0489   -22996.543   -24869.036    1872.4928    1.1610133    30.985945    30.985945    30.985945    29750.497 
   20000    292.18475   -2452.0923   -22954.921   -24790.007    1835.0858    1.1610133    30.985945    30.985945    30.985945    29750.497 
   21000    303.78514   -1855.5571   -22879.504   -24787.447    1907.9428    1.1610133    30.985945    30.985945    30.985945    29750.497 
   22000    299.29442   -1234.5039   -22831.963   -24711.702    1879.7386    1.1610133    30.985945    30.985945    30.985945    29750.497 
   23000    295.86938   -971.27319   -22866.304   -24724.531    1858.2274    1.1610133    30.985945    30.985945    30.985945    29750.497 
   24000    305.07889   -1436.6643   -22855.454   -24771.523    1916.0683    1.1610133    30.985945    30.985945    30.985945    29750.497 
   25000    296.76091   -1490.8144   -22918.155   -24781.982    1863.8267    1.1610133    30.985945    30.985945    30.985945    29750.497 
   26000    306.52695   -1549.2712   -22822.261   -24747.424     1925.163    1.1610133    30.985945    30.985945    30.985945    29750.497 
   27000    297.90523   -1160.8514   -22832.176    -24703.19    1871.0137    1.1610133    30.985945    30.985945    30.985945    29750.497 
   28000    305.31597   -1712.4587   -22846.316   -24763.873    1917.5574    1.1610133    30.985945    30.985945    30.985945    29750.497 
   29000      298.925   -2236.7914   -22856.264   -24733.682    1877.4184    1.1610133    30.985945    30.985945    30.985945    29750.497 
   30000    305.44869   -2821.4676   -22861.666   -24780.057    1918.3909    1.1610133    30.985945    30.985945    30.985945    29750.497 
   31000    300.25268   -1130.9621   -22896.838   -24782.595     1885.757    1.1610133    30.985945    30.985945    30.985945    29750.497 
   32000    303.33634   -1670.5335   -22868.456    -24773.58    1905.1242    1.1610133    30.985945    30.985945    30.985945    29750.497 
   33000    302.26106    -1826.294     -22890.1    -24788.47    1898.3708    1.1610133    30.985945    30.985945    30.985945    29750.497 
   34000    297.78303   -1371.9352   -22950.061   -24820.307    1870.2462    1.1610133    30.985945    30.985945    30.985945    29750.497 
   35000    304.11708   -1934.5134   -22929.866   -24839.893    1910.0276    1.1610133    30.985945    30.985945    30.985945    29750.497 
   36000    294.56273   -1506.5307   -23031.674   -24881.695    1850.0209    1.1610133    30.985945    30.985945    30.985945    29750.497 
   37000    304.35042   -2203.4831   -22843.083   -24754.576    1911.4931    1.1610133    30.985945    30.985945    30.985945    29750.497 
   38000    293.44972   -1437.5111   -22921.355   -24764.385    1843.0306    1.1610133    30.985945    30.985945    30.985945    29750.497 
   39000    297.66691   -1752.8703   -22895.127   -24764.644    1869.5169    1.1610133    30.985945    30.985945    30.985945    29750.497 
   40000     307.0306   -754.67464   -22898.027   -24826.353    1928.3262    1.1610133    30.985945    30.985945    30.985945    29750.497 
   41000    298.69946   -1794.3211   -23002.679    -24878.68    1876.0019    1.1610133    30.985945    30.985945    30.985945    29750.497 
   42000    305.05007   -2747.4893   -22924.019   -24839.907    1915.8873    1.1610133    30.985945    30.985945    30.985945    29750.497 
   43000      307.565    -1369.061   -22837.255   -24768.938    1931.6825    1.1610133    30.985945    30.985945    30.985945    29750.497 
   44000    306.25395   -1318.4076   -22893.849   -24817.297    1923.4484    1.1610133    30.985945    30.985945    30.985945    29750.497 
   45000    300.79983   -1810.8875   -22905.798   -24794.992    1889.1934    1.1610133    30.985945    30.985945    30.985945    29750.497 
   46000    306.93595   -2093.4218   -22931.363   -24859.095    1927.7318    1.1610133    30.985945    30.985945    30.985945    29750.497 
   47000    302.78307   -1828.3035   -22890.065   -24791.714    1901.6493    1.1610133    30.985945    30.985945    30.985945    29750.497 
   48000    301.88242    -1877.848   -22894.932   -24790.925    1895.9927    1.1610133    30.985945    30.985945    30.985945    29750.497 
   49000    300.62789      -2151.8   -22968.357    -24856.47    1888.1135    1.1610133    30.985945    30.985945    30.985945    29750.497 
   50000     296.9531   -1865.1196   -22975.366     -24840.4    1865.0338    1.1610133    30.985945    30.985945    30.985945    29750.497 
   51000    298.43563   -2412.7692   -22930.591   -24804.936    1874.3449    1.1610133    30.985945    30.985945    30.985945    29750.497 
   52000    301.28257   -1934.7505   -22923.109   -24815.335    1892.2253    1.1610133    30.985945    30.985945    30.985945    29750.497 
   53000    297.29583   -835.83056   -22924.918   -24792.104    1867.1863    1.1610133    30.985945    30.985945    30.985945    29750.497 
   54000    314.43516    -2002.481   -22875.112   -24849.943     1974.831    1.1610133    30.985945    30.985945    30.985945    29750.497 
   55000    300.55571   -1202.9213    -23004.44     -24892.1    1887.6602    1.1610133    30.985945    30.985945    30.985945    29750.497 
   56000     303.9324   -1192.5168   -22882.493   -24791.361    1908.8678    1.1610133    30.985945    30.985945    30.985945    29750.497 
   57000    304.20054   -1180.9623   -22934.471   -24845.023    1910.5518    1.1610133    30.985945    30.985945    30.985945    29750.497 
   58000    297.60413   -1798.4211   -22874.966   -24744.089    1869.1226    1.1610133    30.985945    30.985945    30.985945    29750.497 
   59000     302.3098   -1461.1253   -22951.003    -24849.68    1898.6769    1.1610133    30.985945    30.985945    30.985945    29750.497 
   60000    299.46632   -2210.9556   -22911.163   -24791.981    1880.8182    1.1610133    30.985945    30.985945    30.985945    29750.497 
   61000    299.70721    -2304.873    -22915.52   -24797.851    1882.3312    1.1610133    30.985945    30.985945    30.985945    29750.497 
   62000    301.67044   -1438.1103   -22819.523   -24714.184    1894.6614    1.1610133    30.985945    30.985945    30.985945    29750.497 
   63000     301.0028   -1476.0778   -22916.664   -24807.133    1890.4682    1.1610133    30.985945    30.985945    30.985945    29750.497 
   64000     303.7284   -1747.3244    -22911.73   -24819.316    1907.5865    1.1610133    30.985945    30.985945    30.985945    29750.497 
   65000    301.07559   -1622.7531   -22953.624    -24844.55    1890.9254    1.1610133    30.985945    30.985945    30.985945    29750.497 
   66000    300.01583   -2098.9002   -22999.345   -24883.615    1884.2694    1.1610133    30.985945    30.985945    30.985945    29750.497 
   67000    300.41803   -759.49381   -22897.821   -24784.616    1886.7955    1.1610133    30.985945    30.985945    30.985945    29750.497 
   68000    303.29815   -2011.7053   -22936.131   -24841.015    1904.8843    1.1610133    30.985945    30.985945    30.985945    29750.497 
   69000      296.768   -1449.6981   -22909.621   -24773.493    1863.8713    1.1610133    30.985945    30.985945    30.985945    29750.497 
   70000    302.74415   -1293.9263   -22911.088   -24812.493    1901.4049    1.1610133    30.985945    30.985945    30.985945    29750.497 
   71000      296.239    -2098.354    -22940.89   -24801.439    1860.5488    1.1610133    30.985945    30.985945    30.985945    29750.497 
   72000    298.16185   -2992.9196   -22951.142   -24823.768    1872.6254    1.1610133    30.985945    30.985945    30.985945    29750.497 
   73000    297.67541   -1338.9182   -22971.451   -24841.022    1869.5703    1.1610133    30.985945    30.985945    30.985945    29750.497 
   74000    307.36995   -2284.7355   -22956.287   -24886.745    1930.4575    1.1610133    30.985945    30.985945    30.985945    29750.497 
   75000    296.62467   -2860.4219   -22937.689    -24800.66    1862.9711    1.1610133    30.985945    30.985945    30.985945    29750.497 
   76000    290.80579   -1783.0992    -22973.15   -24799.575    1826.4252    1.1610133    30.985945    30.985945    30.985945    29750.497 
   77000    301.89682   -1999.3164   -22930.518   -24826.601    1896.0831    1.1610133    30.985945    30.985945    30.985945    29750.497 
   78000    299.63216   -1138.5469   -22983.753   -24865.612    1881.8598    1.1610133    30.985945    30.985945    30.985945    29750.497 
   79000    307.31832   -1875.5795   -22994.214   -24924.347    1930.1333    1.1610133    30.985945    30.985945    30.985945    29750.497 
   80000    300.19249   -1830.7226   -22944.428   -24829.807     1885.379    1.1610133    30.985945    30.985945    30.985945    29750.497 
   81000    301.33173   -1815.3209   -22947.586    -24840.12    1892.5341    1.1610133    30.985945    30.985945    30.985945    29750.497 
   82000    304.54766   -2036.4371   -22854.791   -24767.523    1912.7319    1.1610133    30.985945    30.985945    30.985945    29750.497 
   83000    295.32568   -1596.6586   -22897.781   -24752.594    1854.8127    1.1610133    30.985945    30.985945    30.985945    29750.497 
   84000    303.21704   -2160.4005   -22926.316   -24830.691    1904.3749    1.1610133    30.985945    30.985945    30.985945    29750.497 
   85000    300.61047   -2780.3999   -22934.522   -24822.526    1888.0041    1.1610133    30.985945    30.985945    30.985945    29750.497 
   86000    290.99758   -1987.0123   -22958.836   -24786.466    1827.6297    1.1610133    30.985945    30.985945    30.985945    29750.497 
   87000     299.6915   -2113.5218   -22979.262   -24861.494    1882.2325    1.1610133    30.985945    30.985945    30.985945    29750.497 
   88000    298.67706   -1495.2445    -22972.11   -24847.971    1875.8612    1.1610133    30.985945    30.985945    30.985945    29750.497 
   89000    295.39851   -820.04508   -22909.878   -24765.148    1855.2701    1.1610133    30.985945    30.985945    30.985945    29750.497 
   90000    304.27534   -1359.6661   -22878.505   -24789.527    1911.0216    1.1610133    30.985945    30.985945    30.985945    29750.497 
   91000    299.14522   -1527.3828   -22964.823   -24843.625    1878.8015    1.1610133    30.985945    30.985945    30.985945    29750.497 
   92000    301.77108   -1477.1008   -22938.042   -24833.336    1895.2934    1.1610133    30.985945    30.985945    30.985945    29750.497 
   93000    293.65613   -3077.4287   -22971.292   -24815.619    1844.3269    1.1610133    30.985945    30.985945    30.985945    29750.497 
   94000    306.22233   -3216.0866   -22893.646   -24816.896    1923.2498    1.1610133    30.985945    30.985945    30.985945    29750.497 
   95000    300.97776   -1859.1536   -22870.759    -24761.07    1890.3109    1.1610133    30.985945    30.985945    30.985945    29750.497 
   96000    298.95902   -1491.1981   -22916.622   -24794.254    1877.6321    1.1610133    30.985945    30.985945    30.985945    29750.497 
   97000    299.06375   -2089.5177   -22929.357   -24807.647    1878.2898    1.1610133    30.985945    30.985945    30.985945    29750.497 
   98000    304.15973    -2841.083   -22959.245   -24869.541    1910.2955    1.1610133    30.985945    30.985945    30.985945    29750.497 
   99000    301.68931   -2205.9454   -23004.165   -24898.944    1894.7799    1.1610133    30.985945    30.985945    30.985945    29750.497 
  100000    296.47666   -2406.2011   -23036.847   -24898.888    1862.0415    1.1610133    30.985945    30.985945    30.985945    29750.497 
  101000    291.93974   -3255.9004   -23166.329   -24999.876     1833.547    1.1610133    30.985945    30.985945    30.985945    29750.497 
  102000     301.2126   -2957.2987   -23091.655   -24983.441    1891.7858    1.1610133    30.985945    30.985945    30.985945    29750.497 
  103000    291.03956   -3008.7049     -23047.6   -24875.494    1827.8934    1.1610133    30.985945    30.985945    30.985945    29750.497 
  104000    304.65624   -1135.8927   -22985.218   -24898.632    1913.4138    1.1610133    30.985945    30.985945    30.985945    29750.497 
  105000    307.45463   -707.74087   -23054.735   -24985.724    1930.9893    1.1610133    30.985945    30.985945    30.985945    29750.497 
  106000    302.24339   -2672.9327   -22998.154   -24896.413    1898.2598    1.1610133    30.985945    30.985945    30.985945    29750.497 
  107000    300.59094   -2532.2918   -23042.693   -24930.574    1887.8815    1.1610133    30.985945    30.985945    30.985945    29750.497 
  108000     302.8422   -2443.6052   -23063.235   -24965.256    1902.0207    1.1610133    30.985945    30.985945    30.985945    29750.497 
  109000    293.50988   -2562.9709   -23093.255   -24936.663    1843.4084    1.1610133    30.985945    30.985945    30.985945    29750.497 
  110000     301.1335   -1802.3833   -23007.413   -24898.702    1891.2891    1.1610133    30.985945    30.985945    30.985945    29750.497 
  111000    300.88309   -1871.6831    -22972.18   -24861.896    1889.7163    1.1610133    30.985945    30.985945    30.985945    29750.497 
  112000    297.91466   -2515.3551   -23059.254   -24930.327    1871.0729    1.1610133    30.985945    30.985945    30.985945    29750.497 
  113000    299.54937   -3081.3543   -22983.544   -24864.884    1881.3398    1.1610133    30.985945    30.985945    30.985945    29750.497 
  114000    302.06502   -2231.1894   -22933.243   -24830.383    1897.1395    1.1610133    30.985945    30.985945    30.985945    29750.497 
  115000    306.89773   -2520.1699   -22913.915   -24841.407    1927.4917    1.1610133    30.985945    30.985945    30.985945    29750.497 
  116000    296.82833   -2665.9928   -22964.476   -24828.726    1864.2502    1.1610133    30.985945    30.985945    30.985945    29750.497 
  117000    302.35995    -2471.934   -23039.734   -24938.726    1898.9918    1.1610133    30.985945    30.985945    30.985945    29750.497 
  118000    299.47277   -1840.7067   -23046.878   -24927.737    1880.8587    1.1610133    30.985945    30.985945    30.985945    29750.497 
  119000    298.29252   -2063.8415   -23017.696   -24891.142    1873.4461    1.1610133    30.985945    30.985945    30.985945    29750.497 
  120000     299.1008   -2121.3258   -23009.559   -24888.082    1878.5226    1.1610133    30.985945    30.985945    30.985945    29750.497 
  121000    301.73705   -1635.8169    -23029.16    -24924.24    1895.0797    1.1610133    30.985945    30.985945    30.985945    29750.497 
  122000    294.87449   -2053.2383   -23002.998   -24854.977    1851.9789    1.1610133    30.985945    30.985945    30.985945    29750.497 
  123000    295.97928   -2246.1528    -22991.72   -24850.638    1858.9176    1.1610133    30.985945    30.985945    30.985945    29750.497 
  124000    297.43478     -1157.04   -22988.231    -24856.29     1868.059    1.1610133    30.985945    30.985945    30.985945    29750.497 
  125000    298.15751   -2523.5851   -22963.325   -24835.923    1872.5981    1.1610133    30.985945    30.985945    30.985945    29750.497 
  126000    299.05469   -1345.2544   -23074.899   -24953.132     1878.233    1.1610133    30.985945    30.985945    30.985945    29750.497 
  127000    295.80205   -1734.0042   -23095.897   -24953.701    1857.8046    1.1610133    30.985945    30.985945    30.985945    29750.497 
  128000    291.07092   -2204.5452   -23058.303   -24886.394    1828.0903    1.1610133    30.985945    30.985945    30.985945    29750.497 
  129000    299.62294   -1772.7038   -23028.422   -24910.224    1881.8019    1.1610133    30.985945    30.985945    30.985945    29750.497 
  130000     304.4923   -1834.6214    -22990.17   -24902.555    1912.3842    1.1610133    30.985945    30.985945    30.985945    29750.497 
  131000     297.9651   -1912.8664   -23003.974   -24875.364    1871.3897    1.1610133    30.985945    30.985945    30.985945    29750.497 
  132000    293.61044    -2304.688   -23020.035   -24864.075      1844.04    1.1610133    30.985945    30.985945    30.985945    29750.497 
  133000    296.07551   -2250.8047   -22946.818    -24806.34     1859.522    1.1610133    30.985945    30.985945    30.985945    29750.497 
  134000    299.71452   -2377.9524   -22963.939   -24846.316    1882.3771    1.1610133    30.985945    30.985945    30.985945    29750.497 
  135000     303.1188   -1746.9689   -22944.066   -24847.824    1903.7579    1.1610133    30.985945    30.985945    30.985945    29750.497 
  136000    298.71329   -2422.9643   -22959.842    -24835.93    1876.0888    1.1610133    30.985945    30.985945    30.985945    29750.497 
  137000    301.11155   -2385.6285   -22919.953   -24811.105    1891.1512    1.1610133    30.985945    30.985945    30.985945    29750.497 
  138000    305.12581   -2146.8859   -22968.072   -24884.435     1916.363    1.1610133    30.985945    30.985945    30.985945    29750.497 
  139000    299.35104   -1995.8955   -22974.978   -24855.072    1880.0942    1.1610133    30.985945    30.985945    30.985945    29750.497 
  140000     306.2166   -1422.0816     -22931.8   -24855.014    1923.2138    1.1610133    30.985945    30.985945    30.985945    29750.497 
  141000    298.57538   -2290.7531   -22937.631   -24812.853    1875.2226    1.1610133    30.985945    30.985945    30.985945    29750.497 
  142000    293.94552   -1072.8602   -23032.972   -24879.116    1846.1445    1.1610133    30.985945    30.985945    30.985945    29750.497 
  143000    304.33764    -2363.806   -22951.246   -24862.659    1911.4129    1.1610133    30.985945    30.985945    30.985945    29750.497 
  144000    288.72061   -2340.0825   -22979.432   -24792.761    1813.3291    1.1610133    30.985945    30.985945    30.985945    29750.497 
  145000    298.66302   -2043.5376   -22976.445   -24852.218     1875.773    1.1610133    30.985945    30.985945    30.985945    29750.497 
  146000    304.95092   -2220.4673   -22933.729   -24848.993    1915.2646    1.1610133    30.985945    30.985945    30.985945    29750.497 
  147000    299.71495   -2206.5067   -23013.087   -24895.467    1882.3797    1.1610133    30.985945    30.985945    30.985945    29750.497 
  148000    295.72936   -3239.0838   -23038.818   -24896.166     1857.348    1.1610133    30.985945    30.985945    30.985945    29750.497 
  149000    305.42947   -2172.2912   -22931.505   -24849.775    1918.2702    1.1610133    30.985945    30.985945    30.985945    29750.497 
  150000    306.80544   -1532.6255   -22994.446   -24921.358     1926.912    1.1610133    30.985945    30.985945    30.985945    29750.497 
  151000     307.5857   -2521.3072   -22951.441   -24883.253    1931.8126    1.1610133    30.985945    30.985945    30.985945    29750.497 
  152000    305.35941   -1294.2107   -22918.546   -24836.376    1917.8302    1.1610133    30.985945    30.985945    30.985945    29750.497 
  153000    297.22198   -2253.2145   -22961.161   -24827.884    1866.7225    1.1610133    30.985945    30.985945    30.985945    29750.497 
  154000    296.32629   -2222.1106   -23006.092   -24867.189     1861.097    1.1610133    30.985945    30.985945    30.985945    29750.497 
  155000     299.8412   -2232.9213   -22938.393   -24821.566    1883.1726    1.1610133    30.985945    30.985945    30.985945    29750.497 
  156000    299.39686   -1746.2499   -22969.577   -24849.959     1880.382    1.1610133    30.985945    30.985945    30.985945    29750.497 
  157000    304.18712   -2097.9439   -22972.117   -24882.585    1910.4675    1.1610133    30.985945    30.985945    30.985945    29750.497 
  158000    296.34878   -1779.5624   -23000.833   -24862.072    1861.2383    1.1610133    30.985945    30.985945    30.985945    29750.497 
  159000    298.88997   -2789.2073   -23000.731   -24877.929    1877.1984    1.1610133    30.985945    30.985945    30.985945    29750.497 
  160000    289.75956   -3165.9822    -23025.11   -24844.965    1819.8543    1.1610133    30.985945    30.985945    30.985945    29750.497 
  161000    299.62276   -2528.2072   -23036.887   -24918.687    1881.8007    1.1610133    30.985945    30.985945    30.985945    29750.497 
  162000    301.12851    -2171.445   -23051.292    -24942.55    1891.2577    1.1610133    30.985945    30.985945    30.985945    29750.497 
  163000     303.8608   -2014.9804   -23109.256   -25017.674    1908.4181    1.1610133    30.985945    30.985945    30.985945    29750.497 
  164000    301.43049   -1478.0668   -23022.517   -24915.671    1893.1543    1.1610133    30.985945    30.985945    30.985945    29750.497 
  165000    299.15597   -834.35187   -22969.661    -24848.53    1878.8691    1.1610133    30.985945    30.985945    30.985945    29750.497 
  166000     306.5099   -1865.0218   -22949.522   -24874.577    1925.0559    1.1610133    30.985945    30.985945    30.985945    29750.497 
  167000    302.73047   -2087.6574   -23007.224   -24908.543    1901.3189    1.1610133    30.985945    30.985945    30.985945    29750.497 
  168000    294.21267    -1345.133   -22915.448    -24763.27    1847.8223    1.1610133    30.985945    30.985945    30.985945    29750.497 
  169000    304.57989   -1527.3862    -22877.46   -24790.394    1912.9343    1.1610133    30.985945    30.985945    30.985945    29750.497 
  170000    297.41315   -1714.1138   -22986.674   -24854.597    1867.9232    1.1610133    30.985945    30.985945    30.985945    29750.497 
  171000      303.469   -2839.5243   -23039.801   -24945.759    1905.9573    1.1610133    30.985945    30.985945    30.985945    29750.497 
  172000     298.3987   -2218.5182   -23060.433   -24934.546     1874.113    1.1610133    30.985945    30.985945    30.985945    29750.497 
  173000    303.52002   -1767.2863   -22990.622     -24896.9    1906.2777    1.1610133    30.985945    30.985945    30.985945    29750.497 
  174000    301.47253   -2466.0703   -23064.922    -24958.34    1893.4184    1.1610133    30.985945    30.985945    30.985945    29750.497 
  175000    294.77034   -1718.5615    -22945.71   -24797.035    1851.3248    1.1610133    30.985945    30.985945    30.985945    29750.497 
  176000    301.59272    -2594.168   -22988.174   -24882.347    1894.1732    1.1610133    30.985945    30.985945    30.985945    29750.497 
  177000    302.31485   -2563.9913   -22938.299   -24837.008    1898.7086    1.1610133    30.985945    30.985945    30.985945    29750.497 
  178000    298.96077   -2166.6304   -22971.575   -24849.218    1877.6431    1.1610133    30.985945    30.985945    30.985945    29750.497 
  179000    303.39375   -2852.9165   -22914.583   -24820.068    1905.4847    1.1610133    30.985945    30.985945    30.985945    29750.497 
  180000    294.68916   -2354.0248   -23000.765    -24851.58    1850.8149    1.1610133    30.985945    30.985945    30.985945    29750.497 
  181000    300.86825   -2725.5669   -23003.677     -24893.3    1889.6231    1.1610133    30.985945    30.985945    30.985945    29750.497 
  182000     299.8736   -1976.1547   -22967.134    -24850.51    1883.3762    1.1610133    30.985945    30.985945    30.985945    29750.497 
  183000    301.22785    -3069.376   -23055.343   -24947.224    1891.8816    1.1610133    30.985945    30.985945    30.985945    29750.497 
  184000    297.64097   -1271.8204   -23051.444   -24920.798     1869.354    1.1610133    30.985945    30.985945    30.985945    29750.497 
  185000    300.68608   -2742.3325   -23070.446   -24958.925     1888.479    1.1610133    30.985945    30.985945    30.985945    29750.497 
  186000    300.01276   -1636.8438   -23043.471   -24927.722    1884.2502    1.1610133    30.985945    30.985945    30.985945    29750.497 
  187000    298.13727   -2061.5975   -23022.535   -24895.006     1872.471    1.1610133    30.985945    30.985945    30.985945    29750.497 
  188000    298.33003   -1804.7418   -22951.784   -24825.466    1873.6817    1.1610133    30.985945    30.985945    30.985945    29750.497 
  189000    302.69835   -2355.9744   -22946.465   -24847.582    1901.1172    1.1610133    30.985945    30.985945    30.985945    29750.497 
  190000    300.10058   -1889.5062    -23003.64   -24888.442    1884.8018    1.1610133    30.985945    30.985945    30.985945    29750.497 
  191000     297.2341   -2574.3511   -23080.258   -24947.056    1866.7986    1.1610133    30.985945    30.985945    30.985945    29750.497 
  192000    294.03024   -2453.0942   -22965.681   -24812.358    1846.6766    1.1610133    30.985945    30.985945    30.985945    29750.497 
  193000    300.48775   -2337.3704   -22946.725   -24833.958    1887.2334    1.1610133    30.985945    30.985945    30.985945    29750.497 
  194000    306.49193   -3282.9146   -23011.131   -24936.074     1924.943    1.1610133    30.985945    30.985945    30.985945    29750.497 
  195000    300.60504   -2081.1453   -22934.081   -24822.051      1887.97    1.1610133    30.985945    30.985945    30.985945    29750.497 
  196000    297.86339   -3083.8613     -22936.9   -24807.651    1870.7509    1.1610133    30.985945    30.985945    30.985945    29750.497 
  197000    296.43251   -2222.4669   -22963.303   -24825.067    1861.7642    1.1610133    30.985945    30.985945    30.985945    29750.497 
  198000    298.41573    -1183.557   -23060.163   -24934.383    1874.2199    1.1610133    30.985945    30.985945    30.985945    29750.497 
  199000    301.65508    -2130.237   -22975.286   -24869.851    1894.5649    1.1610133    30.985945    30.985945    30.985945    29750.497 
  200000    303.06164   -2729.0457   -22953.807   -24857.206    1903.3989    1.1610133    30.985945    30.985945    30.985945    29750.497 
  201000    301.90216   -1947.4813   -22989.843    -24885.96    1896.1167    1.1610133    30.985945    30.985945    30.985945    29750.497 
  202000    303.55466   -2242.9918    -22993.45   -24899.946    1906.4953    1.1610133    30.985945    30.985945    30.985945    29750.497 
  203000    299.46908   -2088.8612   -23013.388   -24894.224    1880.8355    1.1610133    30.985945    30.985945    30.985945    29750.497 
  204000    297.66894     -2084.72   -23002.973   -24872.503    1869.5296    1.1610133    30.985945    30.985945    30.985945    29750.497 
  205000    297.86727   -1564.2026   -22966.103   -24836.878    1870.7752    1.1610133    30.985945    30.985945    30.985945    29750.497 
  206000    300.71034    -2648.669   -23041.008    -24929.64    1888.6314    1.1610133    30.985945    30.985945    30.985945    29750.497 
  207000    295.19175    -1270.968   -23101.968   -24955.939    1853.9715    1.1610133    30.985945    30.985945    30.985945    29750.497 
  208000    307.00014   -2208.5354     -23056.6   -24984.735    1928.1349    1.1610133    30.985945    30.985945    30.985945    29750.497 
  209000    298.94551   -2156.7725   -22998.669   -24876.216    1877.5473    1.1610133    30.985945    30.985945    30.985945    29750.497 
  210000    294.94952   -1658.5656   -23079.459   -24931.909    1852.4501    1.1610133    30.985945    30.985945    30.985945    29750.497 
  211000    301.00945   -2040.1689   -23035.698   -24926.208      1890.51    1.1610133    30.985945    30.985945    30.985945    29750.497 
  212000    306.33696   -2862.7549   -22990.038   -24914.008    1923.9697    1.1610133    30.985945    30.985945    30.985945    29750.497 
  213000    299.61696   -1954.2234   -23137.936     -25019.7    1881.7643    1.1610133    30.985945    30.985945    30.985945    29750.497 
  214000    304.68451   -2806.7531   -23034.897   -24948.489    1913.5914    1.1610133    30.985945    30.985945    30.985945    29750.497 
  215000    303.48578    -1528.958   -23034.922   -24940.985    1906.0627    1.1610133    30.985945    30.985945    30.985945    29750.497 
  216000    301.84534   -2938.0813   -23074.691   -24970.451    1895.7598    1.1610133    30.985945    30.985945    30.985945    29750.497 
  217000    295.52074     -2116.57   -23102.033   -24958.071    1856.0378    1.1610133    30.985945    30.985945    30.985945    29750.497 
  218000    294.32727   -2228.1162   -23064.548    -24913.09    1848.5421    1.1610133    30.985945    30.985945    30.985945    29750.497 
  219000    301.22964   -2415.0308    -23008.26   -24900.153    1891.8929    1.1610133    30.985945    30.985945    30.985945    29750.497 
  220000    297.83927   -2509.2368   -22974.886   -24845.485    1870.5994    1.1610133    30.985945    30.985945    30.985945    29750.497 
  221000    298.08105   -2406.6012   -22973.832    -24845.95    1872.1179    1.1610133    30.985945    30.985945    30.985945    29750.497 
  222000    306.99136   -1890.8233   -22962.966   -24891.046    1928.0798    1.1610133    30.985945    30.985945    30.985945    29750.497 
  223000     296.4727   -1069.7746   -22918.791   -24780.808    1862.0166    1.1610133    30.985945    30.985945    30.985945    29750.497 
  224000    299.68861    -1147.715   -22935.736    -24817.95    1882.2143    1.1610133    30.985945    30.985945    30.985945    29750.497 
  225000    309.91408   -2334.4262   -22887.785   -24834.221    1946.4361    1.1610133    30.985945    30.985945    30.985945    29750.497 
  226000    309.75585   -1976.8766   -22929.577    -24875.02    1945.4423    1.1610133    30.985945    30.985945    30.985945    29750.497 
  227000    301.32589   -2116.5844   -22903.036   -24795.534    1892.4974    1.1610133    30.985945    30.985945    30.985945    29750.497 
  228000    299.73347   -2481.0135   -23020.472   -24902.968    1882.4961    1.1610133    30.985945    30.985945    30.985945    29750.497 
  229000     301.2819   -1806.7877    -22921.85   -24814.071    1892.2211    1.1610133    30.985945    30.985945    30.985945    29750.497 
  230000    300.56461   -1592.2372   -23007.714    -24895.43    1887.7161    1.1610133    30.985945    30.985945    30.985945    29750.497 
  231000    299.41906   -1670.0512   -23005.324   -24885.845    1880.5214    1.1610133    30.985945    30.985945    30.985945    29750.497 
  232000     305.5138   -1124.1012   -22974.296   -24893.096    1918.7999    1.1610133    30.985945    30.985945    30.985945    29750.497 
  233000    307.52131    -1948.924   -22909.945   -24841.353    1931.4081    1.1610133    30.985945    30.985945    30.985945    29750.497 
  234000    300.86344   -1664.3175   -23040.423   -24930.016    1889.5929    1.1610133    30.985945    30.985945    30.985945    29750.497 
  235000    299.28479   -1678.0215   -22967.151   -24846.829    1879.6781    1.1610133    30.985945    30.985945    30.985945    29750.497 
  236000    301.34617   -1660.4387   -22955.311   -24847.936    1892.6247    1.1610133    30.985945    30.985945    30.985945    29750.497 
  237000    295.46571   -1604.0445   -22933.908     -24789.6    1855.6921    1.1610133    30.985945    30.985945    30.985945    29750.497 
  238000    302.35785    -1734.142    -22964.84   -24863.819    1898.9787    1.1610133    30.985945    30.985945    30.985945    29750.497 
  239000    298.50263   -2384.5254   -23095.792   -24970.558    1874.7657    1.1610133    30.985945    30.985945    30.985945    29750.497 
  240000    299.68524   -2793.4312   -23014.188   -24896.381    1882.1932    1.1610133    30.985945    30.985945    30.985945    29750.497 
  241000    298.68478   -3245.3059   -23048.705   -24924.614    1875.9097    1.1610133    30.985945    30.985945    30.985945    29750.497 
  242000    286.66572   -1763.5633   -23029.783   -24830.206    1800.4232    1.1610133    30.985945    30.985945    30.985945    29750.497 
  243000    309.25082   -1957.6464   -22947.692   -24889.962    1942.2704    1.1610133    30.985945    30.985945    30.985945    29750.497 
  244000    296.66875   -2137.2853   -22961.559   -24824.807    1863.2479    1.1610133    30.985945    30.985945    30.985945    29750.497 
  245000    293.58401    -2415.313   -23023.436    -24867.31     1843.874    1.1610133    30.985945    30.985945    30.985945    29750.497 
  246000    296.59257   -1996.4789   -23098.731     -24961.5    1862.7695    1.1610133    30.985945    30.985945    30.985945    29750.497 
  247000    298.90349   -1484.2785   -23008.336    -24885.62    1877.2833    1.1610133    30.985945    30.985945    30.985945    29750.497 
  248000    304.57608   -2296.7513   -23035.628   -24948.538    1912.9104    1.1610133    30.985945    30.985945    30.985945    29750.497 
  249000    296.80464    -1523.919   -23007.519    -24871.62    1864.1014    1.1610133    30.985945    30.985945    30.985945    29750.497 
  250000    291.66116   -1636.6152   -23049.984   -24881.782    1831.7974    1.1610133    30.985945    30.985945    30.985945    29750.497 
  251000    303.58273    -2361.992   -22955.487   -24862.159    1906.6716    1.1610133    30.985945    30.985945    30.985945    29750.497 
  252000    299.02716   -2257.3937   -22998.282   -24876.342    1878.0601    1.1610133    30.985945    30.985945    30.985945    29750.497 
  253000    290.22461   -1836.8975   -22942.636   -24765.411    1822.7751    1.1610133    30.985945    30.985945    30.985945    29750.497 
  254000    301.42943   -3053.6696   -22940.061   -24833.209    1893.1477    1.1610133    30.985945    30.985945    30.985945    29750.497 
  255000    314.24515   -2335.0247   -22911.815   -24885.452    1973.6377    1.1610133    30.985945    30.985945    30.985945    29750.497 
  256000    296.53999   -1925.7022   -22988.452   -24850.891    1862.4392    1.1610133    30.985945    30.985945    30.985945    29750.497 
  257000    302.19665   -2845.3876   -23011.614    -24909.58    1897.9662    1.1610133    30.985945    30.985945    30.985945    29750.497 
  258000    297.82707   -1648.1799   -22995.278   -24865.801    1870.5228    1.1610133    30.985945    30.985945    30.985945    29750.497 
  259000    300.13432   -2518.8199   -23054.892   -24939.906    1885.0136    1.1610133    30.985945    30.985945    30.985945    29750.497 
  260000    299.09902   -3352.4293   -23030.547   -24909.058    1878.5114    1.1610133    30.985945    30.985945    30.985945    29750.497 
  261000    299.96671   -2329.3955   -22985.394   -24869.355    1883.9609    1.1610133    30.985945    30.985945    30.985945    29750.497 
  262000    298.44803    -1948.584   -23019.155   -24893.578    1874.4228    1.1610133    30.985945    30.985945    30.985945    29750.497 
  263000    302.83039   -1393.5845   -23021.382   -24923.328    1901.9465    1.1610133    30.985945    30.985945    30.985945    29750.497 
  264000    297.68386   -1510.4934   -23044.719   -24914.343    1869.6234    1.1610133    30.985945    30.985945    30.985945    29750.497 
  265000    300.23933   -857.36855   -23090.796   -24976.469    1885.6732    1.1610133    30.985945    30.985945    30.985945    29750.497 
  266000    297.58314   -3402.8579   -23047.445   -24916.436    1868.9908    1.1610133    30.985945    30.985945    30.985945    29750.497 
  267000    302.92675   -2436.2424   -22963.102   -24865.654    1902.5517    1.1610133    30.985945    30.985945    30.985945    29750.497 
  268000    310.15603    -2356.586   -22925.449   -24873.404    1947.9556    1.1610133    30.985945    30.985945    30.985945    29750.497 
  269000    300.84157   -1656.3028   -22967.485   -24856.941    1889.4556    1.1610133    30.985945    30.985945    30.985945    29750.497 
  270000     304.1058   -2960.9362   -22958.831   -24868.788    1909.9568    1.1610133    30.985945    30.985945    30.985945    29750.497 
  271000    298.10318   -1542.4335    -23013.63   -24885.886    1872.2569    1.1610133    30.985945    30.985945    30.985945    29750.497 
  272000    305.96799   -3100.9878   -22962.995   -24884.647    1921.6524    1.1610133    30.985945    30.985945    30.985945    29750.497 
  273000    308.31132   -2701.3722   -23019.227   -24955.597    1936.3698    1.1610133    30.985945    30.985945    30.985945    29750.497 
  274000    304.14457   -2941.3037   -22989.023   -24899.224    1910.2003    1.1610133    30.985945    30.985945    30.985945    29750.497 
  275000    305.14583   -2204.1394   -22979.831    -24896.32    1916.4888    1.1610133    30.985945    30.985945    30.985945    29750.497 
  276000    303.28517   -1947.8157   -23039.971   -24944.774    1904.8028    1.1610133    30.985945    30.985945    30.985945    29750.497 
  277000    295.13716   -1793.7928    -23048.64   -24902.268    1853.6286    1.1610133    30.985945    30.985945    30.985945    29750.497 
  278000    300.66661   -1635.7037   -23073.237   -24961.594    1888.3567    1.1610133    30.985945    30.985945    30.985945    29750.497 
  279000    300.09752   -2043.1468   -23067.176   -24951.958    1884.7825    1.1610133    30.985945    30.985945    30.985945    29750.497 
  280000    304.34288   -2768.3119   -23039.124    -24950.57    1911.4458    1.1610133    30.985945    30.985945    30.985945    29750.497 
  281000    298.35177   -2496.0405   -23093.666   -24967.484    1873.8182    1.1610133    30.985945    30.985945    30.985945    29750.497 
  282000    306.20353   -2294.9212   -23079.496   -25002.628    1923.1317    1.1610133    30.985945    30.985945    30.985945    29750.497 
  283000     297.7739    -1735.992   -23093.292    -24963.48    1870.1889    1.1610133    30.985945    30.985945    30.985945    29750.497 
  284000    299.81795   -2483.2552     -23057.9   -24940.927    1883.0266    1.1610133    30.985945    30.985945    30.985945    29750.497 
  285000    299.63357   -2488.9739   -23041.781   -24923.649    1881.8687    1.1610133    30.985945    30.985945    30.985945    29750.497 
  286000    291.81279   -2459.7741   -23054.933   -24887.683    1832.7497    1.1610133    30.985945    30.985945    30.985945    29750.497 
  287000    300.97631   -1962.1381   -23040.018    -24930.32    1890.3018    1.1610133    30.985945    30.985945    30.985945    29750.497 
  288000    296.19819   -2301.7364    -22990.11   -24850.402    1860.2925    1.1610133    30.985945    30.985945    30.985945    29750.497 
  289000     297.9219   -2564.5202   -23022.017   -24893.135    1871.1184    1.1610133    30.985945    30.985945    30.985945    29750.497 
  290000    306.17737   -2228.0533   -22988.605   -24911.573    1922.9674    1.1610133    30.985945    30.985945    30.985945    29750.497 
  291000    300.68783   -2448.6141   -23057.996   -24946.486      1888.49    1.1610133    30.985945    30.985945    30.985945    29750.497 
  292000    297.60124   -1303.0884   -22979.193   -24848.297    1869.1044    1.1610133    30.985945    30.985945    30.985945    29750.497 
  293000    294.26645    -2744.515   -23030.584   -24878.744    1848.1601    1.1610133    30.985945    30.985945    30.985945    29750.497 
  294000    296.19754   -3149.4604   -23012.054   -24872.342    1860.2884    1.1610133    30.985945    30.985945    30.985945    29750.497 
  295000    306.16406   -1909.4048   -23030.878   -24953.762    1922.8838    1.1610133    30.985945    30.985945    30.985945    29750.497 
  296000    296.75139   -1398.1243   -23050.817   -24914.584    1863.7669    1.1610133    30.985945    30.985945    30.985945    29750.497 
  297000    298.05593   -2436.2627   -22989.492   -24861.452    1871.9602    1.1610133    30.985945    30.985945    30.985945    29750.497 
  298000    303.84579   -2307.1093   -23001.092   -24909.416    1908.3237    1.1610133    30.985945    30.985945    30.985945    29750.497 
  299000    294.24909   -2079.5779   -22990.567   -24838.618    1848.0511    1.1610133    30.985945    30.985945    30.985945    29750.497 
  300000    308.46852   -2188.1725   -22956.176   -24893.534    1937.3571    1.1610133    30.985945    30.985945    30.985945    29750.497 
  301000    299.34749   -2045.5519   -22938.218    -24818.29    1880.0719    1.1610133    30.985945    30.985945    30.985945    29750.497 
  302000    303.23404    -1810.325   -22951.237   -24855.719    1904.4817    1.1610133    30.985945    30.985945    30.985945    29750.497 
  303000    295.19813   -2058.8826   -23102.888     -24956.9    1854.0116    1.1610133    30.985945    30.985945    30.985945    29750.497 
  304000    303.27375   -2802.7862   -23085.054   -24989.785     1904.731    1.1610133    30.985945    30.985945    30.985945    29750.497 
  305000     296.2972   -2095.8533   -22959.756   -24820.671    1860.9143    1.1610133    30.985945    30.985945    30.985945    29750.497 
  306000    292.67676   -2024.7509    -23058.38   -24896.556    1838.1759    1.1610133    30.985945    30.985945    30.985945    29750.497 
  307000    300.14776   -2646.6542    -23053.99   -24939.088     1885.098    1.1610133    30.985945    30.985945    30.985945    29750.497 
  308000    291.66837   -2100.0095   -23058.076   -24889.918    1831.8427    1.1610133    30.985945    30.985945    30.985945    29750.497 
  309000    286.19075   -2297.8797   -23155.687   -24953.128    1797.4401    1.1610133    30.985945    30.985945    30.985945    29750.497 
  310000    299.13705   -2175.7665   -23104.763   -24983.514    1878.7502    1.1610133    30.985945    30.985945    30.985945    29750.497 
  311000     300.6069   -1011.1538   -22985.515   -24873.497    1887.9817    1.1610133    30.985945    30.985945    30.985945    29750.497 
  312000    296.78328   -1574.9416   -23029.106   -24893.074    1863.9672    1.1610133    30.985945    30.985945    30.985945    29750.497 
  313000    306.15303   -2011.7203   -22920.782   -24843.596    1922.8145    1.1610133    30.985945    30.985945    30.985945    29750.497 
  314000    299.52723   -1765.2982   -22946.645   -24827.846    1881.2008    1.1610133    30.985945    30.985945    30.985945    29750.497 
  315000    300.52572    -2021.466   -22907.281   -24794.753    1887.4718    1.1610133    30.985945    30.985945    30.985945    29750.497 
  316000    299.71611   -1626.8716   -23023.785   -24906.172     1882.387    1.1610133    30.985945    30.985945    30.985945    29750.497 
  317000    295.16518   -907.22537   -23066.263   -24920.068    1853.8046    1.1610133    30.985945    30.985945    30.985945    29750.497 
  318000    298.31506   -2030.1844   -23102.432    -24976.02    1873.5876    1.1610133    30.985945    30.985945    30.985945    29750.497 
  319000    304.02394   -1702.0033   -23014.833   -24924.276    1909.4427    1.1610133    30.985945    30.985945    30.985945    29750.497 
  320000    302.63407   -2263.9017   -23007.396    -24908.11    1900.7135    1.1610133    30.985945    30.985945    30.985945    29750.497 
  321000    302.41691   -2157.0803   -23047.757   -24947.106    1899.3496    1.1610133    30.985945    30.985945    30.985945    29750.497 
  322000    297.82003    -1719.115   -23045.529   -24916.007    1870.4786    1.1610133    30.985945    30.985945    30.985945    29750.497 
  323000    300.71484   -2115.9323   -23030.776   -24919.436    1888.6596    1.1610133    30.985945    30.985945    30.985945    29750.497 
  324000    294.96886   -2925.3211   -23107.882   -24960.454    1852.5716    1.1610133    30.985945    30.985945    30.985945    29750.497 
  325000    307.67218   -2792.2367   -22999.982   -24932.338    1932.3557    1.1610133    30.985945    30.985945    30.985945    29750.497 
  326000    300.17412   -2712.2979     -23029.7   -24914.963    1885.2636    1.1610133    30.985945    30.985945    30.985945    29750.497 
  327000    298.30345   -2166.2488   -23000.996    -24874.51    1873.5148    1.1610133    30.985945    30.985945    30.985945    29750.497 
  328000    304.21138   -2137.6496   -22978.416   -24889.036    1910.6199    1.1610133    30.985945    30.985945    30.985945    29750.497 
  329000    304.34862   -1922.8883   -22991.406   -24902.888    1911.4818    1.1610133    30.985945    30.985945    30.985945    29750.497 
  330000    294.24588   -2806.0171   -23020.664   -24868.694    1848.0309    1.1610133    30.985945    30.985945    30.985945    29750.497 
  331000    305.01797   -1995.4434   -22991.615     -24907.3    1915.6857    1.1610133    30.985945    30.985945    30.985945    29750.497 
  332000    298.78085   -1981.7054   -22970.386   -24846.899    1876.5131    1.1610133    30.985945    30.985945    30.985945    29750.497 
  333000    301.44009    -2516.059   -23014.395   -24907.609    1893.2146    1.1610133    30.985945    30.985945    30.985945    29750.497 
  334000    296.43237   -2628.2923   -23011.768   -24873.532    1861.7633    1.1610133    30.985945    30.985945    30.985945    29750.497 
  335000    300.92695   -2632.9401   -22989.216   -24879.208    1889.9918    1.1610133    30.985945    30.985945    30.985945    29750.497 
  336000    313.81644   -2728.8905   -22871.641   -24842.586    1970.9451    1.1610133    30.985945    30.985945    30.985945    29750.497 
  337000     299.1745   -1765.9414   -23009.236   -24888.221    1878.9854    1.1610133    30.985945    30.985945    30.985945    29750.497 
  338000    303.70177   -2389.4262   -22993.884   -24901.303    1907.4192    1.1610133    30.985945    30.985945    30.985945    29750.497 
  339000    300.04613    -2701.281   -23105.032   -24989.492    1884.4597    1.1610133    30.985945    30.985945    30.985945    29750.497 
  340000    292.21341   -1667.7299   -23124.176   -24959.442    1835.2658    1.1610133    30.985945    30.985945    30.985945    29750.497 
  341000    296.80655   -1940.8238   -23023.026   -24887.139    1864.1133    1.1610133    30.985945    30.985945    30.985945    29750.497 
  342000    294.44655   -1873.6938   -23074.816   -24924.107    1849.2912    1.1610133    30.985945    30.985945    30.985945    29750.497 
  343000     295.0494   -1627.4478   -23063.625   -24916.703    1853.0775    1.1610133    30.985945    30.985945    30.985945    29750.497 
  344000    298.99359   -1478.5432   -23064.087   -24941.936    1877.8492    1.1610133    30.985945    30.985945    30.985945    29750.497 
  345000    292.87417   -2259.8083   -22945.973   -24785.389    1839.4158    1.1610133    30.985945    30.985945    30.985945    29750.497 
  346000    299.14826    -2542.709     -23007.4    -24886.22    1878.8206    1.1610133    30.985945    30.985945    30.985945    29750.497 
  347000    298.66175   -2322.3842   -23099.752   -24975.517    1875.7651    1.1610133    30.985945    30.985945    30.985945    29750.497 
  348000    299.12968   -2015.7008   -23069.155   -24947.859     1878.704    1.1610133    30.985945    30.985945    30.985945    29750.497 
  349000    305.42857   -2778.5115   -23033.118   -24951.382    1918.2646    1.1610133    30.985945    30.985945    30.985945    29750.497 
  350000    303.98093   -2530.6035   -23031.754   -24940.927    1909.1725    1.1610133    30.985945    30.985945    30.985945    29750.497 
  351000     297.9269   -1678.3812   -23053.857   -24925.007    1871.1498    1.1610133    30.985945    30.985945    30.985945    29750.497 
  352000    303.91141   -2415.2997   -23017.483   -24926.219    1908.7359    1.1610133    30.985945    30.985945    30.985945    29750.497 
  353000    295.60548   -2176.8821    -23082.92    -24939.49    1856.5699    1.1610133    30.985945    30.985945    30.985945    29750.497 
  354000    307.76943   -1721.0738   -22992.736   -24925.702    1932.9664    1.1610133    30.985945    30.985945    30.985945    29750.497 
  355000    296.71832   -2002.3226   -23061.638   -24925.197    1863.5593    1.1610133    30.985945    30.985945    30.985945    29750.497 
  356000    305.64305   -2356.3309   -22985.548    -24905.16    1919.6116    1.1610133    30.985945    30.985945    30.985945    29750.497 
  357000    296.27218   -2705.6058   -22982.384   -24843.141    1860.7572    1.1610133    30.985945    30.985945    30.985945    29750.497 
  358000    292.90744   -1269.8392   -23017.594   -24857.219    1839.6248    1.1610133    30.985945    30.985945    30.985945    29750.497 
  359000     297.5395   -2679.7944     -23073.2   -24941.917    1868.7167    1.1610133    30.985945    30.985945    30.985945    29750.497 
  360000    298.16449    -1631.907   -23075.957   -24948.599     1872.642    1.1610133    30.985945    30.985945    30.985945    29750.497 
  361000    304.31306   -2083.2185   -23001.299   -24912.557    1911.2585    1.1610133    30.985945    30.985945    30.985945    29750.497 
  362000    294.51749   -1599.8453   -23036.714    -24886.45    1849.7368    1.1610133    30.985945    30.985945    30.985945    29750.497 
  363000    297.17647   -2827.3103   -23070.099   -24936.536    1866.4367    1.1610133    30.985945    30.985945    30.985945    29750.497 
  364000    296.21192   -1917.4355   -23068.598   -24928.977    1860.3787    1.1610133    30.985945    30.985945    30.985945    29750.497 
  365000    294.30806   -1060.9453   -23123.617   -24972.039    1848.4214    1.1610133    30.985945    30.985945    30.985945    29750.497 
  366000    292.92236   -2098.2915   -23061.607   -24901.325    1839.7184    1.1610133    30.985945    30.985945    30.985945    29750.497 
  367000    305.69473   -2049.3801   -23047.322   -24967.258    1919.9362    1.1610133    30.985945    30.985945    30.985945    29750.497 
  368000    302.55231   -3454.2624    -23075.22    -24975.42       1900.2    1.1610133    30.985945    30.985945    30.985945    29750.497 
  369000    304.63325   -2998.3503   -23001.396   -24914.665    1913.2695    1.1610133    30.985945    30.985945    30.985945    29750.497 
  370000    298.04212   -2610.8377   -22962.369   -24834.243    1871.8734    1.1610133    30.985945    30.985945    30.985945    29750.497 
  371000    290.62432   -2433.6337   -23024.791   -24850.076    1825.2854    1.1610133    30.985945    30.985945    30.985945    29750.497 
  372000     299.6674   -1377.0391   -23102.228   -24984.309    1882.0811    1.1610133    30.985945    30.985945    30.985945    29750.497 
  373000    302.33084   -2173.3594   -23081.801    -24980.61    1898.8091    1.1610133    30.985945    30.985945    30.985945    29750.497 
  374000    296.28404   -2899.7699   -23031.141   -24891.973    1860.8317    1.1610133    30.985945    30.985945    30.985945    29750.497 
  375000    292.41425   -2814.8955   -23071.533    -24908.06    1836.5272    1.1610133    30.985945    30.985945    30.985945    29750.497 
  376000    304.61552   -626.96773     -22990.8   -24903.958    1913.1581    1.1610133    30.985945    30.985945    30.985945    29750.497 
  377000    299.03298   -1869.6687   -23055.679   -24933.776    1878.0966    1.1610133    30.985945    30.985945    30.985945    29750.497 
  378000    305.56663   -1519.0244   -23057.351   -24976.482    1919.1316    1.1610133    30.985945    30.985945    30.985945    29750.497 
  379000    301.31151   -2476.9635   -23106.361   -24998.768    1892.4071    1.1610133    30.985945    30.985945    30.985945    29750.497 
  380000    290.89504   -2397.1221   -23189.277   -25016.263    1826.9857    1.1610133    30.985945    30.985945    30.985945    29750.497 
  381000    301.78943   -2225.4019   -23069.713   -24965.122    1895.4087    1.1610133    30.985945    30.985945    30.985945    29750.497 
  382000      295.104   -2204.9942   -23053.426   -24906.847    1853.4204    1.1610133    30.985945    30.985945    30.985945    29750.497 
  383000    297.45031   -3228.9228   -23144.684    -25012.84    1868.1565    1.1610133    30.985945    30.985945    30.985945    29750.497 
  384000    302.72752   -2229.1482   -23005.493   -24906.794    1901.3004    1.1610133    30.985945    30.985945    30.985945    29750.497 
  385000    291.38523   -1364.6388   -23029.259   -24859.324    1830.0644    1.1610133    30.985945    30.985945    30.985945    29750.497 
  386000    302.44433   -3100.7751   -23068.911   -24968.433    1899.5218    1.1610133    30.985945    30.985945    30.985945    29750.497 
  387000    294.07906   -2478.2727    -23117.82   -24964.803    1846.9832    1.1610133    30.985945    30.985945    30.985945    29750.497 
  388000    296.37998    -1644.997    -23109.98   -24971.415    1861.4342    1.1610133    30.985945    30.985945    30.985945    29750.497 
  389000    303.72011   -2255.3795   -23033.248   -24940.782    1907.5344    1.1610133    30.985945    30.985945    30.985945    29750.497 
  390000    295.61228   -3207.5223   -23082.114   -24938.727    1856.6127    1.1610133    30.985945    30.985945    30.985945    29750.497 
  391000    296.33631    -2684.415   -23148.561   -25009.721      1861.16    1.1610133    30.985945    30.985945    30.985945    29750.497 
  392000      291.199   -1696.0625   -23092.973   -24921.868    1828.8948    1.1610133    30.985945    30.985945    30.985945    29750.497 
  393000    301.48341   -2198.1555   -23024.592   -24918.079    1893.4867    1.1610133    30.985945    30.985945    30.985945    29750.497 
  394000    299.03867   -2860.8371   -23036.645   -24914.777    1878.1323    1.1610133    30.985945    30.985945    30.985945    29750.497 
  395000    304.96074   -2086.9957   -23023.955   -24939.282    1915.3263    1.1610133    30.985945    30.985945    30.985945    29750.497 
  396000    301.67383   -2524.7156   -23005.111   -24899.794    1894.6826    1.1610133    30.985945    30.985945    30.985945    29750.497 
  397000    300.61928   -2506.8697   -23018.742   -24906.802    1888.0594    1.1610133    30.985945    30.985945    30.985945    29750.497 
  398000     301.7757   -2582.0537   -23053.145   -24948.467    1895.3224    1.1610133    30.985945    30.985945    30.985945    29750.497 
  399000    296.39044   -2760.7487     -23062.4   -24923.899    1861.4999    1.1610133    30.985945    30.985945    30.985945    29750.497 
  400000    294.32044   -1955.8284   -23084.344   -24932.843    1848.4992    1.1610133    30.985945    30.985945    30.985945    29750.497 
  401000    295.69959   -2140.3404   -23037.842   -24895.003     1857.161    1.1610133    30.985945    30.985945    30.985945    29750.497 
  402000     290.9821   -2438.8377   -23049.286   -24876.819    1827.5325    1.1610133    30.985945    30.985945    30.985945    29750.497 
  403000    298.20677   -2789.8889   -22988.146   -24861.054    1872.9075    1.1610133    30.985945    30.985945    30.985945    29750.497 
  404000    298.92668   -2355.3188   -23048.291    -24925.72     1877.429    1.1610133    30.985945    30.985945    30.985945    29750.497 
  405000    299.41161   -2283.0571   -23031.159   -24911.633    1880.4746    1.1610133    30.985945    30.985945    30.985945    29750.497 
  406000    298.90965   -2988.5087   -23065.437   -24942.759     1877.322    1.1610133    30.985945    30.985945    30.985945    29750.497 
  407000    300.92577   -2577.2139   -23065.428   -24955.412    1889.9844    1.1610133    30.985945    30.985945    30.985945    29750.497 
  408000    297.22716   -2752.3254   -23065.111   -24931.866     1866.755    1.1610133    30.985945    30.985945    30.985945    29750.497 
  409000    294.02092   -2774.8448   -23088.091   -24934.709     1846.618    1.1610133    30.985945    30.985945    30.985945    29750.497 
  410000    292.47892   -1942.2064   -23085.174   -24922.107    1836.9334    1.1610133    30.985945    30.985945    30.985945    29750.497 
  411000    298.16448   -1515.1019   -23080.586   -24953.228    1872.6419    1.1610133    30.985945    30.985945    30.985945    29750.497 
  412000    305.05011   -1812.2512   -22942.103   -24857.991    1915.8876    1.1610133    30.985945    30.985945    30.985945    29750.497 
  413000    299.60566   -1695.4608   -22972.504   -24854.197    1881.6933    1.1610133    30.985945    30.985945    30.985945    29750.497 
  414000    302.26068   -1595.7115   -22902.658   -24801.026    1898.3684    1.1610133    30.985945    30.985945    30.985945    29750.497 
  415000     307.6436    -2660.169   -22941.937   -24874.113    1932.1761    1.1610133    30.985945    30.985945    30.985945    29750.497 
  416000    296.40849    -2234.689   -23132.315   -24993.928    1861.6133    1.1610133    30.985945    30.985945    30.985945    29750.497 
  417000    297.01117   -1990.7854   -22989.008   -24854.407    1865.3985    1.1610133    30.985945    30.985945    30.985945    29750.497 
  418000    298.70666   -2359.3728    -22993.55   -24869.598    1876.0472    1.1610133    30.985945    30.985945    30.985945    29750.497 
  419000    299.14485   -2817.7833   -23082.408   -24961.207    1878.7992    1.1610133    30.985945    30.985945    30.985945    29750.497 
  420000    296.83145   -1897.5971    -23072.49   -24936.759    1864.2697    1.1610133    30.985945    30.985945    30.985945    29750.497 
  421000    294.53238    -2141.803   -23043.431   -24893.262    1849.8303    1.1610133    30.985945    30.985945    30.985945    29750.497 
  422000     294.7958   -2316.2245   -23017.713   -24869.198    1851.4847    1.1610133    30.985945    30.985945    30.985945    29750.497 
  423000    303.68006   -2295.3451   -23022.103   -24929.386    1907.2829    1.1610133    30.985945    30.985945    30.985945    29750.497 
  424000    306.15984   -3024.1103   -23015.675   -24938.532    1922.8573    1.1610133    30.985945    30.985945    30.985945    29750.497 
  425000    305.42542   -2928.9523   -23048.725    -24966.97    1918.2447    1.1610133    30.985945    30.985945    30.985945    29750.497 
  426000    302.49087   -2406.6464   -23050.529   -24950.343    1899.8141    1.1610133    30.985945    30.985945    30.985945    29750.497 
  427000    304.32829    -2558.299   -23015.226    -24926.58    1911.3542    1.1610133    30.985945    30.985945    30.985945    29750.497 
  428000    293.73465   -2085.9099   -23037.736   -24882.556    1844.8201    1.1610133    30.985945    30.985945    30.985945    29750.497 
  429000    292.16718   -1576.8108   -23089.911   -24924.887    1834.9755    1.1610133    30.985945    30.985945    30.985945    29750.497 
  430000    302.63771   -2741.7046   -23027.547   -24928.284    1900.7364    1.1610133    30.985945    30.985945    30.985945    29750.497 
  431000    313.04112   -1255.1325    -22887.34   -24853.416    1966.0757    1.1610133    30.985945    30.985945    30.985945    29750.497 
  432000    303.54297     -1400.63   -22924.451   -24830.873    1906.4219    1.1610133    30.985945    30.985945    30.985945    29750.497 
  433000    302.70371   -2343.5513   -22997.413   -24898.564    1901.1509    1.1610133    30.985945    30.985945    30.985945    29750.497 
  434000    299.00457   -1306.9624   -22943.777   -24821.695    1877.9182    1.1610133    30.985945    30.985945    30.985945    29750.497 
  435000    298.04039   -2899.5184   -22958.533   -24830.395    1871.8625    1.1610133    30.985945    30.985945    30.985945    29750.497 
  436000    295.98645   -3006.7514   -22962.916   -24821.879    1858.9627    1.1610133    30.985945    30.985945    30.985945    29750.497 
  437000    300.76863   -2678.8768   -23006.434   -24895.431    1888.9975    1.1610133    30.985945    30.985945    30.985945    29750.497 
  438000    306.25247   -2569.6739   -22917.336   -24840.776    1923.4391    1.1610133    30.985945    30.985945    30.985945    29750.497 
  439000    309.44719   -3100.3069   -22875.049   -24818.553    1943.5037    1.1610133    30.985945    30.985945    30.985945    29750.497 
  440000    308.81191   -2054.2152   -22900.998   -24840.512    1939.5138    1.1610133    30.985945    30.985945    30.985945    29750.497 
  441000    306.16104   -2715.8876   -22944.279   -24867.144    1922.8649    1.1610133    30.985945    30.985945    30.985945    29750.497 
  442000    299.29898   -2099.6612   -22965.905   -24845.672    1879.7672    1.1610133    30.985945    30.985945    30.985945    29750.497 
  443000    295.98815   -2312.6021    -22979.77   -24838.744    1858.9733    1.1610133    30.985945    30.985945    30.985945    29750.497 
  444000    304.34048    -2396.816   -23065.204   -24976.635    1911.4307    1.1610133    30.985945    30.985945    30.985945    29750.497 
  445000    307.75971   -2999.4058   -22966.015   -24898.921    1932.9054    1.1610133    30.985945    30.985945    30.985945    29750.497 
  446000    303.53107   -2807.1291   -22986.187   -24892.534    1906.3471    1.1610133    30.985945    30.985945    30.985945    29750.497 
  447000    309.40874    -2210.255   -22938.223   -24881.485    1943.2623    1.1610133    30.985945    30.985945    30.985945    29750.497 
  448000    310.10264   -1909.4104   -22955.589   -24903.209    1947.6204    1.1610133    30.985945    30.985945    30.985945    29750.497 
  449000    302.24628   -2672.5101   -23032.422     -24930.7    1898.2779    1.1610133    30.985945    30.985945    30.985945    29750.497 
  450000    294.84266    -2215.652   -23018.434   -24870.213     1851.779    1.1610133    30.985945    30.985945    30.985945    29750.497 
  451000    296.01667   -2392.6534   -23083.624   -24942.777    1859.1525    1.1610133    30.985945    30.985945    30.985945    29750.497 
  452000    293.79354   -3069.0221    -22956.52    -24801.71    1845.1899    1.1610133    30.985945    30.985945    30.985945    29750.497 
  453000    295.40566   -2314.4914   -23022.713   -24878.028     1855.315    1.1610133    30.985945    30.985945    30.985945    29750.497 
  454000    293.63372   -1959.4543   -23090.228   -24934.414    1844.1862    1.1610133    30.985945    30.985945    30.985945    29750.497 
  455000    295.00414    -3139.301   -23059.878   -24912.672    1852.7932    1.1610133    30.985945    30.985945    30.985945    29750.497 
  456000     293.7452   -2107.5443   -23087.656   -24932.543    1844.8863    1.1610133    30.985945    30.985945    30.985945    29750.497 
  457000    298.87597    -2417.066   -23034.251   -24911.362    1877.1105    1.1610133    30.985945    30.985945    30.985945    29750.497 
  458000    307.75774   -2859.3755   -23008.393   -24941.286     1932.893    1.1610133    30.985945    30.985945    30.985945    29750.497 
  459000    302.43373   -2137.4823   -23066.976   -24966.432    1899.4552    1.1610133    30.985945    30.985945    30.985945    29750.497 
  460000    298.77104   -1468.6542    -23124.04   -25000.491    1876.4515    1.1610133    30.985945    30.985945    30.985945    29750.497 
  461000    297.86065   -1397.2249   -23067.422   -24938.156    1870.7337    1.1610133    30.985945    30.985945    30.985945    29750.497 
  462000    298.11636     -2406.28   -22985.851   -24858.191    1872.3397    1.1610133    30.985945    30.985945    30.985945    29750.497 
  463000    301.90218   -1828.6295   -22990.005   -24886.122    1896.1168    1.1610133    30.985945    30.985945    30.985945    29750.497 
  464000    295.93389   -1553.5185   -23069.965   -24928.597    1858.6326    1.1610133    30.985945    30.985945    30.985945    29750.497 
  465000    301.70982   -2332.7397   -23047.822   -24942.731    1894.9087    1.1610133    30.985945    30.985945    30.985945    29750.497 
  466000    294.97198   -2608.8701   -23074.437   -24927.028    1852.5912    1.1610133    30.985945    30.985945    30.985945    29750.497 
  467000     300.0155   -2179.3007   -22961.463    -24845.73    1884.2673    1.1610133    30.985945    30.985945    30.985945    29750.497 
  468000    298.71137   -2160.3842   -23057.766   -24933.843    1876.0767    1.1610133    30.985945    30.985945    30.985945    29750.497 
  469000    296.20287   -2623.2428   -23064.804   -24925.126    1860.3219    1.1610133    30.985945    30.985945    30.985945    29750.497 
  470000    300.19901   -3222.3852   -23032.485   -24917.904    1885.4199    1.1610133    30.985945    30.985945    30.985945    29750.497 
  471000    291.40578   -2419.0454   -23165.181   -24995.375    1830.1935    1.1610133    30.985945    30.985945    30.985945    29750.497 
  472000    291.88306   -3300.0357   -23209.946   -25043.137    1833.1911    1.1610133    30.985945    30.985945    30.985945    29750.497 
  473000    296.26997   -2444.5918   -23041.427    -24902.17    1860.7433    1.1610133    30.985945    30.985945    30.985945    29750.497 
  474000    298.67662   -1765.1509   -23132.934   -25008.793    1875.8585    1.1610133    30.985945    30.985945    30.985945    29750.497 
  475000    295.54728   -2343.2728    -23101.08   -24957.285    1856.2045    1.1610133    30.985945    30.985945    30.985945    29750.497 
  476000    295.14852   -2480.7548   -23061.372   -24915.072       1853.7    1.1610133    30.985945    30.985945    30.985945    29750.497 
  477000    299.37048   -2607.5914   -23131.504    -25011.72    1880.2163    1.1610133    30.985945    30.985945    30.985945    29750.497 
  478000     311.0146   -2679.6403   -22969.841   -24923.189     1953.348    1.1610133    30.985945    30.985945    30.985945    29750.497 
  479000      300.243   -2598.5234   -23031.967   -24917.663    1885.6962    1.1610133    30.985945    30.985945    30.985945    29750.497 
  480000    297.86081      -3059.3   -23145.608   -25016.343    1870.7347    1.1610133    30.985945    30.985945    30.985945    29750.497 
  481000    298.81598   -2185.8354   -23093.036    -24969.77    1876.7337    1.1610133    30.985945    30.985945    30.985945    29750.497 
  482000    301.05069   -1957.9261   -23049.773   -24940.542    1890.7689    1.1610133    30.985945    30.985945    30.985945    29750.497 
  483000    298.63106   -3102.8268   -23129.213   -25004.785    1875.5723    1.1610133    30.985945    30.985945    30.985945    29750.497 
  484000    287.92745   -1562.6687   -23037.434   -24845.782    1808.3476    1.1610133    30.985945    30.985945    30.985945    29750.497 
  485000    297.72524   -2883.7537   -22991.017   -24860.901    1869.8832    1.1610133    30.985945    30.985945    30.985945    29750.497 
  486000    301.29932   -2425.7097   -22990.454   -24882.785    1892.3305    1.1610133    30.985945    30.985945    30.985945    29750.497 
  487000    294.83258   -2760.4933   -23014.835    -24866.55    1851.7157    1.1610133    30.985945    30.985945    30.985945    29750.497 
  488000    298.68288   -2443.8427   -23098.739   -24974.637    1875.8978    1.1610133    30.985945    30.985945    30.985945    29750.497 
  489000    295.72581   -2719.1513   -23057.933   -24915.259    1857.3257    1.1610133    30.985945    30.985945    30.985945    29750.497 
  490000    297.36537    -2947.508   -23040.099   -24907.722    1867.6231    1.1610133    30.985945    30.985945    30.985945    29750.497 
  491000    293.80373   -2466.5384   -23059.508   -24904.762     1845.254    1.1610133    30.985945    30.985945    30.985945    29750.497 
  492000    301.20981   -2289.1242    -23022.89   -24914.659    1891.7683    1.1610133    30.985945    30.985945    30.985945    29750.497 
  493000     295.6548   -3197.7751   -23109.814   -24966.693    1856.8797    1.1610133    30.985945    30.985945    30.985945    29750.497 
  494000    304.34537   -2687.7276   -22974.933   -24886.394    1911.4614    1.1610133    30.985945    30.985945    30.985945    29750.497 
  495000      306.673   -2291.0472   -23049.888   -24975.969    1926.0803    1.1610133    30.985945    30.985945    30.985945    29750.497 
  496000    310.20234   -1784.3309   -22990.237   -24938.484    1948.2465    1.1610133    30.985945    30.985945    30.985945    29750.497 
  497000     310.8424    -1606.554   -22967.435   -24919.701    1952.2664    1.1610133    30.985945    30.985945    30.985945    29750.497 
  498000    294.80126   -3083.9274   -23046.373   -24897.892     1851.519    1.1610133    30.985945    30.985945    30.985945    29750.497 
  499000    296.79606   -1578.2326   -22991.114   -24855.162    1864.0475    1.1610133    30.985945    30.985945    30.985945    29750.497 
  500000    299.21481   -1920.4422   -22982.076   -24861.315    1879.2386    1.1610133    30.985945    30.985945    30.985945    29750.497 
  501000    303.64963   -1686.8298    -23025.59   -24932.682    1907.0918    1.1610133    30.985945    30.985945    30.985945    29750.497 
  502000    301.27457   -1517.2773   -22965.961   -24858.136    1892.1751    1.1610133    30.985945    30.985945    30.985945    29750.497 
  503000    304.58583    -2289.966   -22999.313   -24912.285    1912.9717    1.1610133    30.985945    30.985945    30.985945    29750.497 
  504000    299.06375   -2350.4948   -22915.103   -24793.393    1878.2898    1.1610133    30.985945    30.985945    30.985945    29750.497 
  505000    298.53091   -2187.9426   -22970.997    -24845.94    1874.9433    1.1610133    30.985945    30.985945    30.985945    29750.497 
  506000    300.80619   -3626.9485   -23064.573   -24953.806    1889.2333    1.1610133    30.985945    30.985945    30.985945    29750.497 
  507000    305.99142   -2692.3014   -22945.683   -24867.483    1921.7996    1.1610133    30.985945    30.985945    30.985945    29750.497 
  508000     300.1106   -1537.9262   -22900.815    -24785.68    1884.8647    1.1610133    30.985945    30.985945    30.985945    29750.497 
  509000    294.43016     -1253.63   -22972.529   -24821.717    1849.1883    1.1610133    30.985945    30.985945    30.985945    29750.497 
  510000    302.02959   -2781.6757   -22945.031   -24841.948     1896.917    1.1610133    30.985945    30.985945    30.985945    29750.497 
  511000    307.90532   -1870.5443    -22977.23    -24911.05    1933.8199    1.1610133    30.985945    30.985945    30.985945    29750.497 
  512000    308.24688   -2574.5928   -22958.004    -24893.97    1935.9651    1.1610133    30.985945    30.985945    30.985945    29750.497 
  513000    294.61259   -2866.6284   -22961.774   -24812.108     1850.334    1.1610133    30.985945    30.985945    30.985945    29750.497 
  514000    299.17259   -2016.3546   -23025.221   -24904.194    1878.9735    1.1610133    30.985945    30.985945    30.985945    29750.497 
  515000    292.56455   -2652.1807   -23030.413   -24867.885    1837.4712    1.1610133    30.985945    30.985945    30.985945    29750.497 
  516000    299.72132   -2078.0853   -22997.737   -24880.157    1882.4197    1.1610133    30.985945    30.985945    30.985945    29750.497 
  517000     299.7416   -2402.7545   -23029.619   -24912.166    1882.5472    1.1610133    30.985945    30.985945    30.985945    29750.497 
  518000     301.1538   -2404.1827   -22956.088   -24847.504    1891.4165    1.1610133    30.985945    30.985945    30.985945    29750.497 
  519000    301.93107   -1825.2597    -23031.24   -24927.538    1896.2983    1.1610133    30.985945    30.985945    30.985945    29750.497 
  520000    294.71796   -2779.4073   -23043.996   -24894.992    1850.9958    1.1610133    30.985945    30.985945    30.985945    29750.497 
  521000    299.22634   -1491.5439   -23049.227   -24928.538     1879.311    1.1610133    30.985945    30.985945    30.985945    29750.497 
  522000    294.62393   -2714.3845   -23094.074   -24944.479    1850.4052    1.1610133    30.985945    30.985945    30.985945    29750.497 
  523000    294.77576   -2324.1668    -23097.13   -24948.489    1851.3588    1.1610133    30.985945    30.985945    30.985945    29750.497 
  524000    306.30337   -1916.5397   -23086.327   -25010.086    1923.7588    1.1610133    30.985945    30.985945    30.985945    29750.497 
  525000    301.07145   -3201.8272   -23074.935   -24965.835    1890.8993    1.1610133    30.985945    30.985945    30.985945    29750.497 
  526000    302.09614   -2609.8566   -23010.145    -24907.48     1897.335    1.1610133    30.985945    30.985945    30.985945    29750.497 
  527000    316.95644   -2034.2576   -22870.203   -24860.869    1990.6661    1.1610133    30.985945    30.985945    30.985945    29750.497 
  528000    295.07398   -1925.5432   -23088.895   -24942.127    1853.2318    1.1610133    30.985945    30.985945    30.985945    29750.497 
  529000     306.4896   -1016.6209   -22999.651   -24924.579    1924.9284    1.1610133    30.985945    30.985945    30.985945    29750.497 
  530000    297.65205   -1796.4326   -22975.832   -24845.256    1869.4236    1.1610133    30.985945    30.985945    30.985945    29750.497 
  531000     298.5309   -1631.8601   -23081.754   -24956.698    1874.9432    1.1610133    30.985945    30.985945    30.985945    29750.497 
  532000    295.41721   -3212.5838   -23049.187   -24904.574    1855.3875    1.1610133    30.985945    30.985945    30.985945    29750.497 
  533000    304.53563   -2174.9377   -23032.711   -24945.367    1912.6564    1.1610133    30.985945    30.985945    30.985945    29750.497 
  534000    304.35733   -2341.6273   -23027.182   -24938.719    1911.5365    1.1610133    30.985945    30.985945    30.985945    29750.497 
  535000       299.66   -2402.7382   -23046.873   -24928.908    1882.0347    1.1610133    30.985945    30.985945    30.985945    29750.497 
  536000    290.73577   -1521.5236   -23048.223   -24874.208    1825.9854    1.1610133    30.985945    30.985945    30.985945    29750.497 
  537000    302.03013    -1793.895   -22987.632   -24884.552    1896.9204    1.1610133    30.985945    30.985945    30.985945    29750.497 
  538000    309.71007   -2686.4611   -22996.487   -24941.642    1945.1548    1.1610133    30.985945    30.985945    30.985945    29750.497 
  539000    302.81995   -2026.0609   -23030.622   -24932.503    1901.8809    1.1610133    30.985945    30.985945    30.985945    29750.497 
  540000    296.54416   -2086.0046   -23066.497   -24928.962    1862.4654    1.1610133    30.985945    30.985945    30.985945    29750.497 
  541000    295.91749   -1406.4602   -23019.784   -24878.314    1858.5295    1.1610133    30.985945    30.985945    30.985945    29750.497 
  542000    303.60665   -1979.7728   -22997.983   -24904.805    1906.8218    1.1610133    30.985945    30.985945    30.985945    29750.497 
  543000    296.62556   -2447.6704   -23033.113    -24896.09    1862.9766    1.1610133    30.985945    30.985945    30.985945    29750.497 
  544000    299.80218   -2697.7256   -23010.416   -24893.343    1882.9276    1.1610133    30.985945    30.985945    30.985945    29750.497 
  545000    299.07123   -1176.7067   -23054.135   -24932.472    1878.3369    1.1610133    30.985945    30.985945    30.985945    29750.497 
  546000    296.60653   -1663.9793   -23059.888   -24922.745    1862.8571    1.1610133    30.985945    30.985945    30.985945    29750.497 
  547000    303.89997   -2166.4873    -23025.18   -24933.844     1908.664    1.1610133    30.985945    30.985945    30.985945    29750.497 
  548000    307.82562   -1225.6088   -22998.301    -24931.62    1933.3194    1.1610133    30.985945    30.985945    30.985945    29750.497 
  549000    301.38165   -2001.2349   -23043.279   -24936.127    1892.8476    1.1610133    30.985945    30.985945    30.985945    29750.497 
  550000     303.6835   -2664.2631   -23051.383   -24958.688    1907.3045    1.1610133    30.985945    30.985945    30.985945    29750.497 
  551000    302.79315   -3244.0056   -23028.291   -24930.004    1901.7126    1.1610133    30.985945    30.985945    30.985945    29750.497 
  552000    299.51708   -2428.5743   -23076.501   -24957.638     1881.137    1.1610133    30.985945    30.985945    30.985945    29750.497 
  553000    297.39567   -2284.5951   -23138.771   -25006.585    1867.8134    1.1610133    30.985945    30.985945    30.985945    29750.497 
  554000     290.2354   -2064.3349   -23142.051   -24964.894    1822.8428    1.1610133    30.985945    30.985945    30.985945    29750.497 
  555000    299.01074   -3119.7153   -23069.063    -24947.02    1877.9569    1.1610133    30.985945    30.985945    30.985945    29750.497 
  556000     294.8698    -1913.156   -23072.834   -24924.783    1851.9495    1.1610133    30.985945    30.985945    30.985945    29750.497 
  557000    291.18128   -2038.2851   -23061.438   -24890.221    1828.7835    1.1610133    30.985945    30.985945    30.985945    29750.497 
  558000    304.60949   -1551.8144   -23029.453   -24942.573    1913.1203    1.1610133    30.985945    30.985945    30.985945    29750.497 
  559000    301.52695   -1767.7374   -22984.264   -24878.024    1893.7601    1.1610133    30.985945    30.985945    30.985945    29750.497 
  560000    296.33983    -2220.237   -23087.418     -24948.6    1861.1821    1.1610133    30.985945    30.985945    30.985945    29750.497 
  561000    308.32771   -1477.3301   -22985.931   -24922.404    1936.4728    1.1610133    30.985945    30.985945    30.985945    29750.497 
  562000    293.09888   -3019.1576   -23067.944   -24908.771    1840.8271    1.1610133    30.985945    30.985945    30.985945    29750.497 
  563000    294.87595   -1453.3208   -23126.081   -24978.069    1851.9881    1.1610133    30.985945    30.985945    30.985945    29750.497 
  564000    300.39531   -2539.5072   -23082.475   -24969.128    1886.6528    1.1610133    30.985945    30.985945    30.985945    29750.497 
  565000    302.13297   -1920.1579   -23036.806   -24934.372    1897.5663    1.1610133    30.985945    30.985945    30.985945    29750.497 
  566000    297.33158   -2506.9723   -23083.228   -24950.639    1867.4108    1.1610133    30.985945    30.985945    30.985945    29750.497 
  567000    294.90037    -1787.485   -23141.095   -24993.237    1852.1415    1.1610133    30.985945    30.985945    30.985945    29750.497 
  568000    301.87082   -2298.4721   -23074.056   -24969.976    1895.9198    1.1610133    30.985945    30.985945    30.985945    29750.497 
  569000    298.84668   -2919.0934   -23081.205   -24958.131    1876.9265    1.1610133    30.985945    30.985945    30.985945    29750.497 
  570000    295.40323   -2858.0122   -23063.457   -24918.756    1855.2997    1.1610133    30.985945    30.985945    30.985945    29750.497 
  571000     298.9421   -1907.0636   -23030.441   -24907.966    1877.5258    1.1610133    30.985945    30.985945    30.985945    29750.497 
  572000    303.02595   -2017.8076   -23026.975   -24930.149    1903.1747    1.1610133    30.985945    30.985945    30.985945    29750.497 
  573000    301.13378   -2254.0763   -23029.658   -24920.949    1891.2908    1.1610133    30.985945    30.985945    30.985945    29750.497 
  574000     299.7142   -2742.0862   -23030.801   -24913.176    1882.3751    1.1610133    30.985945    30.985945    30.985945    29750.497 
  575000    298.48459   -2482.2209   -22991.963   -24866.616    1874.6524    1.1610133    30.985945    30.985945    30.985945    29750.497 
  576000    300.09949   -2155.7767   -22993.192   -24877.987    1884.7949    1.1610133    30.985945    30.985945    30.985945    29750.497 
  577000    300.32727   -2247.5919   -23004.128   -24890.353    1886.2255    1.1610133    30.985945    30.985945    30.985945    29750.497 
  578000    299.98458   -2120.2032   -23068.141   -24952.214    1884.0732    1.1610133    30.985945    30.985945    30.985945    29750.497 
  579000    307.92102   -3501.2341   -22970.715   -24904.633    1933.9185    1.1610133    30.985945    30.985945    30.985945    29750.497 
  580000    298.89662   -2006.6396    -23015.73    -24892.97    1877.2402    1.1610133    30.985945    30.985945    30.985945    29750.497 
  581000    302.17711   -1922.5601   -22956.771   -24854.614    1897.8435    1.1610133    30.985945    30.985945    30.985945    29750.497 
  582000    296.08041   -2826.3793   -22981.805   -24841.358    1859.5528    1.1610133    30.985945    30.985945    30.985945    29750.497 
  583000    304.56317   -2384.2618   -23009.791    -24922.62    1912.8293    1.1610133    30.985945    30.985945    30.985945    29750.497 
  584000    295.13372    -1676.822   -23024.122   -24877.729     1853.607    1.1610133    30.985945    30.985945    30.985945    29750.497 
  585000    289.86608   -1561.1841   -22997.723   -24818.246    1820.5233    1.1610133    30.985945    30.985945    30.985945    29750.497 
  586000    296.55154   -1227.7308    -22980.43   -24842.942    1862.5118    1.1610133    30.985945    30.985945    30.985945    29750.497 
  587000    300.45188   -1435.9987   -23052.844   -24939.852    1887.0081    1.1610133    30.985945    30.985945    30.985945    29750.497 
  588000    297.27502   -1445.6692   -23024.327   -24891.383    1867.0556    1.1610133    30.985945    30.985945    30.985945    29750.497 
  589000    299.75257   -2380.0153   -22997.979   -24880.595    1882.6161    1.1610133    30.985945    30.985945    30.985945    29750.497 
  590000     297.7945   -2082.0405   -23062.996   -24933.314    1870.3182    1.1610133    30.985945    30.985945    30.985945    29750.497 
  591000    298.83066   -3159.5756   -23088.958   -24965.784    1876.8259    1.1610133    30.985945    30.985945    30.985945    29750.497 
  592000    296.46134   -2865.5141   -23038.838   -24900.784    1861.9452    1.1610133    30.985945    30.985945    30.985945    29750.497 
  593000    300.56843   -1825.6847   -23013.596   -24901.336    1887.7401    1.1610133    30.985945    30.985945    30.985945    29750.497 
  594000    294.20601   -1781.6293    -23014.92   -24862.701    1847.7805    1.1610133    30.985945    30.985945    30.985945    29750.497 
  595000    292.08938   -2578.9543   -23096.894   -24931.381    1834.4869    1.1610133    30.985945    30.985945    30.985945    29750.497 
  596000    297.16207   -2848.5501   -22984.042   -24850.388    1866.3462    1.1610133    30.985945    30.985945    30.985945    29750.497 
  597000    297.93487   -2355.5273   -23031.917   -24903.117    1871.1999    1.1610133    30.985945    30.985945    30.985945    29750.497 
  598000    303.97158   -2304.2635   -22997.762   -24906.876    1909.1138    1.1610133    30.985945    30.985945    30.985945    29750.497 
  599000    297.78909   -1604.6855   -23096.805   -24967.089    1870.2843    1.1610133    30.985945    30.985945    30.985945    29750.497 
  600000     300.3948   -2116.6795   -23017.291    -24903.94    1886.6496    1.1610133    30.985945    30.985945    30.985945    29750.497 
  601000    297.43686   -1672.4775   -23102.104   -24970.176    1868.0721    1.1610133    30.985945    30.985945    30.985945    29750.497 
  602000     296.6069   -1795.0242   -23099.046   -24961.905    1862.8594    1.1610133    30.985945    30.985945    30.985945    29750.497 
  603000    296.17006   -1366.0037   -23024.945   -24885.061    1860.1158    1.1610133    30.985945    30.985945    30.985945    29750.497 
  604000    303.49238   -1354.9003   -23048.537   -24954.641    1906.1042    1.1610133    30.985945    30.985945    30.985945    29750.497 
  605000    303.84525   -3144.8258   -23052.632   -24960.953    1908.3204    1.1610133    30.985945    30.985945    30.985945    29750.497 
  606000    306.70678   -2800.2573   -23103.993   -25030.285    1926.2924    1.1610133    30.985945    30.985945    30.985945    29750.497 
  607000    299.28784   -2027.9546   -23054.379   -24934.076    1879.6973    1.1610133    30.985945    30.985945    30.985945    29750.497 
  608000    298.26299   -2416.5851    -23037.47    -24910.73    1873.2606    1.1610133    30.985945    30.985945    30.985945    29750.497 
  609000    301.10417   -2538.1819    -22946.64   -24837.744    1891.1048    1.1610133    30.985945    30.985945    30.985945    29750.497 
  610000     299.2265   -2142.6502   -23002.869   -24882.181     1879.312    1.1610133    30.985945    30.985945    30.985945    29750.497 
  611000    298.63791   -2235.2224   -23015.664   -24891.279    1875.6153    1.1610133    30.985945    30.985945    30.985945    29750.497 
  612000    304.51638   -2525.0469   -22940.132   -24852.667    1912.5354    1.1610133    30.985945    30.985945    30.985945    29750.497 
  613000    297.15389   -1007.3383   -22959.205     -24825.5    1866.2949    1.1610133    30.985945    30.985945    30.985945    29750.497 
  614000    301.23326   -2526.9604   -23038.012   -24929.928    1891.9156    1.1610133    30.985945    30.985945    30.985945    29750.497 
  615000    297.05313   -2372.8864   -23013.465   -24879.127     1865.662    1.1610133    30.985945    30.985945    30.985945    29750.497 
  616000    299.90013   -2221.2034   -22994.744   -24878.287    1883.5428    1.1610133    30.985945    30.985945    30.985945    29750.497 
  617000    303.62926   -1999.6474   -23021.892   -24928.856    1906.9638    1.1610133    30.985945    30.985945    30.985945    29750.497 
  618000    301.96456   -2005.3919   -23009.007   -24905.516    1896.5086    1.1610133    30.985945    30.985945    30.985945    29750.497 
  619000     299.0704   -1983.2414    -23019.31   -24897.642    1878.3316    1.1610133    30.985945    30.985945    30.985945    29750.497 
  620000    297.05484   -2923.7371   -23058.037    -24923.71    1865.6727    1.1610133    30.985945    30.985945    30.985945    29750.497 
  621000    295.74317   -1705.7099   -23139.714   -24997.149    1857.4347    1.1610133    30.985945    30.985945    30.985945    29750.497 
  622000    307.15089   -2215.6731   -22966.587   -24895.668    1929.0817    1.1610133    30.985945    30.985945    30.985945    29750.497 
  623000    296.54525   -2822.5917   -23056.904   -24919.377    1862.4722    1.1610133    30.985945    30.985945    30.985945    29750.497 
  624000    302.57142   -1975.5586   -22987.282   -24887.602      1900.32    1.1610133    30.985945    30.985945    30.985945    29750.497 
  625000    295.51311   -2777.1919    -23099.65    -24955.64    1855.9898    1.1610133    30.985945    30.985945    30.985945    29750.497 
  626000    301.95575   -1734.5237   -23091.703   -24988.156    1896.4533    1.1610133    30.985945    30.985945    30.985945    29750.497 
  627000    302.52379   -2128.7501   -23120.353   -25020.374    1900.0208    1.1610133    30.985945    30.985945    30.985945    29750.497 
  628000    295.29135   -1942.5778   -23036.817   -24891.414     1854.597    1.1610133    30.985945    30.985945    30.985945    29750.497 
  629000    292.44622   -2769.0414   -23079.737   -24916.465     1836.728    1.1610133    30.985945    30.985945    30.985945    29750.497 
  630000    298.86415    -2275.271   -23092.279   -24969.315    1877.0363    1.1610133    30.985945    30.985945    30.985945    29750.497 
  631000    311.13242   -3268.1698   -23045.105   -24999.193    1954.0879    1.1610133    30.985945    30.985945    30.985945    29750.497 
  632000    299.60509   -3032.8075   -23050.695   -24932.385    1881.6898    1.1610133    30.985945    30.985945    30.985945    29750.497 
  633000    292.72838   -2119.9217    -23088.24    -24926.74    1838.5002    1.1610133    30.985945    30.985945    30.985945    29750.497 
  634000    298.74906   -1384.3588   -22966.431   -24842.744    1876.3134    1.1610133    30.985945    30.985945    30.985945    29750.497 
  635000    298.72004    -1514.791   -22990.081   -24866.212    1876.1312    1.1610133    30.985945    30.985945    30.985945    29750.497 
  636000    301.50413   -2482.9987   -23033.558   -24927.175    1893.6168    1.1610133    30.985945    30.985945    30.985945    29750.497 
  637000    302.03359   -2356.2037   -23062.836   -24959.778    1896.9421    1.1610133    30.985945    30.985945    30.985945    29750.497 
  638000    295.61045   -1540.6531   -22992.336   -24848.938    1856.6012    1.1610133    30.985945    30.985945    30.985945    29750.497 
  639000    301.86932   -1832.7279   -23009.058   -24904.968    1895.9104    1.1610133    30.985945    30.985945    30.985945    29750.497 
  640000    303.91357   -2183.6986    -23027.83   -24936.579    1908.7494    1.1610133    30.985945    30.985945    30.985945    29750.497 
  641000    303.52132   -2045.7603   -22996.403   -24902.689    1906.2859    1.1610133    30.985945    30.985945    30.985945    29750.497 
  642000    303.33002   -2346.1024   -22999.744   -24904.828    1905.0845    1.1610133    30.985945    30.985945    30.985945    29750.497 
  643000    299.34498   -2629.5168   -23042.108   -24922.164    1880.0561    1.1610133    30.985945    30.985945    30.985945    29750.497 
  644000    301.02985   -2256.8797   -23084.519   -24975.157    1890.6381    1.1610133    30.985945    30.985945    30.985945    29750.497 
  645000    298.50547   -2378.9989   -22995.835   -24870.618    1874.7835    1.1610133    30.985945    30.985945    30.985945    29750.497 
  646000    295.57653   -1937.0735   -23091.448   -24947.837    1856.3881    1.1610133    30.985945    30.985945    30.985945    29750.497 
  647000     296.4659    -2423.497   -23039.836    -24901.81    1861.9739    1.1610133    30.985945    30.985945    30.985945    29750.497 
  648000    308.82226   -1853.4938   -23034.534   -24974.113    1939.5788    1.1610133    30.985945    30.985945    30.985945    29750.497 
  649000     300.9995   -2863.2319   -23038.439   -24928.887    1890.4475    1.1610133    30.985945    30.985945    30.985945    29750.497 
  650000    300.22965   -2484.9543   -23068.888   -24954.501    1885.6124    1.1610133    30.985945    30.985945    30.985945    29750.497 
  651000    299.97007    -3195.921   -23039.446   -24923.428    1883.9821    1.1610133    30.985945    30.985945    30.985945    29750.497 
  652000    307.15156   -1725.0264   -22985.146   -24914.232    1929.0859    1.1610133    30.985945    30.985945    30.985945    29750.497 
  653000    302.11728   -1919.0124   -23011.224   -24908.692    1897.4677    1.1610133    30.985945    30.985945    30.985945    29750.497 
  654000    300.31964   -2547.8445   -23031.088   -24917.265    1886.1775    1.1610133    30.985945    30.985945    30.985945    29750.497 
  655000    301.26646   -1919.2231   -23109.106   -25001.231    1892.1241    1.1610133    30.985945    30.985945    30.985945    29750.497 
  656000    300.51948    -2421.372   -23052.419   -24939.852    1887.4327    1.1610133    30.985945    30.985945    30.985945    29750.497 
  657000    299.18474   -2899.6517   -23044.222   -24923.272    1879.0497    1.1610133    30.985945    30.985945    30.985945    29750.497 
  658000    295.73895   -2106.8541   -23103.716   -24961.124    1857.4082    1.1610133    30.985945    30.985945    30.985945    29750.497 
  659000     302.9865   -1620.5957   -23084.238   -24987.165    1902.9269    1.1610133    30.985945    30.985945    30.985945    29750.497 
  660000    304.76478    -1905.802   -23057.104   -24971.199    1914.0955    1.1610133    30.985945    30.985945    30.985945    29750.497 
  661000     301.1695   -2060.7851   -23137.903   -25029.419    1891.5152    1.1610133    30.985945    30.985945    30.985945    29750.497 
  662000    299.63102   -2703.7415   -23127.828    -25009.68    1881.8526    1.1610133    30.985945    30.985945    30.985945    29750.497 
  663000    302.23391   -1895.4864   -23131.095   -25029.295    1898.2003    1.1610133    30.985945    30.985945    30.985945    29750.497 
  664000     298.5244   -1812.1565   -23115.979   -24990.881    1874.9024    1.1610133    30.985945    30.985945    30.985945    29750.497 
  665000    290.86457   -1226.7372    -23122.72   -24949.514    1826.7943    1.1610133    30.985945    30.985945    30.985945    29750.497 
  666000    299.39347   -2635.8195   -23131.038   -25011.399    1880.3607    1.1610133    30.985945    30.985945    30.985945    29750.497 
  667000     296.9944   -1807.3443   -23096.024   -24961.318    1865.2932    1.1610133    30.985945    30.985945    30.985945    29750.497 
  668000    296.22428    -1637.482   -23115.006   -24975.463    1860.4563    1.1610133    30.985945    30.985945    30.985945    29750.497 
  669000    293.80801   -1933.0361   -23090.381   -24935.662    1845.2808    1.1610133    30.985945    30.985945    30.985945    29750.497 
  670000    296.45486    -1895.554   -23029.657   -24891.561    1861.9046    1.1610133    30.985945    30.985945    30.985945    29750.497 
  671000    300.25517   -1313.6498    -23034.82   -24920.593    1885.7727    1.1610133    30.985945    30.985945    30.985945    29750.497 
  672000    310.25041   -2587.7206   -23009.076   -24957.625    1948.5484    1.1610133    30.985945    30.985945    30.985945    29750.497 
  673000    305.32495   -1541.5829   -23007.689   -24925.303    1917.6138    1.1610133    30.985945    30.985945    30.985945    29750.497 
  674000    298.21354   -1898.2356   -22986.203   -24859.153    1872.9501    1.1610133    30.985945    30.985945    30.985945    29750.497 
  675000    303.44836   -1588.0641   -22964.186   -24870.013    1905.8277    1.1610133    30.985945    30.985945    30.985945    29750.497 
  676000     291.9468   -1123.9221   -23027.694   -24861.285    1833.5914    1.1610133    30.985945    30.985945    30.985945    29750.497 
  677000    293.84239   -2057.4524   -23005.137   -24850.634    1845.4967    1.1610133    30.985945    30.985945    30.985945    29750.497 
  678000    297.58946   -3619.0464   -23063.571   -24932.601    1869.0305    1.1610133    30.985945    30.985945    30.985945    29750.497 
  679000    297.85719   -2464.6938   -23080.342   -24951.054    1870.7119    1.1610133    30.985945    30.985945    30.985945    29750.497 
  680000    308.45744   -3227.3818   -23005.262   -24942.549    1937.2875    1.1610133    30.985945    30.985945    30.985945    29750.497 
  681000    301.00058   -1874.8848   -23089.333   -24979.787    1890.4542    1.1610133    30.985945    30.985945    30.985945    29750.497 
  682000    293.07342   -1131.3875   -23139.874   -24980.541    1840.6672    1.1610133    30.985945    30.985945    30.985945    29750.497 
  683000    306.63793    -1961.899   -23082.523   -25008.383      1925.86    1.1610133    30.985945    30.985945    30.985945    29750.497 
  684000    304.71274   -2225.1191   -23075.493   -24989.262    1913.7687    1.1610133    30.985945    30.985945    30.985945    29750.497 
  685000    297.45847    -2115.791   -23091.088   -24959.295    1868.2078    1.1610133    30.985945    30.985945    30.985945    29750.497 
  686000    300.56343   -2124.2655   -23099.515   -24987.224    1887.7087    1.1610133    30.985945    30.985945    30.985945    29750.497 
  687000     293.1007   -2820.3835   -23074.959   -24915.798    1840.8385    1.1610133    30.985945    30.985945    30.985945    29750.497 
  688000     298.8121   -2508.0245   -23135.245   -25011.954    1876.7094    1.1610133    30.985945    30.985945    30.985945    29750.497 
  689000    307.11435   -1645.8112   -22958.356   -24887.208    1928.8522    1.1610133    30.985945    30.985945    30.985945    29750.497 
  690000    296.71236   -2488.1505   -22972.013   -24835.534    1863.5218    1.1610133    30.985945    30.985945    30.985945    29750.497 
  691000    301.97779   -2537.8151   -22996.136   -24892.727    1896.5917    1.1610133    30.985945    30.985945    30.985945    29750.497 
  692000     303.1239   -1746.9769   -23045.033   -24948.823    1903.7899    1.1610133    30.985945    30.985945    30.985945    29750.497 
  693000    297.38606   -3115.5582   -23138.883   -25006.636     1867.753    1.1610133    30.985945    30.985945    30.985945    29750.497 
  694000     300.9303   -2097.7363   -23051.661   -24941.674    1890.0128    1.1610133    30.985945    30.985945    30.985945    29750.497 
  695000    297.75918   -2261.5113    -23062.17   -24932.267    1870.0964    1.1610133    30.985945    30.985945    30.985945    29750.497 
  696000    288.95222   -2086.2153   -23049.976    -24864.76    1814.7837    1.1610133    30.985945    30.985945    30.985945    29750.497 
  697000    305.46384   -1648.2597    -23009.14   -24927.626     1918.486    1.1610133    30.985945    30.985945    30.985945    29750.497 
  698000    300.96606   -1454.4716   -22918.477   -24808.714    1890.2374    1.1610133    30.985945    30.985945    30.985945    29750.497 
  699000    297.53402   -1711.2967   -23018.048   -24886.731    1868.6823    1.1610133    30.985945    30.985945    30.985945    29750.497 
  700000    300.66137   -1427.6732   -22993.373   -24881.697    1888.3238    1.1610133    30.985945    30.985945    30.985945    29750.497 
  701000    301.04017   -849.57601   -23073.277    -24963.98    1890.7029    1.1610133    30.985945    30.985945    30.985945    29750.497 
  702000    296.29476   -2468.5417   -23053.395   -24914.294     1860.899    1.1610133    30.985945    30.985945    30.985945    29750.497 
  703000    296.05854   -2676.5628   -23061.433   -24920.849    1859.4154    1.1610133    30.985945    30.985945    30.985945    29750.497 
  704000    289.02775   -990.69311   -23084.358   -24899.616    1815.2581    1.1610133    30.985945    30.985945    30.985945    29750.497 
  705000    293.98319   -938.17649   -23111.645   -24958.026    1846.3811    1.1610133    30.985945    30.985945    30.985945    29750.497 
  706000    289.76866   -2311.2085   -23067.228   -24887.139    1819.9114    1.1610133    30.985945    30.985945    30.985945    29750.497 
  707000    294.46189   -2313.4691   -23034.643   -24884.031    1849.3876    1.1610133    30.985945    30.985945    30.985945    29750.497 
  708000    298.76078   -1087.4353   -23042.992   -24919.379     1876.387    1.1610133    30.985945    30.985945    30.985945    29750.497 
  709000    298.24511   -1772.7492   -23036.352     -24909.5    1873.1483    1.1610133    30.985945    30.985945    30.985945    29750.497 
  710000    294.63614   -2853.6536    -23034.96   -24885.442    1850.4819    1.1610133    30.985945    30.985945    30.985945    29750.497 
  711000    292.96043   -3158.4733   -23058.911   -24898.869    1839.9575    1.1610133    30.985945    30.985945    30.985945    29750.497 
  712000    299.09709   -2199.6524   -23034.962   -24913.461    1878.4992    1.1610133    30.985945    30.985945    30.985945    29750.497 
  713000    296.52522   -2531.3258   -23076.683   -24939.029    1862.3464    1.1610133    30.985945    30.985945    30.985945    29750.497 
  714000    300.68749   -2446.5433    -23072.37   -24960.858    1888.4879    1.1610133    30.985945    30.985945    30.985945    29750.497 
  715000    298.86785   -1323.6092   -23058.056   -24935.116    1877.0595    1.1610133    30.985945    30.985945    30.985945    29750.497 
  716000    298.85923   -1286.9985   -23076.866   -24953.871    1877.0054    1.1610133    30.985945    30.985945    30.985945    29750.497 
  717000    294.53775    -1707.222   -23035.431   -24885.295     1849.864    1.1610133    30.985945    30.985945    30.985945    29750.497 
  718000    297.97225    -1906.539   -23003.026   -24874.461    1871.4346    1.1610133    30.985945    30.985945    30.985945    29750.497 
  719000    299.79604   -1385.8757   -22990.643   -24873.532    1882.8891    1.1610133    30.985945    30.985945    30.985945    29750.497 
  720000    295.14604   -2492.1945   -23023.188   -24876.873    1853.6844    1.1610133    30.985945    30.985945    30.985945    29750.497 
  721000    295.45889   -1593.4455   -22951.008   -24806.658    1855.6493    1.1610133    30.985945    30.985945    30.985945    29750.497 
  722000     296.7483   -1411.7961   -22973.482    -24837.23    1863.7475    1.1610133    30.985945    30.985945    30.985945    29750.497 
  723000    296.38275   -1961.1704   -23055.186   -24916.638    1861.4517    1.1610133    30.985945    30.985945    30.985945    29750.497 
  724000    301.94509   -2001.9238   -22928.975   -24825.361    1896.3863    1.1610133    30.985945    30.985945    30.985945    29750.497 
  725000    290.70431    -2389.547   -23013.919   -24839.707    1825.7878    1.1610133    30.985945    30.985945    30.985945    29750.497 
  726000    299.05572    -1459.325   -22962.663   -24840.902    1878.2394    1.1610133    30.985945    30.985945    30.985945    29750.497 
  727000    302.30022   -2129.9057   -23045.961   -24944.577    1898.6167    1.1610133    30.985945    30.985945    30.985945    29750.497 
  728000    304.77307   -2533.9851   -23036.077   -24950.225    1914.1476    1.1610133    30.985945    30.985945    30.985945    29750.497 
  729000    303.78141    -2263.866   -22968.376   -24876.295    1907.9194    1.1610133    30.985945    30.985945    30.985945    29750.497 
  730000    293.94637   -2248.9327   -23120.688   -24966.838    1846.1498    1.1610133    30.985945    30.985945    30.985945    29750.497 
  731000    301.38343   -3448.4893   -23058.789   -24951.647    1892.8587    1.1610133    30.985945    30.985945    30.985945    29750.497 
  732000    301.85949   -1292.2883   -23018.734   -24914.582    1895.8487    1.1610133    30.985945    30.985945    30.985945    29750.497 
  733000    299.06209    -2227.929   -22977.951   -24856.231    1878.2794    1.1610133    30.985945    30.985945    30.985945    29750.497 
  734000    298.41437   -1148.5776    -22905.55   -24779.761    1874.2114    1.1610133    30.985945    30.985945    30.985945    29750.497 
  735000    307.48959   -1089.6369   -23002.422   -24933.631    1931.2089    1.1610133    30.985945    30.985945    30.985945    29750.497 
  736000    302.78961    -718.7481   -22992.816   -24894.507    1901.6903    1.1610133    30.985945    30.985945    30.985945    29750.497 
  737000    306.02274   -2212.6289   -22907.047   -24829.043    1921.9962    1.1610133    30.985945    30.985945    30.985945    29750.497 
  738000    303.86912   -2640.3672   -23003.441   -24911.912    1908.4703    1.1610133    30.985945    30.985945    30.985945    29750.497 
  739000    297.35974   -3098.1246   -23010.753   -24878.341    1867.5877    1.1610133    30.985945    30.985945    30.985945    29750.497 
  740000    307.10929   -2333.3768   -22981.412   -24910.233    1928.8204    1.1610133    30.985945    30.985945    30.985945    29750.497 
  741000    298.57514   -1907.0233   -23011.457   -24886.678    1875.2211    1.1610133    30.985945    30.985945    30.985945    29750.497 
  742000    292.61729    -2715.781   -23105.957   -24943.759    1837.8024    1.1610133    30.985945    30.985945    30.985945    29750.497 
  743000    297.20108   -1919.4226   -23060.884   -24927.475    1866.5912    1.1610133    30.985945    30.985945    30.985945    29750.497 
  744000    293.16782   -2148.3865   -23047.823   -24889.084    1841.2601    1.1610133    30.985945    30.985945    30.985945    29750.497 
  745000    300.74806   -2178.9984   -23038.443   -24927.311    1888.8683    1.1610133    30.985945    30.985945    30.985945    29750.497 
  746000    305.78509   -910.74431   -23056.331   -24976.835    1920.5037    1.1610133    30.985945    30.985945    30.985945    29750.497 
  747000    308.52319    -2124.636   -22914.881   -24852.581    1937.7005    1.1610133    30.985945    30.985945    30.985945    29750.497 
  748000    302.52504   -1314.9344   -23026.419   -24926.448    1900.0287    1.1610133    30.985945    30.985945    30.985945    29750.497 
  749000    298.46781   -2372.3983   -23118.493    -24993.04     1874.547    1.1610133    30.985945    30.985945    30.985945    29750.497 
  750000    300.52668   -3039.6048    -23111.57   -24999.048    1887.4779    1.1610133    30.985945    30.985945    30.985945    29750.497 
  751000    305.33142   -1989.8122   -22954.478   -24872.132    1917.6544    1.1610133    30.985945    30.985945    30.985945    29750.497 
  752000    293.45068   -2278.7917   -22947.646   -24790.683    1843.0366    1.1610133    30.985945    30.985945    30.985945    29750.497 
  753000    296.05405   -1116.8815   -22968.344   -24827.732    1859.3872    1.1610133    30.985945    30.985945    30.985945    29750.497 
  754000    294.70884   -1595.0708   -23028.855   -24879.793    1850.9386    1.1610133    30.985945    30.985945    30.985945    29750.497 
  755000    299.56875   -1650.9312   -23094.056   -24975.517    1881.4615    1.1610133    30.985945    30.985945    30.985945    29750.497 
  756000    301.95514   -799.33153   -23081.729   -24978.179    1896.4494    1.1610133    30.985945    30.985945    30.985945    29750.497 
  757000    302.43029    -2249.111   -23006.623   -24906.057    1899.4337    1.1610133    30.985945    30.985945    30.985945    29750.497 
  758000    302.80815   -2237.1228   -23001.177   -24902.984    1901.8068    1.1610133    30.985945    30.985945    30.985945    29750.497 
  759000     297.5661   -1743.0958   -22992.477    -24861.36    1868.8837    1.1610133    30.985945    30.985945    30.985945    29750.497 
  760000    298.40923   -2168.1143   -23047.526   -24921.705    1874.1791    1.1610133    30.985945    30.985945    30.985945    29750.497 
  761000    297.69343   -1331.1373    -23038.53   -24908.213    1869.6835    1.1610133    30.985945    30.985945    30.985945    29750.497 
  762000    306.22219   -1477.6131   -23035.823   -24959.072    1923.2489    1.1610133    30.985945    30.985945    30.985945    29750.497 
  763000    300.89803   -2199.9326   -23021.023   -24910.833    1889.8102    1.1610133    30.985945    30.985945    30.985945    29750.497 
  764000    295.22728   -2575.6497   -23085.254   -24939.449    1854.1947    1.1610133    30.985945    30.985945    30.985945    29750.497 
  765000    305.38385   -1165.8343   -22997.552   -24915.536    1917.9837    1.1610133    30.985945    30.985945    30.985945    29750.497 
  766000    302.11129   -2015.0832   -22964.946   -24862.376    1897.4301    1.1610133    30.985945    30.985945    30.985945    29750.497 
  767000    296.09112   -2249.3982   -23000.626   -24860.246      1859.62    1.1610133    30.985945    30.985945    30.985945    29750.497 
  768000    300.11961   -1361.8321   -23027.816   -24912.737    1884.9212    1.1610133    30.985945    30.985945    30.985945    29750.497 
  769000     293.7213   -2530.0403   -23057.302   -24902.038    1844.7363    1.1610133    30.985945    30.985945    30.985945    29750.497 
  770000    293.22312   -1613.4203   -23152.059   -24993.667    1841.6074    1.1610133    30.985945    30.985945    30.985945    29750.497 
  771000    300.40275   -1521.9666   -23081.607   -24968.306    1886.6995    1.1610133    30.985945    30.985945    30.985945    29750.497 
  772000    300.27381    -2396.355   -23129.055   -25014.944    1885.8897    1.1610133    30.985945    30.985945    30.985945    29750.497 
  773000    297.03508   -2713.4127   -23023.545   -24889.094    1865.5486    1.1610133    30.985945    30.985945    30.985945    29750.497 
  774000    297.49761   -2604.5124   -23049.186    -24917.64    1868.4536    1.1610133    30.985945    30.985945    30.985945    29750.497 
  775000    298.58281   -1781.8765   -23130.208   -25005.478    1875.2693    1.1610133    30.985945    30.985945    30.985945    29750.497 
  776000    303.55521   -2449.8033   -23071.656   -24978.154    1906.4988    1.1610133    30.985945    30.985945    30.985945    29750.497 
  777000    299.17811   -1962.0289    -23128.78   -25007.788    1879.0081    1.1610133    30.985945    30.985945    30.985945    29750.497 
  778000    297.98729   -1646.8653   -23084.402   -24955.931    1871.5291    1.1610133    30.985945    30.985945    30.985945    29750.497 
  779000    298.89336   -2732.6954   -23076.234   -24953.454    1877.2197    1.1610133    30.985945    30.985945    30.985945    29750.497 
  780000     306.6244    -2301.494   -23045.547   -24971.322     1925.775    1.1610133    30.985945    30.985945    30.985945    29750.497 
  781000    298.10977   -1674.0666   -23041.299   -24913.598    1872.2983    1.1610133    30.985945    30.985945    30.985945    29750.497 
  782000     292.7914   -2147.2449   -23079.866   -24918.762     1838.896    1.1610133    30.985945    30.985945    30.985945    29750.497 
  783000     298.3098    -1000.746   -23084.244   -24957.798    1873.5546    1.1610133    30.985945    30.985945    30.985945    29750.497 
  784000     296.2345   -2087.6624   -23097.227   -24957.747    1860.5205    1.1610133    30.985945    30.985945    30.985945    29750.497 
  785000    296.02046   -2871.2059   -23059.232   -24918.408    1859.1763    1.1610133    30.985945    30.985945    30.985945    29750.497 
  786000    295.82654   -2270.3747   -23133.642   -24991.601    1857.9584    1.1610133    30.985945    30.985945    30.985945    29750.497 
  787000     299.7076     -2163.43   -23097.874   -24980.208    1882.3336    1.1610133    30.985945    30.985945    30.985945    29750.497 
  788000    298.26267   -2519.6352    -23066.87   -24940.128    1873.2586    1.1610133    30.985945    30.985945    30.985945    29750.497 
  789000    301.22515   -1843.1836   -23069.955   -24961.819    1891.8647    1.1610133    30.985945    30.985945    30.985945    29750.497 
  790000    297.40356   -1956.4244   -23001.358   -24869.221    1867.8629    1.1610133    30.985945    30.985945    30.985945    29750.497 
  791000    298.08662   -2457.2358   -23034.422   -24906.575    1872.1529    1.1610133    30.985945    30.985945    30.985945    29750.497 
  792000    301.76303    -1591.347   -22997.372   -24892.614    1895.2429    1.1610133    30.985945    30.985945    30.985945    29750.497 
  793000    298.32324   -2280.9742   -23088.909   -24962.548     1873.639    1.1610133    30.985945    30.985945    30.985945    29750.497 
  794000    299.52911   -1868.3794    -23026.63   -24907.843    1881.2126    1.1610133    30.985945    30.985945    30.985945    29750.497 
  795000    294.28556   -2157.6008   -23052.283   -24900.563    1848.2801    1.1610133    30.985945    30.985945    30.985945    29750.497 
  796000    302.60471   -1701.1834   -23019.184   -24919.713    1900.5291    1.1610133    30.985945    30.985945    30.985945    29750.497 
  797000    295.85347   -2787.6678   -23067.079   -24925.206    1858.1275    1.1610133    30.985945    30.985945    30.985945    29750.497 
  798000    298.56912   -2901.3708   -23099.264   -24974.447    1875.1833    1.1610133    30.985945    30.985945    30.985945    29750.497 
  799000    303.13284   -2446.7981   -23057.262   -24961.108     1903.846    1.1610133    30.985945    30.985945    30.985945    29750.497 
  800000    286.42195   -1769.8122   -23232.213   -25031.105    1798.8922    1.1610133    30.985945    30.985945    30.985945    29750.497 
  801000    301.78963   -2185.3221   -23154.108   -25049.518      1895.41    1.1610133    30.985945    30.985945    30.985945    29750.497 
  802000    312.28585   -1793.0012   -22958.519   -24919.852    1961.3321    1.1610133    30.985945    30.985945    30.985945    29750.497 
  803000    303.06777   -1631.8367   -23123.998   -25027.435    1903.4374    1.1610133    30.985945    30.985945    30.985945    29750.497 
  804000    305.46726   -1888.4603   -23073.699   -24992.207    1918.5075    1.1610133    30.985945    30.985945    30.985945    29750.497 
  805000    292.90589   -2379.9442   -23105.707   -24945.322     1839.615    1.1610133    30.985945    30.985945    30.985945    29750.497 
  806000    300.09154   -2285.4174   -23062.414   -24947.159    1884.7449    1.1610133    30.985945    30.985945    30.985945    29750.497 
  807000    297.94624   -1789.9862   -23055.254   -24926.525    1871.2713    1.1610133    30.985945    30.985945    30.985945    29750.497 
  808000    302.83276   -2407.8484   -23060.408    -24962.37    1901.9614    1.1610133    30.985945    30.985945    30.985945    29750.497 
  809000    300.59201   -2076.1332   -23027.938   -24915.826    1887.8882    1.1610133    30.985945    30.985945    30.985945    29750.497 
  810000    314.35827   -2273.4491   -23034.735   -25009.083    1974.3481    1.1610133    30.985945    30.985945    30.985945    29750.497 
  811000    300.85653   -2237.8325   -23123.783   -25013.332    1889.5495    1.1610133    30.985945    30.985945    30.985945    29750.497 
  812000     297.6025   -2315.3934   -23114.862   -24983.975    1869.1124    1.1610133    30.985945    30.985945    30.985945    29750.497 
  813000    298.85142   -2557.8086   -23170.675   -25047.632    1876.9563    1.1610133    30.985945    30.985945    30.985945    29750.497 
  814000     295.3253   -2537.5526   -23162.224   -25017.034    1854.8103    1.1610133    30.985945    30.985945    30.985945    29750.497 
  815000     302.5063   -2019.6288   -23172.739    -25072.65     1899.911    1.1610133    30.985945    30.985945    30.985945    29750.497 
  816000     295.1094   -2196.9309   -23116.632   -24970.086    1853.4543    1.1610133    30.985945    30.985945    30.985945    29750.497 
  817000    308.61272   -3249.6219   -23073.257    -25011.52    1938.2628    1.1610133    30.985945    30.985945    30.985945    29750.497 
  818000    301.30442   -2096.3052   -23130.636   -25022.999    1892.3625    1.1610133    30.985945    30.985945    30.985945    29750.497 
  819000    304.97932   -2173.2367   -23103.582   -25019.024     1915.443    1.1610133    30.985945    30.985945    30.985945    29750.497 
  820000    293.90512   -2415.3059   -23166.553   -25012.444    1845.8908    1.1610133    30.985945    30.985945    30.985945    29750.497 
  821000    293.46852   -1746.1465   -23093.849   -24936.998    1843.1486    1.1610133    30.985945    30.985945    30.985945    29750.497 
  822000    305.51756   -2961.6333   -22970.267   -24889.091    1918.8235    1.1610133    30.985945    30.985945    30.985945    29750.497 
  823000    302.87291    -2641.346   -22983.187   -24885.401    1902.2135    1.1610133    30.985945    30.985945    30.985945    29750.497 
  824000    297.11691   -3053.3793   -23045.559   -24911.621    1866.0626    1.1610133    30.985945    30.985945    30.985945    29750.497 
  825000    299.03458   -1683.7496   -23076.878   -24954.985    1878.1067    1.1610133    30.985945    30.985945    30.985945    29750.497 
  826000    300.80297   -2642.0332   -23058.262   -24947.476    1889.2131    1.1610133    30.985945    30.985945    30.985945    29750.497 
  827000    304.58548   -2013.9143   -23085.146   -24998.115    1912.9694    1.1610133    30.985945    30.985945    30.985945    29750.497 
  828000    303.53702   -1081.0656   -23111.458   -25017.842    1906.3845    1.1610133    30.985945    30.985945    30.985945    29750.497 
  829000    298.13619    -3052.439   -23191.049   -25063.513    1872.4643    1.1610133    30.985945    30.985945    30.985945    29750.497 
  830000    300.37684   -2442.3187   -23167.661   -25054.198    1886.5368    1.1610133    30.985945    30.985945    30.985945    29750.497 
  831000    294.53324   -2474.3231   -23125.531   -24975.366    1849.8357    1.1610133    30.985945    30.985945    30.985945    29750.497 
  832000    290.03938   -2591.6499    -23227.54   -25049.152    1821.6117    1.1610133    30.985945    30.985945    30.985945    29750.497 
  833000    294.94451   -2382.0791   -23165.738   -25018.156    1852.4187    1.1610133    30.985945    30.985945    30.985945    29750.497 
  834000    297.34751   -3323.2963    -23133.31   -25000.821    1867.5109    1.1610133    30.985945    30.985945    30.985945    29750.497 
  835000    310.46161   -1718.2226   -22965.891   -24915.766    1949.8749    1.1610133    30.985945    30.985945    30.985945    29750.497 
  836000     309.7692   -1459.8344   -23116.124    -25061.65    1945.5262    1.1610133    30.985945    30.985945    30.985945    29750.497 
  837000    294.76841   -3408.1264   -23096.197   -24947.509    1851.3127    1.1610133    30.985945    30.985945    30.985945    29750.497 
  838000    300.46558   -2933.5829   -23087.561   -24974.656    1887.0941    1.1610133    30.985945    30.985945    30.985945    29750.497 
  839000    297.63783   -2108.6635   -23145.967   -25015.301    1869.3343    1.1610133    30.985945    30.985945    30.985945    29750.497 
  840000    297.66036   -2165.8807   -23168.806   -25038.281    1869.4758    1.1610133    30.985945    30.985945    30.985945    29750.497 
  841000    294.29298   -1622.1019   -23096.266   -24944.593    1848.3267    1.1610133    30.985945    30.985945    30.985945    29750.497 
  842000     307.2287   -1834.5217   -22951.991   -24881.562    1929.5704    1.1610133    30.985945    30.985945    30.985945    29750.497 
  843000    300.13666   -1900.2776   -23026.335   -24911.363    1885.0283    1.1610133    30.985945    30.985945    30.985945    29750.497 
  844000    292.45495   -2128.6177   -23142.612   -24979.395    1836.7829    1.1610133    30.985945    30.985945    30.985945    29750.497 
  845000    306.80273     -1413.84   -23039.016   -24965.911     1926.895    1.1610133    30.985945    30.985945    30.985945    29750.497 
  846000    301.93911    -2440.196   -23099.124   -24995.473    1896.3488    1.1610133    30.985945    30.985945    30.985945    29750.497 
  847000    301.30802    -1893.972   -23092.378   -24984.763    1892.3851    1.1610133    30.985945    30.985945    30.985945    29750.497 
  848000    298.15502   -2485.0761    -23047.22   -24919.802    1872.5825    1.1610133    30.985945    30.985945    30.985945    29750.497 
  849000    296.93938   -2602.5771   -23097.967   -24962.914    1864.9476    1.1610133    30.985945    30.985945    30.985945    29750.497 
  850000    297.43811   -2849.6273   -23168.356   -25036.435    1868.0799    1.1610133    30.985945    30.985945    30.985945    29750.497 
  851000      299.792   -2239.2307   -23158.264   -25041.127    1882.8637    1.1610133    30.985945    30.985945    30.985945    29750.497 
  852000    297.48779   -2072.8115   -23200.417   -25068.809    1868.3919    1.1610133    30.985945    30.985945    30.985945    29750.497 
  853000    292.06812   -2619.8915   -23078.772   -24913.126    1834.3533    1.1610133    30.985945    30.985945    30.985945    29750.497 
  854000     296.7775   -2765.1457   -23095.341   -24959.271    1863.9309    1.1610133    30.985945    30.985945    30.985945    29750.497 
  855000    298.85423   -2250.9872   -23112.853   -24989.827     1876.974    1.1610133    30.985945    30.985945    30.985945    29750.497 
  856000    304.09453   -2208.0372   -23087.789   -24997.675     1909.886    1.1610133    30.985945    30.985945    30.985945    29750.497 
  857000    304.28537   -2724.1084   -23148.484   -25059.568    1911.0846    1.1610133    30.985945    30.985945    30.985945    29750.497 
  858000     296.7834   -2785.5182   -23113.592    -24977.56     1863.968    1.1610133    30.985945    30.985945    30.985945    29750.497 
  859000    304.91414   -1824.8742   -23065.902   -24980.936    1915.0336    1.1610133    30.985945    30.985945    30.985945    29750.497 
  860000    308.38938   -1967.7289   -23014.191   -24951.052    1936.8601    1.1610133    30.985945    30.985945    30.985945    29750.497 
  861000    298.44657   -2972.8156   -23068.693   -24943.107    1874.4136    1.1610133    30.985945    30.985945    30.985945    29750.497 
  862000    291.65588   -1652.7403   -23076.329   -24908.093    1831.7642    1.1610133    30.985945    30.985945    30.985945    29750.497 
  863000    293.98874    -2149.747   -23020.665   -24867.081    1846.4159    1.1610133    30.985945    30.985945    30.985945    29750.497 
  864000    308.37007   -3076.0087   -23120.818   -25057.557    1936.7388    1.1610133    30.985945    30.985945    30.985945    29750.497 
  865000    298.81873   -3009.9798   -23081.473   -24958.224     1876.751    1.1610133    30.985945    30.985945    30.985945    29750.497 
  866000    291.17689   -2342.8068   -23140.636   -24969.392    1828.7559    1.1610133    30.985945    30.985945    30.985945    29750.497 
  867000    295.98176    -2533.913   -23085.336   -24944.269    1858.9332    1.1610133    30.985945    30.985945    30.985945    29750.497 
  868000    302.72576   -2210.6395    -23098.68   -24999.969    1901.2893    1.1610133    30.985945    30.985945    30.985945    29750.497 
  869000     296.3766     -2443.46   -23051.485   -24912.898     1861.413    1.1610133    30.985945    30.985945    30.985945    29750.497 
  870000    293.04381   -2104.1288   -23104.002   -24944.483    1840.4812    1.1610133    30.985945    30.985945    30.985945    29750.497 
  871000    298.60678   -2108.3175   -23080.106   -24955.526    1875.4198    1.1610133    30.985945    30.985945    30.985945    29750.497 
  872000    303.31225   -1569.8881   -23118.453   -25023.426    1904.9729    1.1610133    30.985945    30.985945    30.985945    29750.497 
  873000    297.46243   -3161.3211   -23093.811   -24962.043    1868.2327    1.1610133    30.985945    30.985945    30.985945    29750.497 
  874000    290.76397   -3414.7447    -23132.05   -24958.212    1826.1626    1.1610133    30.985945    30.985945    30.985945    29750.497 
  875000    304.33211   -2567.6767   -23060.035   -24971.413    1911.3781    1.1610133    30.985945    30.985945    30.985945    29750.497 
  876000    299.96909   -3247.1113   -23108.592   -24992.567    1883.9759    1.1610133    30.985945    30.985945    30.985945    29750.497 
  877000    296.68836   -2362.1178   -23107.202   -24970.573    1863.3711    1.1610133    30.985945    30.985945    30.985945    29750.497 
  878000    304.23965   -2987.7639   -23060.349   -24971.146    1910.7975    1.1610133    30.985945    30.985945    30.985945    29750.497 
  879000    296.05698   -2769.3863   -23199.701   -25059.107    1859.4056    1.1610133    30.985945    30.985945    30.985945    29750.497 
  880000    295.32066   -1712.6788   -23264.665   -25119.446    1854.7811    1.1610133    30.985945    30.985945    30.985945    29750.497 
  881000    300.81271     -963.919   -23148.916    -25038.19    1889.2743    1.1610133    30.985945    30.985945    30.985945    29750.497 
  882000    293.19484   -1833.4742   -23172.987   -25014.417    1841.4298    1.1610133    30.985945    30.985945    30.985945    29750.497 
  883000    291.47461   -2255.8431    -23141.49   -24972.116    1830.6258    1.1610133    30.985945    30.985945    30.985945    29750.497 
  884000    302.31693   -2377.8404   -23105.634   -25004.356    1898.7217    1.1610133    30.985945    30.985945    30.985945    29750.497 
  885000    298.75395   -2620.1401   -23154.844   -25031.189    1876.3442    1.1610133    30.985945    30.985945    30.985945    29750.497 
  886000    295.61799   -350.41834   -23206.508   -25063.157    1856.6486    1.1610133    30.985945    30.985945    30.985945    29750.497 
  887000    293.76967   -1922.5284   -23148.833   -24993.873      1845.04    1.1610133    30.985945    30.985945    30.985945    29750.497 
  888000    298.85244   -2095.0693   -23088.616   -24965.579    1876.9627    1.1610133    30.985945    30.985945    30.985945    29750.497 
  889000    301.46332   -1937.8952   -23090.191   -24983.552    1893.3605    1.1610133    30.985945    30.985945    30.985945    29750.497 
  890000    291.21306   -2681.9261   -23165.382   -24994.365    1828.9831    1.1610133    30.985945    30.985945    30.985945    29750.497 
  891000    293.52853   -1620.2425   -23180.028   -25023.553    1843.5255    1.1610133    30.985945    30.985945    30.985945    29750.497 
  892000    297.74844   -2771.6571   -23109.677   -24979.706     1870.029    1.1610133    30.985945    30.985945    30.985945    29750.497 
  893000    303.06602   -3275.8937   -23134.661   -25038.088    1903.4264    1.1610133    30.985945    30.985945    30.985945    29750.497 
  894000    300.47997   -1704.7619   -23167.406   -25054.591    1887.1845    1.1610133    30.985945    30.985945    30.985945    29750.497 
  895000     299.2649   -2279.7382   -23077.969   -24957.522    1879.5532    1.1610133    30.985945    30.985945    30.985945    29750.497 
  896000     298.3084   -1697.8336   -23032.496   -24906.042    1873.5458    1.1610133    30.985945    30.985945    30.985945    29750.497 
  897000    300.53258   -2162.2274   -23066.167   -24953.682     1887.515    1.1610133    30.985945    30.985945    30.985945    29750.497 
  898000    305.04095   -1720.5213   -23066.026   -24981.856      1915.83    1.1610133    30.985945    30.985945    30.985945    29750.497 
  899000     297.7829   -2248.4751   -23069.875   -24940.121    1870.2454    1.1610133    30.985945    30.985945    30.985945    29750.497 
  900000    301.70267   -1621.0492   -23014.698   -24909.562    1894.8638    1.1610133    30.985945    30.985945    30.985945    29750.497 
  901000    298.15077   -2118.9385   -23148.487   -25021.043    1872.5558    1.1610133    30.985945    30.985945    30.985945    29750.497 
  902000    296.99617   -2036.8755   -23136.588   -25001.892    1865.3043    1.1610133    30.985945    30.985945    30.985945    29750.497 
  903000    290.00714   -2567.1653   -23107.015   -24928.424    1821.4092    1.1610133    30.985945    30.985945    30.985945    29750.497 
  904000    296.85802   -1998.4184   -23054.038   -24918.475    1864.4366    1.1610133    30.985945    30.985945    30.985945    29750.497 
  905000    305.31341   -1256.3223   -23038.597   -24956.138    1917.5412    1.1610133    30.985945    30.985945    30.985945    29750.497 
  906000     298.1617   -2392.5173   -23030.585   -24903.209    1872.6245    1.1610133    30.985945    30.985945    30.985945    29750.497 
  907000    298.90248   -1700.3579   -23114.453    -24991.73     1877.277    1.1610133    30.985945    30.985945    30.985945    29750.497 
  908000    295.02732   -2508.2255   -23115.346   -24968.284    1852.9388    1.1610133    30.985945    30.985945    30.985945    29750.497 
  909000    309.00494   -3136.3383   -23112.624    -25053.35    1940.7262    1.1610133    30.985945    30.985945    30.985945    29750.497 
  910000    292.38936   -2013.3603   -23152.035   -24988.406    1836.3709    1.1610133    30.985945    30.985945    30.985945    29750.497 
  911000    298.88109   -2888.3819   -23065.227    -24942.37    1877.1426    1.1610133    30.985945    30.985945    30.985945    29750.497 
  912000    301.83221   -2551.3172    -23031.01   -24926.687    1895.6774    1.1610133    30.985945    30.985945    30.985945    29750.497 
  913000    297.85157   -2091.7132    -22979.96   -24850.636    1870.6767    1.1610133    30.985945    30.985945    30.985945    29750.497 
  914000    303.15447    -2367.447    -23094.59   -24998.572    1903.9819    1.1610133    30.985945    30.985945    30.985945    29750.497 
  915000    292.29357   -2718.2867   -23153.033   -24988.802    1835.7693    1.1610133    30.985945    30.985945    30.985945    29750.497 
  916000    302.80315   -2512.0082   -23103.836   -25005.611    1901.7754    1.1610133    30.985945    30.985945    30.985945    29750.497 
  917000    307.89447   -2119.3994   -23010.372   -24944.124    1933.7518    1.1610133    30.985945    30.985945    30.985945    29750.497 
  918000    298.07104   -2483.5484    -23120.55   -24992.605    1872.0551    1.1610133    30.985945    30.985945    30.985945    29750.497 
  919000    301.02273   -2443.4773     -23130.8   -25021.394    1890.5933    1.1610133    30.985945    30.985945    30.985945    29750.497 
  920000    296.58103   -2505.6274   -23021.846   -24884.543     1862.697    1.1610133    30.985945    30.985945    30.985945    29750.497 
  921000    296.81401    -2121.198    -23035.99   -24900.151    1864.1602    1.1610133    30.985945    30.985945    30.985945    29750.497 
  922000    293.73527    -2660.843   -23079.496    -24924.32     1844.824    1.1610133    30.985945    30.985945    30.985945    29750.497 
  923000    301.46594   -1723.6495   -23075.597   -24968.974     1893.377    1.1610133    30.985945    30.985945    30.985945    29750.497 
  924000    303.17804   -1440.4791   -23067.779   -24971.909    1904.1299    1.1610133    30.985945    30.985945    30.985945    29750.497 
  925000    294.53332    -2460.218   -23060.229   -24910.065    1849.8362    1.1610133    30.985945    30.985945    30.985945    29750.497 
  926000    301.72954   -1223.6447   -23103.998    -24999.03    1895.0325    1.1610133    30.985945    30.985945    30.985945    29750.497 
  927000    296.28553   -1995.7934   -23188.764   -25049.605     1860.841    1.1610133    30.985945    30.985945    30.985945    29750.497 
  928000    291.87335   -2604.2401   -23211.885   -25045.015    1833.1301    1.1610133    30.985945    30.985945    30.985945    29750.497 
  929000    300.59514   -2180.4667   -23143.462    -25031.37    1887.9078    1.1610133    30.985945    30.985945    30.985945    29750.497 
  930000    293.07008   -2740.5015   -23130.677   -24971.323    1840.6462    1.1610133    30.985945    30.985945    30.985945    29750.497 
  931000    297.44775   -1940.1507   -23165.544   -25033.684    1868.1405    1.1610133    30.985945    30.985945    30.985945    29750.497 
  932000    296.39974   -2514.8193   -23207.129   -25068.688    1861.5584    1.1610133    30.985945    30.985945    30.985945    29750.497 
  933000    300.31185   -2813.7795   -23125.285   -25011.413    1886.1286    1.1610133    30.985945    30.985945    30.985945    29750.497 
  934000    302.78342   -1865.6939   -23047.184   -24948.836    1901.6515    1.1610133    30.985945    30.985945    30.985945    29750.497 
  935000    295.82833   -1861.8951    -23072.86    -24930.83    1857.9696    1.1610133    30.985945    30.985945    30.985945    29750.497 
  936000    303.35087   -2747.6398   -23128.741   -25033.957    1905.2154    1.1610133    30.985945    30.985945    30.985945    29750.497 
  937000    297.44897   -1305.2822   -23053.839   -24921.987    1868.1481    1.1610133    30.985945    30.985945    30.985945    29750.497 
  938000    294.60878   -2459.7695   -23111.918   -24962.228    1850.3101    1.1610133    30.985945    30.985945    30.985945    29750.497 
  939000    302.94438   -3076.1982   -23143.204   -25045.866    1902.6624    1.1610133    30.985945    30.985945    30.985945    29750.497 
  940000    296.29807   -1392.4237    -23062.01    -24922.93    1860.9198    1.1610133    30.985945    30.985945    30.985945    29750.497 
  941000    305.71031    -2473.388   -22994.597   -24914.631     1920.034    1.1610133    30.985945    30.985945    30.985945    29750.497 
  942000    304.47803   -1984.3999   -23107.858   -25020.153    1912.2946    1.1610133    30.985945    30.985945    30.985945    29750.497 
  943000    292.75348   -1732.5483   -23033.761   -24872.418    1838.6578    1.1610133    30.985945    30.985945    30.985945    29750.497 
  944000    297.66461   -1302.7387   -23076.844   -24946.346    1869.5025    1.1610133    30.985945    30.985945    30.985945    29750.497 
  945000    294.36617   -2163.4918   -23158.458   -25007.244    1848.7864    1.1610133    30.985945    30.985945    30.985945    29750.497 
  946000    300.46322   -2109.6207   -23044.938   -24932.017    1887.0793    1.1610133    30.985945    30.985945    30.985945    29750.497 
  947000     301.3803   -1978.4036   -23124.275   -25017.114    1892.8391    1.1610133    30.985945    30.985945    30.985945    29750.497 
  948000    298.54592   -1654.7177   -23104.729   -24979.766    1875.0376    1.1610133    30.985945    30.985945    30.985945    29750.497 
  949000    302.54312   -2795.6824   -23010.005   -24910.147    1900.1423    1.1610133    30.985945    30.985945    30.985945    29750.497 
  950000    300.18499   -2594.9233    -23056.66   -24941.992    1885.3319    1.1610133    30.985945    30.985945    30.985945    29750.497 
  951000    304.12973   -2106.3921   -23105.081   -25015.188    1910.1071    1.1610133    30.985945    30.985945    30.985945    29750.497 
  952000    300.06759   -2478.0672    -23034.09   -24918.685    1884.5945    1.1610133    30.985945    30.985945    30.985945    29750.497 
  953000      296.941   -2718.2029   -23113.259   -24978.217    1864.9578    1.1610133    30.985945    30.985945    30.985945    29750.497 
  954000    300.37028   -3033.6956   -23105.655    -24992.15    1886.4956    1.1610133    30.985945    30.985945    30.985945    29750.497 
  955000    304.48452    -2226.238   -23016.668   -24929.004    1912.3353    1.1610133    30.985945    30.985945    30.985945    29750.497 
  956000    300.07503   -2250.4329   -23066.628   -24951.269    1884.6412    1.1610133    30.985945    30.985945    30.985945    29750.497 
  957000    296.41075    -1950.119   -23080.991   -24942.619    1861.6275    1.1610133    30.985945    30.985945    30.985945    29750.497 
  958000    297.89209   -2918.7682   -23125.517   -24996.448    1870.9312    1.1610133    30.985945    30.985945    30.985945    29750.497 
  959000    292.70293   -1221.3597   -23196.935   -25035.275    1838.3403    1.1610133    30.985945    30.985945    30.985945    29750.497 
  960000    305.10668   -1817.1572   -23033.892   -24950.135    1916.2429    1.1610133    30.985945    30.985945    30.985945    29750.497 
  961000    302.14358   -1992.3166   -23112.352   -25009.985    1897.6329    1.1610133    30.985945    30.985945    30.985945    29750.497 
  962000    293.33273   -2383.5883   -23130.234    -24972.53    1842.2958    1.1610133    30.985945    30.985945    30.985945    29750.497 
  963000    292.59961   -1791.1459   -23023.173   -24860.864    1837.6914    1.1610133    30.985945    30.985945    30.985945    29750.497 
  964000    305.93331   -1891.3744   -23039.898   -24961.333    1921.4346    1.1610133    30.985945    30.985945    30.985945    29750.497 
  965000    297.88047    -2394.281   -23164.337   -25035.195    1870.8582    1.1610133    30.985945    30.985945    30.985945    29750.497 
  966000    305.51464   -1347.5384   -23130.478   -25049.283    1918.8051    1.1610133    30.985945    30.985945    30.985945    29750.497 
  967000    299.28691   -2301.1493   -23166.518   -25046.209    1879.6914    1.1610133    30.985945    30.985945    30.985945    29750.497 
  968000    304.67552   -1206.3611    -23052.24   -24965.775     1913.535    1.1610133    30.985945    30.985945    30.985945    29750.497 
  969000    297.02518   -1623.8533   -22999.752   -24865.238    1865.4865    1.1610133    30.985945    30.985945    30.985945    29750.497 
  970000    299.98069   -2037.3936   -23101.789   -24985.838    1884.0488    1.1610133    30.985945    30.985945    30.985945    29750.497 
  971000    306.04502   -2626.6326   -23067.474    -24989.61    1922.1362    1.1610133    30.985945    30.985945    30.985945    29750.497 
  972000     306.8899   -1554.7298   -22983.097   -24910.539    1927.4425    1.1610133    30.985945    30.985945    30.985945    29750.497 
  973000    304.99405   -3106.9927   -23098.233   -25013.768    1915.5355    1.1610133    30.985945    30.985945    30.985945    29750.497 
  974000    302.51847   -2421.4736   -23126.518   -25026.506    1899.9875    1.1610133    30.985945    30.985945    30.985945    29750.497 
  975000    297.82641   -2289.0425   -23082.717   -24953.236    1870.5187    1.1610133    30.985945    30.985945    30.985945    29750.497 
  976000    300.54272   -2892.8187   -23054.763   -24942.341    1887.5786    1.1610133    30.985945    30.985945    30.985945    29750.497 
  977000     298.8895   -1358.0783   -23080.743   -24957.939    1877.1955    1.1610133    30.985945    30.985945    30.985945    29750.497 
  978000     297.3485   -2305.4902   -23105.731   -24973.248    1867.5171    1.1610133    30.985945    30.985945    30.985945    29750.497 
  979000    303.37382   -2743.0388   -23070.653   -24976.012    1905.3596    1.1610133    30.985945    30.985945    30.985945    29750.497 
  980000    294.36505   -2788.1203   -23106.185   -24954.964    1848.7794    1.1610133    30.985945    30.985945    30.985945    29750.497 
  981000    297.55626   -1722.0941   -23074.787   -24943.609    1868.8219    1.1610133    30.985945    30.985945    30.985945    29750.497 
  982000    312.70979   -1887.8109   -22919.964   -24883.959    1963.9947    1.1610133    30.985945    30.985945    30.985945    29750.497 
  983000    300.83817   -1477.3841   -23113.883   -25003.317    1889.4342    1.1610133    30.985945    30.985945    30.985945    29750.497 
  984000    304.05181   -1888.2912   -22996.054   -24905.672    1909.6177    1.1610133    30.985945    30.985945    30.985945    29750.497 
  985000     303.8024   -2569.3319   -23033.181   -24941.232    1908.0513    1.1610133    30.985945    30.985945    30.985945    29750.497 
  986000    302.62489   -3707.1448   -23070.244     -24970.9    1900.6559    1.1610133    30.985945    30.985945    30.985945    29750.497 
  987000    298.62108   -2162.0609   -23102.037   -24977.547    1875.5097    1.1610133    30.985945    30.985945    30.985945    29750.497 
  988000    298.43822   -1837.7807    -23092.41   -24966.772    1874.3612    1.1610133    30.985945    30.985945    30.985945    29750.497 
  989000    304.30892   -2061.9452   -22977.513   -24888.745    1911.2325    1.1610133    30.985945    30.985945    30.985945    29750.497 
  990000    298.51029   -1355.4503   -23130.642   -25005.455    1874.8138    1.1610133    30.985945    30.985945    30.985945    29750.497 
  991000    297.77817   -885.04727   -23045.944    -24916.16    1870.2157    1.1610133    30.985945    30.985945    30.985945    29750.497 
  992000    300.88653   -3196.7203   -23083.102    -24972.84     1889.738    1.1610133    30.985945    30.985945    30.985945    29750.497 
  993000    300.84887   -2416.8393   -23109.623   -24999.124    1889.5014    1.1610133    30.985945    30.985945    30.985945    29750.497 
  994000    296.42817   -1552.8836    -23147.79   -25009.527    1861.7369    1.1610133    30.985945    30.985945    30.985945    29750.497 
  995000     293.7537   -1862.5057   -23088.451   -24933.391    1844.9398    1.1610133    30.985945    30.985945    30.985945    29750.497 
  996000    306.48685   -2133.5835    -23093.44   -25018.351    1924.9111    1.1610133    30.985945    30.985945    30.985945    29750.497 
  997000    298.98018   -2429.2549   -23078.594   -24956.359     1877.765    1.1610133    30.985945    30.985945    30.985945    29750.497 
  998000    301.57289   -2379.2412   -23059.256   -24953.304    1894.0486    1.1610133    30.985945    30.985945    30.985945    29750.497 
  999000    297.44896   -2752.3929   -23064.521   -24932.669     1868.148    1.1610133    30.985945    30.985945    30.985945    29750.497 
 1000000    295.58104   -3627.9969   -23129.901   -24986.318    1856.4164    1.1610133    30.985945    30.985945    30.985945    29750.497 
 1001000    299.16992   -2242.4627   -23104.466   -24983.423    1878.9567    1.1610133    30.985945    30.985945    30.985945    29750.497 
 1002000     298.6715   -991.17975   -23069.224   -24945.051    1875.8263    1.1610133    30.985945    30.985945    30.985945    29750.497 
 1003000    305.48926    -2382.048   -23104.917   -25023.563    1918.6457    1.1610133    30.985945    30.985945    30.985945    29750.497 
 1004000     293.1214   -2768.9452    -23081.58   -24922.548    1840.9685    1.1610133    30.985945    30.985945    30.985945    29750.497 
 1005000    297.04533   -2514.6144   -23056.953   -24922.566     1865.613    1.1610133    30.985945    30.985945    30.985945    29750.497 
 1006000    310.50812   -2420.0181   -23002.161   -24952.328     1950.167    1.1610133    30.985945    30.985945    30.985945    29750.497 
 1007000    297.63094   -2156.5397    -23167.48   -25036.771     1869.291    1.1610133    30.985945    30.985945    30.985945    29750.497 
 1008000     295.6143    -2188.658   -23118.118   -24974.743    1856.6254    1.1610133    30.985945    30.985945    30.985945    29750.497 
 1009000    302.05532   -2121.7102   -23062.244   -24959.322    1897.0786    1.1610133    30.985945    30.985945    30.985945    29750.497 
 1010000     300.4814   -2273.4953   -23029.806   -24916.999    1887.1935    1.1610133    30.985945    30.985945    30.985945    29750.497 
 1011000    299.79787   -2451.8801   -22989.932   -24872.833    1882.9005    1.1610133    30.985945    30.985945    30.985945    29750.497 
 1012000    301.29762   -2471.8118   -22974.307   -24866.627    1892.3198    1.1610133    30.985945    30.985945    30.985945    29750.497 
 1013000    304.33256   -1849.4359   -23057.189    -24968.57     1911.381    1.1610133    30.985945    30.985945    30.985945    29750.497 
 1014000    304.31575   -2865.6894   -23035.047   -24946.322    1911.2754    1.1610133    30.985945    30.985945    30.985945    29750.497 
 1015000    304.53043   -2614.6214   -23120.251   -25032.874    1912.6237    1.1610133    30.985945    30.985945    30.985945    29750.497 
 1016000    295.01514   -1774.9291   -23109.871   -24962.733    1852.8623    1.1610133    30.985945    30.985945    30.985945    29750.497 
 1017000    299.62503    -2529.623   -22955.383   -24837.198     1881.815    1.1610133    30.985945    30.985945    30.985945    29750.497 
 1018000    302.15239    -1631.758   -22995.042   -24892.731    1897.6882    1.1610133    30.985945    30.985945    30.985945    29750.497 
 1019000    290.95353   -2407.6247   -23007.419   -24834.772    1827.3531    1.1610133    30.985945    30.985945    30.985945    29750.497 
 1020000    297.89684   -2719.2092   -23040.258   -24911.219     1870.961    1.1610133    30.985945    30.985945    30.985945    29750.497 
 1021000     310.6545   -2009.1887   -22916.347   -24867.434    1951.0863    1.1610133    30.985945    30.985945    30.985945    29750.497 
 1022000    294.84317   -2937.8792   -23097.571   -24949.353    1851.7822    1.1610133    30.985945    30.985945    30.985945    29750.497 
 1023000    300.01409   -2402.1735   -23052.817   -24937.076    1884.2586    1.1610133    30.985945    30.985945    30.985945    29750.497 
 1024000    301.66089   -2516.4536   -23080.464   -24975.065    1894.6014    1.1610133    30.985945    30.985945    30.985945    29750.497 
 1025000    294.32876   -2860.8851   -23209.366   -25057.918    1848.5514    1.1610133    30.985945    30.985945    30.985945    29750.497 
 1026000    299.07553   -2847.8449   -23148.819   -25027.183    1878.3638    1.1610133    30.985945    30.985945    30.985945    29750.497 
 1027000    303.14932   -2758.8059   -23127.186   -25031.135    1903.9495    1.1610133    30.985945    30.985945    30.985945    29750.497 
 1028000    299.44555    -2968.532   -23048.143   -24928.831    1880.6877    1.1610133    30.985945    30.985945    30.985945    29750.497 
 1029000    298.65332   -2540.1308   -23040.277   -24915.989    1875.7121    1.1610133    30.985945    30.985945    30.985945    29750.497 
 1030000    296.64974   -1876.4919   -23072.935   -24936.064    1863.1285    1.1610133    30.985945    30.985945    30.985945    29750.497 
 1031000    305.60688    -1978.702   -23011.144   -24930.528    1919.3844    1.1610133    30.985945    30.985945    30.985945    29750.497 
 1032000    296.40075   -2529.8423    -23049.63   -24911.194    1861.5647    1.1610133    30.985945    30.985945    30.985945    29750.497 
 1033000    300.47119   -2058.2213   -23008.956   -24896.086    1887.1294    1.1610133    30.985945    30.985945    30.985945    29750.497 
 1034000    300.65741   -2713.2918   -22943.378   -24831.676    1888.2989    1.1610133    30.985945    30.985945    30.985945    29750.497 
 1035000    305.10045   -2297.8967   -22990.764   -24906.967    1916.2038    1.1610133    30.985945    30.985945    30.985945    29750.497 
 1036000    303.24365   -1478.5919   -23011.642   -24916.184     1904.542    1.1610133    30.985945    30.985945    30.985945    29750.497 
 1037000    299.72372   -2363.0307   -23089.087   -24971.522    1882.4349    1.1610133    30.985945    30.985945    30.985945    29750.497 
 1038000    311.66147   -1530.2609   -22967.693   -24925.104    1957.4107    1.1610133    30.985945    30.985945    30.985945    29750.497 
 1039000    297.89765   -2007.0334   -23057.453   -24928.419    1870.9661    1.1610133    30.985945    30.985945    30.985945    29750.497 
 1040000    301.93395   -2186.0799   -23070.654    -24966.97    1896.3163    1.1610133    30.985945    30.985945    30.985945    29750.497 
 1041000    295.13368   -1429.3145   -22986.858   -24840.464    1853.6068    1.1610133    30.985945    30.985945    30.985945    29750.497 
 1042000    300.25306    -2408.025   -23121.317   -25007.077    1885.7594    1.1610133    30.985945    30.985945    30.985945    29750.497 
 1043000    302.45584   -3319.5459   -23155.162   -25054.756    1899.5941    1.1610133    30.985945    30.985945    30.985945    29750.497 
 1044000    290.15796   -2004.2665   -23178.605   -25000.961    1822.3565    1.1610133    30.985945    30.985945    30.985945    29750.497 
 1045000    296.73634   -2662.3656    -23119.77   -24983.443    1863.6724    1.1610133    30.985945    30.985945    30.985945    29750.497 
 1046000    301.05178   -1857.5624   -23047.598   -24938.374    1890.7758    1.1610133    30.985945    30.985945    30.985945    29750.497 
 1047000     295.4092   -2500.4595       -23108   -24963.337    1855.3372    1.1610133    30.985945    30.985945    30.985945    29750.497 
 1048000    295.55857   -2204.0422   -23046.858   -24903.134    1856.2754    1.1610133    30.985945    30.985945    30.985945    29750.497 
 1049000    291.44517   -2966.6813   -23160.997   -24991.438    1830.4408    1.1610133    30.985945    30.985945    30.985945    29750.497 
 1050000    301.46368   -1987.9654   -22915.507   -24808.869    1893.3628    1.1610133    30.985945    30.985945    30.985945    29750.497 
 1051000    307.65694   -1598.7068    -23016.56    -24948.82      1932.26    1.1610133    30.985945    30.985945    30.985945    29750.497 
 1052000    301.09576   -2375.7201   -23095.868    -24986.92     1891.052    1.1610133    30.985945    30.985945    30.985945    29750.497 
 1053000    300.92557   -2007.4156   -23077.743   -24967.726    1889.9831    1.1610133    30.985945    30.985945    30.985945    29750.497 
 1054000     298.9201   -1951.2916   -23108.183   -24985.571    1877.3876    1.1610133    30.985945    30.985945    30.985945    29750.497 
 1055000    296.02075   -1515.9243   -23139.124   -24998.302    1859.1781    1.1610133    30.985945    30.985945    30.985945    29750.497 
 1056000    297.33271   -1970.8275   -23054.487   -24921.905    1867.4179    1.1610133    30.985945    30.985945    30.985945    29750.497 
 1057000    298.85656   -2507.8682   -23095.175   -24972.164    1876.9886    1.1610133    30.985945    30.985945    30.985945    29750.497 
 1058000    291.01273   -3116.1124   -23153.663   -24981.387    1827.7249    1.1610133    30.985945    30.985945    30.985945    29750.497 
 1059000    286.78879   -2626.3562   -23145.816   -24947.012    1801.1962    1.1610133    30.985945    30.985945    30.985945    29750.497 
 1060000    298.56192   -2373.8992   -23008.085   -24883.223    1875.1381    1.1610133    30.985945    30.985945    30.985945    29750.497 
 1061000    300.19454   -2428.2568   -23112.022   -24997.413    1885.3918    1.1610133    30.985945    30.985945    30.985945    29750.497 
 1062000    309.26081   -2233.3576   -23056.214   -24998.547    1942.3331    1.1610133    30.985945    30.985945    30.985945    29750.497 
 1063000    295.32232   -2803.0614   -23085.686   -24940.478    1854.7916    1.1610133    30.985945    30.985945    30.985945    29750.497 
 1064000    303.99248   -2471.8465   -22996.718   -24905.963    1909.2451    1.1610133    30.985945    30.985945    30.985945    29750.497 
 1065000    293.87023   -3202.7512   -23067.999    -24913.67    1845.6716    1.1610133    30.985945    30.985945    30.985945    29750.497 
 1066000    298.82864   -2579.9589   -23108.693   -24985.506    1876.8132    1.1610133    30.985945    30.985945    30.985945    29750.497 
 1067000    292.36315   -2674.3637   -23171.643   -25007.849    1836.2063    1.1610133    30.985945    30.985945    30.985945    29750.497 
 1068000    295.22071   -3256.6644    -23117.16   -24971.313    1854.1534    1.1610133    30.985945    30.985945    30.985945    29750.497 
 1069000    296.51406   -3051.4773   -23133.389   -24995.665    1862.2763    1.1610133    30.985945    30.985945    30.985945    29750.497 
 1070000    293.24971   -3262.5609   -23142.994   -24984.768    1841.7744    1.1610133    30.985945    30.985945    30.985945    29750.497 
 1071000    298.17233   -2977.6386   -23176.838    -25049.53    1872.6912    1.1610133    30.985945    30.985945    30.985945    29750.497 
 1072000    300.73696   -2440.4202   -23075.471    -24964.27    1888.7986    1.1610133    30.985945    30.985945    30.985945    29750.497 
 1073000    295.16761   -1961.8789   -23175.106   -25028.926    1853.8199    1.1610133    30.985945    30.985945    30.985945    29750.497 
 1074000     302.3085   -3115.6972   -23116.165   -25014.834    1898.6687    1.1610133    30.985945    30.985945    30.985945    29750.497 
 1075000    301.19647   -1452.6757   -23083.889   -24975.574    1891.6845    1.1610133    30.985945    30.985945    30.985945    29750.497 
 1076000    300.17658   -1920.1015   -23099.814   -24985.093    1885.2791    1.1610133    30.985945    30.985945    30.985945    29750.497 
 1077000    299.30369   -2329.1758   -23125.278   -25005.075    1879.7968    1.1610133    30.985945    30.985945    30.985945    29750.497 
 1078000    292.43868   -2215.1688   -23071.559    -24908.24    1836.6806    1.1610133    30.985945    30.985945    30.985945    29750.497 
 1079000    297.04531   -1864.2964   -23113.694   -24979.307    1865.6129    1.1610133    30.985945    30.985945    30.985945    29750.497 
 1080000    294.17053   -1410.5683   -23101.426   -24948.983    1847.5576    1.1610133    30.985945    30.985945    30.985945    29750.497 
 1081000    302.20555   -2051.8211   -23057.411   -24955.433    1898.0222    1.1610133    30.985945    30.985945    30.985945    29750.497 
 1082000    293.53411   -2741.5631   -23093.323   -24936.883    1843.5606    1.1610133    30.985945    30.985945    30.985945    29750.497 
 1083000    305.66985   -1991.3816   -23102.907   -25022.687    1919.7799    1.1610133    30.985945    30.985945    30.985945    29750.497 
 1084000    301.44445   -2584.2658   -23135.528    -25028.77     1893.242    1.1610133    30.985945    30.985945    30.985945    29750.497 
 1085000    298.84939   -3468.7099   -23166.692   -25043.636    1876.9435    1.1610133    30.985945    30.985945    30.985945    29750.497 
 1086000    294.88757   -1629.0116   -23168.322   -25020.383    1852.0611    1.1610133    30.985945    30.985945    30.985945    29750.497 
 1087000    294.14579   -1978.8938   -23140.574   -24987.976    1847.4023    1.1610133    30.985945    30.985945    30.985945    29750.497 
 1088000    311.25292   -1396.4143   -23058.985   -25013.829    1954.8448    1.1610133    30.985945    30.985945    30.985945    29750.497 
 1089000    291.97659    -2286.863   -23096.664   -24930.443    1833.7785    1.1610133    30.985945    30.985945    30.985945    29750.497 
 1090000     299.1634   -1976.9122   -23094.825   -24973.741    1878.9157    1.1610133    30.985945    30.985945    30.985945    29750.497 
 1091000    297.16078   -2627.4261   -23168.155   -25034.493    1866.3381    1.1610133    30.985945    30.985945    30.985945    29750.497 
 1092000    298.82613   -2723.7363   -23163.316   -25040.114    1876.7975    1.1610133    30.985945    30.985945    30.985945    29750.497 
 1093000    293.58804   -3408.1186   -23220.291    -25064.19    1843.8993    1.1610133    30.985945    30.985945    30.985945    29750.497 
 1094000    294.71968   -1874.4321   -23172.563    -25023.57    1851.0066    1.1610133    30.985945    30.985945    30.985945    29750.497 
 1095000    304.24576   -2250.3132   -23140.011   -25050.847    1910.8358    1.1610133    30.985945    30.985945    30.985945    29750.497 
 1096000    298.10298   -2089.3181   -23054.355   -24926.611    1872.2557    1.1610133    30.985945    30.985945    30.985945    29750.497 
 1097000    304.69691   -3175.5934   -23098.398   -25012.067    1913.6693    1.1610133    30.985945    30.985945    30.985945    29750.497 
 1098000    298.38075   -1611.6825   -23115.866   -24989.867    1874.0002    1.1610133    30.985945    30.985945    30.985945    29750.497 
 1099000    293.53161   -2418.8812   -23121.324   -24964.869    1843.5449    1.1610133    30.985945    30.985945    30.985945    29750.497 
 1100000    306.98723   -2371.5098    -23046.96   -24975.014    1928.0538    1.1610133    30.985945    30.985945    30.985945    29750.497 
 1101000    306.52024   -2465.6423   -22989.096   -24914.217    1925.1208    1.1610133    30.985945    30.985945    30.985945    29750.497 
 1102000    299.97698   -2000.2459   -23057.386   -24941.412    1884.0255    1.1610133    30.985945    30.985945    30.985945    29750.497 
 1103000    297.55781   -3088.8479   -23017.996   -24886.828    1868.8317    1.1610133    30.985945    30.985945    30.985945    29750.497 
 1104000    293.68103   -1689.1843   -23033.479   -24877.962    1844.4833    1.1610133    30.985945    30.985945    30.985945    29750.497 
 1105000     297.0857   -2281.5445   -23067.712   -24933.578    1865.8666    1.1610133    30.985945    30.985945    30.985945    29750.497 
 1106000    309.07071   -1253.7954   -23017.214   -24958.353    1941.1392    1.1610133    30.985945    30.985945    30.985945    29750.497 
 1107000    303.96638   -2203.8688   -23085.938   -24995.019    1909.0811    1.1610133    30.985945    30.985945    30.985945    29750.497 
 1108000    300.64545   -1886.0513   -23076.764   -24964.988    1888.2238    1.1610133    30.985945    30.985945    30.985945    29750.497 
 1109000    299.99528   -2888.0008   -23066.657   -24950.797    1884.1404    1.1610133    30.985945    30.985945    30.985945    29750.497 
 1110000    296.68575   -3353.3194   -23149.557   -25012.912    1863.3546    1.1610133    30.985945    30.985945    30.985945    29750.497 
 1111000    298.49743    -2599.137   -23195.584   -25070.318     1874.733    1.1610133    30.985945    30.985945    30.985945    29750.497 
 1112000    301.66723   -3042.1839   -23177.763   -25072.404    1894.6412    1.1610133    30.985945    30.985945    30.985945    29750.497 
 1113000    298.71008   -2734.3214   -23161.315   -25037.383    1876.0686    1.1610133    30.985945    30.985945    30.985945    29750.497 
 1114000    295.56659   -2477.7189   -23121.498   -24977.824    1856.3257    1.1610133    30.985945    30.985945    30.985945    29750.497 
 1115000    291.54557   -2900.8161   -23246.605   -25077.677    1831.0714    1.1610133    30.985945    30.985945    30.985945    29750.497 
 1116000    296.79761   -2477.0267   -23131.425   -24995.482    1864.0572    1.1610133    30.985945    30.985945    30.985945    29750.497 
 1117000    295.82041   -2399.2484   -23135.481     -24993.4    1857.9198    1.1610133    30.985945    30.985945    30.985945    29750.497 
 1118000    299.71539   -2191.0771   -23179.939   -25062.321    1882.3825    1.1610133    30.985945    30.985945    30.985945    29750.497 
 1119000    297.47874   -2184.3458   -23135.729   -25004.064    1868.3351    1.1610133    30.985945    30.985945    30.985945    29750.497 
 1120000    299.08076   -2326.3084   -23054.912   -24933.309    1878.3967    1.1610133    30.985945    30.985945    30.985945    29750.497 
 1121000    301.67183   -2523.5825   -23042.272   -24936.942    1894.6701    1.1610133    30.985945    30.985945    30.985945    29750.497 
 1122000    302.56089   -3028.8619   -23037.277    -24937.53    1900.2539    1.1610133    30.985945    30.985945    30.985945    29750.497 
 1123000    298.42336   -2402.6235   -23069.323   -24943.591    1874.2678    1.1610133    30.985945    30.985945    30.985945    29750.497 
 1124000    304.84077   -1831.0858   -23101.331   -25015.904    1914.5728    1.1610133    30.985945    30.985945    30.985945    29750.497 
 1125000    300.19379    -3148.701   -23150.984   -25036.371    1885.3872    1.1610133    30.985945    30.985945    30.985945    29750.497 
 1126000    294.53564   -2836.3109   -23166.921   -25016.772    1849.8508    1.1610133    30.985945    30.985945    30.985945    29750.497 
 1127000    298.50425   -1629.6616   -23109.464    -24984.24    1874.7759    1.1610133    30.985945    30.985945    30.985945    29750.497 
 1128000    289.71242   -2680.5061   -23252.059   -25071.617    1819.5582    1.1610133    30.985945    30.985945    30.985945    29750.497 
 1129000    299.07569   -1801.2982   -23130.116    -25008.48    1878.3648    1.1610133    30.985945    30.985945    30.985945    29750.497 
 1130000    295.59903   -2086.2388    -23101.57   -24958.099    1856.5294    1.1610133    30.985945    30.985945    30.985945    29750.497 
 1131000    295.79243   -1406.1256   -23084.432   -24942.176    1857.7441    1.1610133    30.985945    30.985945    30.985945    29750.497 
 1132000    307.78397   -2428.2104   -23088.115   -25021.173    1933.0578    1.1610133    30.985945    30.985945    30.985945    29750.497 
 1133000    298.01229   -1675.9109   -23112.046   -24983.732    1871.6861    1.1610133    30.985945    30.985945    30.985945    29750.497 
 1134000    300.35866    -1429.975   -23060.861   -24947.283    1886.4226    1.1610133    30.985945    30.985945    30.985945    29750.497 
 1135000    288.60528   -2605.7538   -23185.758   -24998.363    1812.6047    1.1610133    30.985945    30.985945    30.985945    29750.497 
 1136000     298.4268   -2931.9318   -23109.613   -24983.902    1874.2894    1.1610133    30.985945    30.985945    30.985945    29750.497 
 1137000    302.26927   -2841.7205   -23123.482   -25021.904    1898.4223    1.1610133    30.985945    30.985945    30.985945    29750.497 
 1138000    299.85684    -2038.077   -23110.176   -24993.446    1883.2709    1.1610133    30.985945    30.985945    30.985945    29750.497 
 1139000    304.89772   -2120.3309   -23138.769   -25053.699    1914.9305    1.1610133    30.985945    30.985945    30.985945    29750.497 
 1140000    295.05397   -2789.4524   -23189.595   -25042.701    1853.1062    1.1610133    30.985945    30.985945    30.985945    29750.497 
 1141000    305.76803   -1772.7396   -23023.385   -24943.781    1920.3965    1.1610133    30.985945    30.985945    30.985945    29750.497 
 1142000    295.78078   -2620.9856   -23074.311   -24931.982    1857.6709    1.1610133    30.985945    30.985945    30.985945    29750.497 
 1143000    294.52025   -959.47917   -23160.537   -25010.292    1849.7541    1.1610133    30.985945    30.985945    30.985945    29750.497 
 1144000    298.28949   -2918.5755   -23110.152   -24983.579     1873.427    1.1610133    30.985945    30.985945    30.985945    29750.497 
 1145000    303.97502   -3059.9087   -23019.907   -24929.042    1909.1354    1.1610133    30.985945    30.985945    30.985945    29750.497 
 1146000    292.94399   -3329.7088   -23155.327   -24995.181    1839.8543    1.1610133    30.985945    30.985945    30.985945    29750.497 
 1147000    300.99059   -2421.0701    -23001.74   -24892.132    1890.3915    1.1610133    30.985945    30.985945    30.985945    29750.497 
 1148000    299.75699   -1814.0828    -23052.64   -24935.283    1882.6438    1.1610133    30.985945    30.985945    30.985945    29750.497 
 1149000    304.02816   -2585.1138   -23114.015   -25023.484    1909.4692    1.1610133    30.985945    30.985945    30.985945    29750.497 
 1150000    299.45211   -2369.0395   -23170.312   -25051.041    1880.7289    1.1610133    30.985945    30.985945    30.985945    29750.497 
 1151000    292.62529   -2529.7522    -23156.92   -24994.773    1837.8527    1.1610133    30.985945    30.985945    30.985945    29750.497 
 1152000    300.13498   -2502.4169   -23123.964   -25008.981    1885.0178    1.1610133    30.985945    30.985945    30.985945    29750.497 
 1153000    306.07265   -3065.6024   -23099.854   -25022.163    1922.3097    1.1610133    30.985945    30.985945    30.985945    29750.497 
 1154000    304.51372   -2337.5541   -23179.359   -25091.878    1912.5187    1.1610133    30.985945    30.985945    30.985945    29750.497 
 1155000    295.65074   -1532.3555   -23171.693   -25028.547    1856.8542    1.1610133    30.985945    30.985945    30.985945    29750.497 
 1156000    299.46862   -1983.9206   -23080.033   -24960.866    1880.8327    1.1610133    30.985945    30.985945    30.985945    29750.497 
 1157000    305.14254   -2324.2313   -23129.875   -25046.343    1916.4681    1.1610133    30.985945    30.985945    30.985945    29750.497 
 1158000    295.92983   -2437.6392   -23146.468   -25005.075    1858.6071    1.1610133    30.985945    30.985945    30.985945    29750.497 
 1159000    293.42685   -3543.6951   -23067.397   -24910.284    1842.8869    1.1610133    30.985945    30.985945    30.985945    29750.497 
 1160000    306.98735   -3031.2428   -23080.019   -25008.073    1928.0545    1.1610133    30.985945    30.985945    30.985945    29750.497 
 1161000    301.67819    -2159.214    -23134.03    -25028.74      1894.71    1.1610133    30.985945    30.985945    30.985945    29750.497 
 1162000    290.89882    -813.4566   -23076.805   -24903.815    1827.0095    1.1610133    30.985945    30.985945    30.985945    29750.497 
 1163000    297.29332   -2649.0313   -23046.681   -24913.852    1867.1706    1.1610133    30.985945    30.985945    30.985945    29750.497 
 1164000    303.43626   -819.04496   -23112.522   -25018.274    1905.7517    1.1610133    30.985945    30.985945    30.985945    29750.497 
 1165000    301.92801   -2313.5147   -23073.402   -24969.681    1896.2791    1.1610133    30.985945    30.985945    30.985945    29750.497 
 1166000    291.87681    -3112.825   -23156.338    -24989.49    1833.1518    1.1610133    30.985945    30.985945    30.985945    29750.497 
 1167000     296.5072   -2320.1652   -23136.371   -24998.604    1862.2333    1.1610133    30.985945    30.985945    30.985945    29750.497 
 1168000    299.05718    -3277.991   -23164.569   -25042.818    1878.2486    1.1610133    30.985945    30.985945    30.985945    29750.497 
 1169000    292.76874   -3037.6811   -23271.123   -25109.877    1838.7536    1.1610133    30.985945    30.985945    30.985945    29750.497 
 1170000    301.72707   -2871.0269   -23175.199   -25070.216     1895.017    1.1610133    30.985945    30.985945    30.985945    29750.497 
 1171000    293.45769    -1586.046   -23191.246   -25034.326    1843.0806    1.1610133    30.985945    30.985945    30.985945    29750.497 
 1172000    298.10486   -2617.1891   -23146.534   -25018.801    1872.2675    1.1610133    30.985945    30.985945    30.985945    29750.497 
 1173000    299.09276   -2342.7781   -23082.111   -24960.583     1878.472    1.1610133    30.985945    30.985945    30.985945    29750.497 
 1174000     303.0399   -1835.9519   -23124.122   -25027.385    1903.2623    1.1610133    30.985945    30.985945    30.985945    29750.497 
 1175000    308.42044   -2909.1868   -22951.335    -24888.39    1937.0551    1.1610133    30.985945    30.985945    30.985945    29750.497 
 1176000    304.56005   -2178.3432   -23099.478   -25012.288    1912.8098    1.1610133    30.985945    30.985945    30.985945    29750.497 
 1177000    300.17018   -1728.7761    -23114.93   -25000.169    1885.2389    1.1610133    30.985945    30.985945    30.985945    29750.497 
 1178000    292.78656   -2248.9106   -23101.287   -24940.152    1838.8655    1.1610133    30.985945    30.985945    30.985945    29750.497 
 1179000    295.25736   -2049.0819   -23096.252   -24950.636    1854.3835    1.1610133    30.985945    30.985945    30.985945    29750.497 
 1180000    292.46442    -2674.037   -23133.509   -24970.352    1836.8423    1.1610133    30.985945    30.985945    30.985945    29750.497 
 1181000    294.24658   -2892.4612   -23146.717   -24994.752    1848.0353    1.1610133    30.985945    30.985945    30.985945    29750.497 
 1182000    299.72092   -2741.0657   -23068.294   -24950.712    1882.4172    1.1610133    30.985945    30.985945    30.985945    29750.497 
 1183000    298.18716    -1677.391    -23153.02   -25025.804    1872.7844    1.1610133    30.985945    30.985945    30.985945    29750.497 
 1184000    300.79087   -1825.6302   -23171.541   -25060.678    1889.1372    1.1610133    30.985945    30.985945    30.985945    29750.497 
 1185000    301.11824   -2281.2911   -23137.413   -25028.606    1891.1932    1.1610133    30.985945    30.985945    30.985945    29750.497 
 1186000    304.35595    -1866.327   -23121.261   -25032.789    1911.5279    1.1610133    30.985945    30.985945    30.985945    29750.497 
 1187000    295.23109   -1331.7733   -23123.421   -24977.639    1854.2186    1.1610133    30.985945    30.985945    30.985945    29750.497 
 1188000    308.92641   -622.98097   -23046.954   -24987.187     1940.233    1.1610133    30.985945    30.985945    30.985945    29750.497 
 1189000    294.95704   -1891.4719   -23069.709   -24922.206    1852.4974    1.1610133    30.985945    30.985945    30.985945    29750.497 
 1190000    304.45267   -2454.2196   -23058.517   -24970.653    1912.1353    1.1610133    30.985945    30.985945    30.985945    29750.497 
 1191000    306.52606   -1888.1355   -23050.572   -24975.729    1925.1574    1.1610133    30.985945    30.985945    30.985945    29750.497 
 1192000    305.50961   -1615.5476   -23091.702   -25010.476    1918.7735    1.1610133    30.985945    30.985945    30.985945    29750.497 
 1193000    305.57215   -1570.5335   -23084.468   -25003.635    1919.1663    1.1610133    30.985945    30.985945    30.985945    29750.497 
 1194000    305.87514   -2364.7893   -23061.386   -24982.455    1921.0692    1.1610133    30.985945    30.985945    30.985945    29750.497 
 1195000    294.67635    -2671.919   -23152.702   -25003.436    1850.7345    1.1610133    30.985945    30.985945    30.985945    29750.497 
 1196000    292.00666   -2917.2877     -23172.1   -25006.068    1833.9673    1.1610133    30.985945    30.985945    30.985945    29750.497 
 1197000    306.21421     -2950.17   -23089.009   -25012.208    1923.1988    1.1610133    30.985945    30.985945    30.985945    29750.497 
 1198000    299.86081   -3264.3716   -23130.518   -25013.814    1883.2959    1.1610133    30.985945    30.985945    30.985945    29750.497 
 1199000    301.91902   -3399.2556   -23185.131   -25081.354    1896.2226    1.1610133    30.985945    30.985945    30.985945    29750.497 
 1200000    286.35766   -2174.0336   -23245.914   -25044.403    1798.4884    1.1610133    30.985945    30.985945    30.985945    29750.497 
 1201000    305.81618   -2104.0233   -23121.914   -25042.613    1920.6989    1.1610133    30.985945    30.985945    30.985945    29750.497 
 1202000    305.06498   -2583.9854   -23055.124   -24971.105     1915.981    1.1610133    30.985945    30.985945    30.985945    29750.497 
 1203000    299.06118   -2064.7836   -23061.371   -24939.644    1878.2737    1.1610133    30.985945    30.985945    30.985945    29750.497 
 1204000    301.37764   -1681.0002   -23099.554   -24992.377    1892.8224    1.1610133    30.985945    30.985945    30.985945    29750.497 
 1205000    298.62903   -1743.0564    -23169.82   -25045.379    1875.5596    1.1610133    30.985945    30.985945    30.985945    29750.497 
 1206000    297.68367   -2188.3668   -23144.164   -25013.786    1869.6221    1.1610133    30.985945    30.985945    30.985945    29750.497 
 1207000     298.0864   -2260.6974   -23079.371   -24951.523    1872.1516    1.1610133    30.985945    30.985945    30.985945    29750.497 
 1208000    306.68684   -2120.0003   -23142.603    -25068.77    1926.1672    1.1610133    30.985945    30.985945    30.985945    29750.497 
 1209000     298.8654   -2457.2486    -23116.83   -24993.875    1877.0441    1.1610133    30.985945    30.985945    30.985945    29750.497 
 1210000    303.47565   -1111.2817   -23067.297   -24973.296    1905.9991    1.1610133    30.985945    30.985945    30.985945    29750.497 
 1211000    296.85289   -2339.0848   -23066.865   -24931.269    1864.4044    1.1610133    30.985945    30.985945    30.985945    29750.497 
 1212000      295.575   -1653.5646   -23119.676   -24976.054    1856.3785    1.1610133    30.985945    30.985945    30.985945    29750.497 
 1213000    302.12703   -2366.5132   -23024.752    -24922.28     1897.529    1.1610133    30.985945    30.985945    30.985945    29750.497 
 1214000    298.58039   -1970.3763   -23112.722   -24987.976    1875.2541    1.1610133    30.985945    30.985945    30.985945    29750.497 
 1215000    301.71153      -2502.5   -23083.819   -24978.738    1894.9194    1.1610133    30.985945    30.985945    30.985945    29750.497 
 1216000    301.12704    -1134.567   -23119.166   -25010.415    1891.2485    1.1610133    30.985945    30.985945    30.985945    29750.497 
 1217000    300.27196   -2553.0969   -23143.982    -25029.86    1885.8781    1.1610133    30.985945    30.985945    30.985945    29750.497 
 1218000    305.88532   -2252.2743   -23060.303   -24981.436    1921.1332    1.1610133    30.985945    30.985945    30.985945    29750.497 
 1219000    302.56847   -2159.5725   -23067.395   -24967.696    1900.3015    1.1610133    30.985945    30.985945    30.985945    29750.497 
 1220000    305.40529   -2265.8318   -23092.407   -25010.525    1918.1183    1.1610133    30.985945    30.985945    30.985945    29750.497 
 1221000    305.31917   -3029.2021   -23116.966   -25034.543    1917.5774    1.1610133    30.985945    30.985945    30.985945    29750.497 
 1222000    302.18333   -2695.4967   -23117.513   -25015.395    1897.8826    1.1610133    30.985945    30.985945    30.985945    29750.497 
 1223000    300.28085   -3380.0319   -23148.608   -25034.541     1885.934    1.1610133    30.985945    30.985945    30.985945    29750.497 
 1224000    287.83308   -2488.1102   -23147.472   -24955.226    1807.7548    1.1610133    30.985945    30.985945    30.985945    29750.497 
 1225000    287.58681   -1967.6554   -23215.845   -25022.054    1806.2082    1.1610133    30.985945    30.985945    30.985945    29750.497 
 1226000    298.52644   -3011.6625   -23104.132   -24979.047    1874.9153    1.1610133    30.985945    30.985945    30.985945    29750.497 
 1227000    295.44138   -2990.9427   -23140.444   -24995.983    1855.5393    1.1610133    30.985945    30.985945    30.985945    29750.497 
 1228000    299.60925   -2539.1278   -23213.134    -25094.85    1881.7159    1.1610133    30.985945    30.985945    30.985945    29750.497 
 1229000    295.61028   -2233.5572   -23203.295   -25059.895    1856.6001    1.1610133    30.985945    30.985945    30.985945    29750.497 
 1230000    297.29619     -2565.18   -23164.143   -25031.331    1867.1886    1.1610133    30.985945    30.985945    30.985945    29750.497 
 1231000    296.60613   -2211.1716   -23239.085    -25101.94    1862.8546    1.1610133    30.985945    30.985945    30.985945    29750.497 
 1232000    297.51298   -1075.2337   -23159.116   -25027.666    1868.5502    1.1610133    30.985945    30.985945    30.985945    29750.497 
 1233000     302.1455   -2292.5702   -23086.266   -24983.911     1897.645    1.1610133    30.985945    30.985945    30.985945    29750.497 
 1234000    298.78055   -2390.8326   -23129.286   -25005.797    1876.5112    1.1610133    30.985945    30.985945    30.985945    29750.497 
 1235000    294.93339   -1772.3646   -23138.643   -24990.992    1852.3488    1.1610133    30.985945    30.985945    30.985945    29750.497 
 1236000    290.13575   -2672.4883   -23168.429   -24990.646    1822.2169    1.1610133    30.985945    30.985945    30.985945    29750.497 
 1237000    298.66906   -2346.9276   -23073.177   -24948.988     1875.811    1.1610133    30.985945    30.985945    30.985945    29750.497 
 1238000    292.49687   -2280.1162   -23135.442   -24972.488    1837.0461    1.1610133    30.985945    30.985945    30.985945    29750.497 
 1239000    299.95839   -2326.0521   -23171.341    -25055.25    1883.9087    1.1610133    30.985945    30.985945    30.985945    29750.497 
 1240000     299.7129   -2089.5103   -23113.903   -24996.269    1882.3669    1.1610133    30.985945    30.985945    30.985945    29750.497 
 1241000    296.80631   -1615.1952    -23145.63   -25009.742    1864.1118    1.1610133    30.985945    30.985945    30.985945    29750.497 
 1242000    293.60714   -2286.7508   -23209.624   -25053.643    1844.0192    1.1610133    30.985945    30.985945    30.985945    29750.497 
 1243000    300.47515   -2231.3709   -23156.171   -25043.325    1887.1542    1.1610133    30.985945    30.985945    30.985945    29750.497 
 1244000    297.35258   -3336.8865   -23096.968   -24964.511    1867.5428    1.1610133    30.985945    30.985945    30.985945    29750.497 
 1245000    293.86326   -2186.4286   -23222.652    -25068.28    1845.6278    1.1610133    30.985945    30.985945    30.985945    29750.497 
 1246000    291.17028   -3403.1518   -23176.321   -25005.036    1828.7144    1.1610133    30.985945    30.985945    30.985945    29750.497 
 1247000     294.1731    -2178.976   -23069.149   -24916.722    1847.5738    1.1610133    30.985945    30.985945    30.985945    29750.497 
 1248000    296.87375   -2293.2716   -23149.919   -25014.455    1864.5354    1.1610133    30.985945    30.985945    30.985945    29750.497 
 1249000    304.16611   -2108.6719   -23207.546   -25117.882    1910.3355    1.1610133    30.985945    30.985945    30.985945    29750.497 
 1250000      291.713   -1795.4209   -23185.206   -25017.329     1832.123    1.1610133    30.985945    30.985945    30.985945    29750.497 
 1251000    295.77839   -3206.7571   -23180.169   -25037.824    1857.6559    1.1610133    30.985945    30.985945    30.985945    29750.497 
 1252000    304.22585   -2614.6553   -23018.281   -24928.991    1910.7108    1.1610133    30.985945    30.985945    30.985945    29750.497 
 1253000     301.8626   -2563.0833   -23101.739   -24997.608    1895.8682    1.1610133    30.985945    30.985945    30.985945    29750.497 
 1254000    302.35688   -1341.8911   -23147.524   -25046.496    1898.9726    1.1610133    30.985945    30.985945    30.985945    29750.497 
 1255000    304.13341    -2413.392    -23054.24    -24964.37    1910.1302    1.1610133    30.985945    30.985945    30.985945    29750.497 
 1256000    302.24736   -2180.9758   -23013.275    -24911.56    1898.2847    1.1610133    30.985945    30.985945    30.985945    29750.497 
 1257000    304.11965   -2222.2421    -23040.82   -24950.864    1910.0438    1.1610133    30.985945    30.985945    30.985945    29750.497 
 1258000    304.74877   -2130.7868   -23109.377   -25023.372     1913.995    1.1610133    30.985945    30.985945    30.985945    29750.497 
 1259000    308.80471   -1870.5549   -23103.524   -25042.993    1939.4686    1.1610133    30.985945    30.985945    30.985945    29750.497 
 1260000    297.38628    -1494.669   -23108.328   -24976.083    1867.7544    1.1610133    30.985945    30.985945    30.985945    29750.497 
 1261000    302.28791   -3101.9653   -23091.735   -24990.274    1898.5394    1.1610133    30.985945    30.985945    30.985945    29750.497 
 1262000    291.76822   -2065.2731   -23129.842   -24962.312    1832.4698    1.1610133    30.985945    30.985945    30.985945    29750.497 
 1263000    295.29233   -1841.9825   -23099.167    -24953.77    1854.6032    1.1610133    30.985945    30.985945    30.985945    29750.497 
 1264000    306.28506   -2412.9292   -23079.711   -25003.355    1923.6437    1.1610133    30.985945    30.985945    30.985945    29750.497 
 1265000    298.36186   -2773.1645   -23117.368    -24991.25    1873.8816    1.1610133    30.985945    30.985945    30.985945    29750.497 
 1266000    305.06689    -2755.412   -23095.949   -25011.942     1915.993    1.1610133    30.985945    30.985945    30.985945    29750.497 
 1267000    298.77495   -2334.6756   -23149.696   -25026.172     1876.476    1.1610133    30.985945    30.985945    30.985945    29750.497 
 1268000    297.69485   -2963.9129   -23224.193   -25093.886    1869.6924    1.1610133    30.985945    30.985945    30.985945    29750.497 
 1269000    298.45399   -2368.1377   -23091.195   -24965.655    1874.4602    1.1610133    30.985945    30.985945    30.985945    29750.497 
 1270000    294.57815   -2909.8233   -23149.851   -24999.969    1850.1177    1.1610133    30.985945    30.985945    30.985945    29750.497 
 1271000    299.49969   -1865.9657    -23118.28   -24999.308    1881.0278    1.1610133    30.985945    30.985945    30.985945    29750.497 
 1272000    294.02415   -1845.3909   -23213.867   -25060.505    1846.6383    1.1610133    30.985945    30.985945    30.985945    29750.497 
 1273000    291.74617   -1862.0374   -23196.095   -25028.426    1832.3313    1.1610133    30.985945    30.985945    30.985945    29750.497 
 1274000    301.02485     -2142.18   -23146.806   -25037.412    1890.6067    1.1610133    30.985945    30.985945    30.985945    29750.497 
 1275000    299.34777   -2491.3213   -23138.693   -25018.767    1880.0737    1.1610133    30.985945    30.985945    30.985945    29750.497 
 1276000    296.91139   -2313.5979   -23133.767   -24998.539    1864.7718    1.1610133    30.985945    30.985945    30.985945    29750.497 
 1277000    299.71229   -3197.6031   -23072.404   -24954.767     1882.363    1.1610133    30.985945    30.985945    30.985945    29750.497 
 1278000    291.55132    -2183.834   -23163.288   -24994.395    1831.1075    1.1610133    30.985945    30.985945    30.985945    29750.497 
 1279000    302.83272   -3218.8371   -23174.813   -25076.774    1901.9611    1.1610133    30.985945    30.985945    30.985945    29750.497 
 1280000    297.93075   -1651.6739   -23100.255   -24971.429     1871.174    1.1610133    30.985945    30.985945    30.985945    29750.497 
 1281000    296.93884   -2393.0363   -23118.618   -24983.562    1864.9442    1.1610133    30.985945    30.985945    30.985945    29750.497 
 1282000    289.40838   -2507.7645   -23302.371    -25120.02    1817.6486    1.1610133    30.985945    30.985945    30.985945    29750.497 
 1283000    300.29327   -2874.9635   -23159.703   -25045.715    1886.0119    1.1610133    30.985945    30.985945    30.985945    29750.497 
 1284000    294.71023   -2155.7504    -23146.15   -24997.098    1850.9473    1.1610133    30.985945    30.985945    30.985945    29750.497 
 1285000    291.50556   -1659.0013   -23178.327   -25009.147    1830.8201    1.1610133    30.985945    30.985945    30.985945    29750.497 
 1286000    300.20713   -2638.2182   -23226.403   -25111.874    1885.4709    1.1610133    30.985945    30.985945    30.985945    29750.497 
 1287000    304.82043   -2979.5474   -23097.424   -25011.869    1914.4451    1.1610133    30.985945    30.985945    30.985945    29750.497 
 1288000    309.93455    -2338.553   -23088.026   -25034.591    1946.5646    1.1610133    30.985945    30.985945    30.985945    29750.497 
 1289000    295.56263   -3434.1547   -23163.926   -25020.227    1856.3008    1.1610133    30.985945    30.985945    30.985945    29750.497 
 1290000     296.4118   -2810.6585   -23126.672   -24988.306    1861.6341    1.1610133    30.985945    30.985945    30.985945    29750.497 
 1291000    297.16883   -2379.0136   -23201.387   -25067.776    1866.3887    1.1610133    30.985945    30.985945    30.985945    29750.497 
 1292000    299.52389   -2991.1313   -23086.474   -24967.653    1881.1798    1.1610133    30.985945    30.985945    30.985945    29750.497 
 1293000     303.2442   -1884.3176   -23195.511   -25100.056    1904.5455    1.1610133    30.985945    30.985945    30.985945    29750.497 
 1294000    299.41741   -1271.1154   -23130.746   -25011.257     1880.511    1.1610133    30.985945    30.985945    30.985945    29750.497 
 1295000    310.78411   -1659.4214    -22958.86    -24910.76    1951.9004    1.1610133    30.985945    30.985945    30.985945    29750.497 
 1296000     296.9497     -2169.32   -23166.628   -25031.641    1865.0124    1.1610133    30.985945    30.985945    30.985945    29750.497 
 1297000    309.53931    -1805.561     -23054.4   -24998.482    1944.0823    1.1610133    30.985945    30.985945    30.985945    29750.497 
 1298000    295.71238   -2913.5618   -23183.635   -25040.877    1857.2414    1.1610133    30.985945    30.985945    30.985945    29750.497 
 1299000    301.75533   -2624.7305   -23074.646   -24969.841    1895.1945    1.1610133    30.985945    30.985945    30.985945    29750.497 
 1300000    300.37378   -2226.4749    -23212.11   -25098.627    1886.5176    1.1610133    30.985945    30.985945    30.985945    29750.497 
 1301000    288.59532   -2795.3805   -23213.671   -25026.213    1812.5422    1.1610133    30.985945    30.985945    30.985945    29750.497 
 1302000    301.32506   -1689.0882   -23140.531   -25033.024    1892.4921    1.1610133    30.985945    30.985945    30.985945    29750.497 
 1303000    315.89336   -1672.5725   -23054.925   -25038.914    1983.9894    1.1610133    30.985945    30.985945    30.985945    29750.497 
 1304000    300.53358   -2118.0726    -23169.74   -25057.261    1887.5212    1.1610133    30.985945    30.985945    30.985945    29750.497 
 1305000    291.27309   -2639.4966    -23175.34   -25004.701    1829.3601    1.1610133    30.985945    30.985945    30.985945    29750.497 
 1306000    297.82643   -1593.7071    -23181.48   -25051.999    1870.5188    1.1610133    30.985945    30.985945    30.985945    29750.497 
 1307000     295.3943   -3006.4634   -23235.475   -25090.719    1855.2437    1.1610133    30.985945    30.985945    30.985945    29750.497 
 1308000    304.07026   -3147.3938   -23186.329   -25096.063    1909.7336    1.1610133    30.985945    30.985945    30.985945    29750.497 
 1309000    297.43162   -3385.7723   -23140.568   -25008.607    1868.0391    1.1610133    30.985945    30.985945    30.985945    29750.497 
 1310000    301.46739   -2288.7948   -23137.573   -25030.959    1893.3861    1.1610133    30.985945    30.985945    30.985945    29750.497 
 1311000    307.00337   -2691.3594   -23088.563   -25016.719    1928.1551    1.1610133    30.985945    30.985945    30.985945    29750.497 
 1312000    296.86743   -2175.5796   -23143.929   -25008.425    1864.4957    1.1610133    30.985945    30.985945    30.985945    29750.497 
 1313000    306.53981    -3005.353   -23063.185   -24988.428    1925.2437    1.1610133    30.985945    30.985945    30.985945    29750.497 
 1314000    306.21684   -2051.0283    -23162.63   -25085.845    1923.2153    1.1610133    30.985945    30.985945    30.985945    29750.497 
 1315000    301.34406   -1613.2581   -23175.179   -25067.791    1892.6115    1.1610133    30.985945    30.985945    30.985945    29750.497 
 1316000    297.36564   -1819.0043   -23128.842   -24996.466    1867.6247    1.1610133    30.985945    30.985945    30.985945    29750.497 
 1317000    295.40733   -2383.5699   -23162.687   -25018.012    1855.3255    1.1610133    30.985945    30.985945    30.985945    29750.497 
 1318000    294.14606   -2320.3947     -23245.8   -25093.204    1847.4039    1.1610133    30.985945    30.985945    30.985945    29750.497 
 1319000    293.82804   -1661.9438   -23246.862   -25092.269    1845.4067    1.1610133    30.985945    30.985945    30.985945    29750.497 
 1320000    303.66511   -1867.5303   -23099.687   -25006.876     1907.189    1.1610133    30.985945    30.985945    30.985945    29750.497 
 1321000    298.87938   -2583.3597   -23185.098    -25062.23    1877.1319    1.1610133    30.985945    30.985945    30.985945    29750.497 
 1322000    297.90065   -2314.9703   -23180.377   -25051.362    1870.9849    1.1610133    30.985945    30.985945    30.985945    29750.497 
 1323000    301.06305   -3256.2827   -23207.823   -25098.669    1890.8466    1.1610133    30.985945    30.985945    30.985945    29750.497 
 1324000     300.5549   -2209.3629   -23123.185    -25010.84    1887.6551    1.1610133    30.985945    30.985945    30.985945    29750.497 
 1325000    294.63591   -3476.6085   -23234.254   -25084.734    1850.4805    1.1610133    30.985945    30.985945    30.985945    29750.497 
 1326000    303.66933   -2656.9218   -23139.852   -25047.068    1907.2155    1.1610133    30.985945    30.985945    30.985945    29750.497 
 1327000    294.40352   -2097.7571   -23169.986   -25019.007     1849.021    1.1610133    30.985945    30.985945    30.985945    29750.497 
 1328000    296.02971   -2867.6057   -23160.213   -25019.448    1859.2343    1.1610133    30.985945    30.985945    30.985945    29750.497 
 1329000    301.99759   -3069.7151   -23198.707   -25095.423    1896.7161    1.1610133    30.985945    30.985945    30.985945    29750.497 
 1330000    294.97713   -1796.8861   -23062.414   -24915.038    1852.6235    1.1610133    30.985945    30.985945    30.985945    29750.497 
 1331000    303.77994   -2317.3811   -23076.422   -24984.332    1907.9102    1.1610133    30.985945    30.985945    30.985945    29750.497 
 1332000    294.42365   -2493.1751   -23170.242    -25019.39    1849.1474    1.1610133    30.985945    30.985945    30.985945    29750.497 
 1333000     307.5109   -2262.4591   -23025.746   -24957.089    1931.3427    1.1610133    30.985945    30.985945    30.985945    29750.497 
 1334000    297.18425   -2009.3738   -23058.231   -24924.717    1866.4855    1.1610133    30.985945    30.985945    30.985945    29750.497 
 1335000    300.96887    -3084.486   -23139.642   -25029.897    1890.2551    1.1610133    30.985945    30.985945    30.985945    29750.497 
 1336000    297.97504   -2760.4595    -23201.67   -25073.122    1871.4521    1.1610133    30.985945    30.985945    30.985945    29750.497 
 1337000    304.24718   -1901.2569   -23196.097   -25106.942    1910.8447    1.1610133    30.985945    30.985945    30.985945    29750.497 
 1338000    293.37227    -1923.442   -23238.814   -25081.358    1842.5441    1.1610133    30.985945    30.985945    30.985945    29750.497 
 1339000    296.32225   -1648.4441    -23245.49   -25106.562    1861.0717    1.1610133    30.985945    30.985945    30.985945    29750.497 
 1340000    296.41917   -1829.7102   -23174.072   -25035.753    1861.6804    1.1610133    30.985945    30.985945    30.985945    29750.497 
 1341000    294.70154   -2693.4854   -23241.211   -25092.104    1850.8927    1.1610133    30.985945    30.985945    30.985945    29750.497 
 1342000    299.51546   -2062.3431    -23166.07   -25047.197    1881.1268    1.1610133    30.985945    30.985945    30.985945    29750.497 
 1343000    299.16824   -2460.5886   -23188.098   -25067.044    1878.9461    1.1610133    30.985945    30.985945    30.985945    29750.497 
 1344000    302.02914   -1586.6476   -23125.079   -25021.993    1896.9142    1.1610133    30.985945    30.985945    30.985945    29750.497 
 1345000    291.30742   -1716.3159   -23250.344    -25079.92    1829.5757    1.1610133    30.985945    30.985945    30.985945    29750.497 
 1346000    304.21782   -1911.7411   -23054.088   -24964.748    1910.6603    1.1610133    30.985945    30.985945    30.985945    29750.497 
 1347000    297.53468   -2865.7602   -23195.259   -25063.945    1868.6864    1.1610133    30.985945    30.985945    30.985945    29750.497 
 1348000    293.04751   -2792.1544   -23124.701   -24965.205    1840.5044    1.1610133    30.985945    30.985945    30.985945    29750.497 
 1349000    303.13759   -2289.1581   -23113.782   -25017.658    1903.8759    1.1610133    30.985945    30.985945    30.985945    29750.497 
 1350000    297.87267   -2019.4396   -23125.133   -24995.943    1870.8092    1.1610133    30.985945    30.985945    30.985945    29750.497 
 1351000    295.89638   -1797.7798   -23170.079   -25028.476     1858.397    1.1610133    30.985945    30.985945    30.985945    29750.497 
 1352000    296.20909   -2975.8014   -23184.177   -25044.538     1860.361    1.1610133    30.985945    30.985945    30.985945    29750.497 
 1353000    294.54027   -1893.4653   -23202.474   -25052.354    1849.8798    1.1610133    30.985945    30.985945    30.985945    29750.497 
 1354000    305.25677   -1235.8403   -23133.639   -25050.824    1917.1855    1.1610133    30.985945    30.985945    30.985945    29750.497 
 1355000    306.93953   -2686.1454   -23089.773   -25017.527    1927.7542    1.1610133    30.985945    30.985945    30.985945    29750.497 
 1356000    299.13185   -1884.9372   -23216.967   -25095.684    1878.7176    1.1610133    30.985945    30.985945    30.985945    29750.497 
 1357000    289.80487   -3664.4386   -23256.131    -25076.27    1820.1389    1.1610133    30.985945    30.985945    30.985945    29750.497 
 1358000      302.336   -3481.4184   -23131.745   -25030.586    1898.8414    1.1610133    30.985945    30.985945    30.985945    29750.497 
 1359000     297.6951   -1923.4065   -23210.181   -25079.875    1869.6939    1.1610133    30.985945    30.985945    30.985945    29750.497 
 1360000    294.35443   -3512.8585   -23112.964   -24961.676    1848.7126    1.1610133    30.985945    30.985945    30.985945    29750.497 
 1361000    304.88979   -1418.4297   -23059.125   -24974.005    1914.8807    1.1610133    30.985945    30.985945    30.985945    29750.497 
 1362000    297.20952   -3296.0875   -23110.881   -24977.525    1866.6442    1.1610133    30.985945    30.985945    30.985945    29750.497 
 1363000    300.60513    -2791.703   -23100.145   -24988.116    1887.9706    1.1610133    30.985945    30.985945    30.985945    29750.497 
 1364000    295.97652   -2851.4154   -23236.364   -25095.265    1858.9003    1.1610133    30.985945    30.985945    30.985945    29750.497 
 1365000    294.25645   -2904.9846    -23167.61   -25015.707    1848.0973    1.1610133    30.985945    30.985945    30.985945    29750.497 
 1366000     296.5175   -1794.4843   -23236.043   -25098.341     1862.298    1.1610133    30.985945    30.985945    30.985945    29750.497 
 1367000    286.78051   -3090.0017   -23253.359   -25054.503    1801.1442    1.1610133    30.985945    30.985945    30.985945    29750.497 
 1368000     295.1365   -2274.6801   -23212.944   -25066.568    1853.6245    1.1610133    30.985945    30.985945    30.985945    29750.497 
 1369000    299.79107   -2747.9352   -23139.396   -25022.254    1882.8578    1.1610133    30.985945    30.985945    30.985945    29750.497 
 1370000    293.81048   -2042.3994   -23168.733   -25014.029    1845.2963    1.1610133    30.985945    30.985945    30.985945    29750.497 
 1371000     294.1471   -3125.5804   -23156.477   -25003.887    1847.4105    1.1610133    30.985945    30.985945    30.985945    29750.497 
 1372000    294.95114   -2496.3716   -23089.964   -24942.424    1852.4604    1.1610133    30.985945    30.985945    30.985945    29750.497 
 1373000    293.98554   -2042.6751   -23216.449   -25062.845    1846.3958    1.1610133    30.985945    30.985945    30.985945    29750.497 
 1374000    299.77786   -2075.1636   -23120.909   -25003.684    1882.7749    1.1610133    30.985945    30.985945    30.985945    29750.497 
 1375000    304.20994   -1660.4277   -23089.899    -25000.51    1910.6108    1.1610133    30.985945    30.985945    30.985945    29750.497 
 1376000    298.89763   -2388.4337   -23146.725   -25023.972    1877.2465    1.1610133    30.985945    30.985945    30.985945    29750.497 
 1377000    298.95671   -3223.4621   -23102.223   -24979.841    1877.6176    1.1610133    30.985945    30.985945    30.985945    29750.497 
 1378000    295.20274   -2504.9736   -23228.724   -25082.764    1854.0405    1.1610133    30.985945    30.985945    30.985945    29750.497 
 1379000    290.66261   -2298.8316   -23156.828   -24982.354    1825.5259    1.1610133    30.985945    30.985945    30.985945    29750.497 
 1380000    294.06752   -2400.1239   -23167.342   -25014.253    1846.9107    1.1610133    30.985945    30.985945    30.985945    29750.497 
 1381000    296.58128   -2476.7644   -23091.989   -24954.688    1862.6985    1.1610133    30.985945    30.985945    30.985945    29750.497 
 1382000    294.47791   -2008.1639   -23080.741   -24930.229    1849.4882    1.1610133    30.985945    30.985945    30.985945    29750.497 
 1383000    296.08014   -2938.4827   -23140.742   -25000.293    1859.5511    1.1610133    30.985945    30.985945    30.985945    29750.497 
 1384000    300.71652   -2383.1515   -23073.301   -24961.971    1888.6702    1.1610133    30.985945    30.985945    30.985945    29750.497 
 1385000    303.36119   -2854.3034   -23097.765   -25003.045    1905.2802    1.1610133    30.985945    30.985945    30.985945    29750.497 
 1386000    289.48747   -2664.3705    -23095.61   -24913.755    1818.1454    1.1610133    30.985945    30.985945    30.985945    29750.497 
 1387000    300.60656   -3088.1185   -23099.871    -24987.85    1887.9796    1.1610133    30.985945    30.985945    30.985945    29750.497 
 1388000    288.29764   -2700.6926    -23250.51   -25061.182    1810.6726    1.1610133    30.985945    30.985945    30.985945    29750.497 
 1389000    300.24502   -2520.1483   -23199.153   -25084.862    1885.7089    1.1610133    30.985945    30.985945    30.985945    29750.497 
 1390000    297.17793   -2905.7548   -23198.801   -25065.247    1866.4458    1.1610133    30.985945    30.985945    30.985945    29750.497 
 1391000    300.40515   -2770.4454   -23181.461   -25068.176    1886.7146    1.1610133    30.985945    30.985945    30.985945    29750.497 
 1392000    297.36051   -2649.4302   -23157.474   -25025.067    1867.5926    1.1610133    30.985945    30.985945    30.985945    29750.497 
 1393000    305.73208   -2276.2902   -23099.886   -25020.056    1920.1708    1.1610133    30.985945    30.985945    30.985945    29750.497 
 1394000    297.09974   -2785.3845   -23081.875    -24947.83    1865.9548    1.1610133    30.985945    30.985945    30.985945    29750.497 
 1395000    292.72413   -3068.6508   -23112.627     -24951.1    1838.4734    1.1610133    30.985945    30.985945    30.985945    29750.497 
 1396000    299.44811   -2097.2497   -23109.161   -24989.865    1880.7038    1.1610133    30.985945    30.985945    30.985945    29750.497 
 1397000    292.80034    -1791.155   -23181.395   -25020.347    1838.9521    1.1610133    30.985945    30.985945    30.985945    29750.497 
 1398000    292.97517   -2699.3811   -23157.328   -24997.378    1840.0501    1.1610133    30.985945    30.985945    30.985945    29750.497 
 1399000    306.61491   -2137.7279   -23075.066   -25000.782    1925.7154    1.1610133    30.985945    30.985945    30.985945    29750.497 
 1400000     292.3308   -2708.4384   -23143.945   -24979.948    1836.0031    1.1610133    30.985945    30.985945    30.985945    29750.497 
 1401000    294.46611    -3258.859   -23130.334   -24979.748    1849.4141    1.1610133    30.985945    30.985945    30.985945    29750.497 
 1402000    300.98985   -3157.2727   -23148.833    -25039.22    1890.3868    1.1610133    30.985945    30.985945    30.985945    29750.497 
 1403000    307.92512   -1499.5868   -23089.363   -25023.307    1933.9443    1.1610133    30.985945    30.985945    30.985945    29750.497 
 1404000      296.489   -1838.8007   -23092.975   -24955.094     1862.119    1.1610133    30.985945    30.985945    30.985945    29750.497 
 1405000    288.18609   -3414.2177    -23250.19   -25060.162     1809.972    1.1610133    30.985945    30.985945    30.985945    29750.497 
 1406000    300.77439   -1160.8204   -23195.553   -25084.587    1889.0336    1.1610133    30.985945    30.985945    30.985945    29750.497 
 1407000    295.64052   -2087.4568   -23095.768   -24952.558      1856.79    1.1610133    30.985945    30.985945    30.985945    29750.497 
 1408000    295.60762   -2177.5749   -23172.897    -25029.48    1856.5834    1.1610133    30.985945    30.985945    30.985945    29750.497 
 1409000    293.66799   -2660.2697   -23013.745   -24858.147    1844.4014    1.1610133    30.985945    30.985945    30.985945    29750.497 
 1410000    295.23849   -2349.3229   -23122.192   -24976.457    1854.2651    1.1610133    30.985945    30.985945    30.985945    29750.497 
 1411000    300.14538   -2396.1601   -23109.573   -24994.656    1885.0831    1.1610133    30.985945    30.985945    30.985945    29750.497 
 1412000    300.32957    -3072.338   -23065.987   -24952.227    1886.2399    1.1610133    30.985945    30.985945    30.985945    29750.497 
 1413000    305.27352   -3050.7685   -23013.483   -24930.774    1917.2907    1.1610133    30.985945    30.985945    30.985945    29750.497 
 1414000    297.91563   -2089.1562   -23126.563   -24997.642     1871.079    1.1610133    30.985945    30.985945    30.985945    29750.497 
 1415000    298.56127   -2679.5866    -23143.19   -25018.324     1875.134    1.1610133    30.985945    30.985945    30.985945    29750.497 
 1416000    296.13997   -2293.1183   -23163.939   -25023.866    1859.9269    1.1610133    30.985945    30.985945    30.985945    29750.497 
 1417000    300.08045   -1920.9475   -23143.313   -25027.988    1884.6753    1.1610133    30.985945    30.985945    30.985945    29750.497 
 1418000    309.88391   -3284.7377   -23021.912   -24968.159    1946.2466    1.1610133    30.985945    30.985945    30.985945    29750.497 
 1419000    299.47792   -2703.9005   -23170.786   -25051.677    1880.8911    1.1610133    30.985945    30.985945    30.985945    29750.497 
 1420000    304.81694   -2356.5579   -23167.599   -25082.023    1914.4231    1.1610133    30.985945    30.985945    30.985945    29750.497 
 1421000    305.39461   -2116.3928   -23069.992   -24988.043    1918.0513    1.1610133    30.985945    30.985945    30.985945    29750.497 
 1422000    296.20323   -2497.8094   -23191.437   -25051.761    1860.3242    1.1610133    30.985945    30.985945    30.985945    29750.497 
 1423000     300.5703   -3505.0156   -23274.402   -25162.154    1887.7518    1.1610133    30.985945    30.985945    30.985945    29750.497 
 1424000    302.31178   -2371.5792   -23143.301    -25041.99    1898.6893    1.1610133    30.985945    30.985945    30.985945    29750.497 
 1425000    293.64998   -2594.1083   -23198.128   -25042.417    1844.2883    1.1610133    30.985945    30.985945    30.985945    29750.497 
 1426000    299.34874   -2846.3011   -23156.235   -25036.314    1880.0797    1.1610133    30.985945    30.985945    30.985945    29750.497 
 1427000    303.25821   -2110.7648   -23202.309   -25106.943    1904.6334    1.1610133    30.985945    30.985945    30.985945    29750.497 
 1428000    303.53167   -2155.1078   -23071.483   -24977.834    1906.3509    1.1610133    30.985945    30.985945    30.985945    29750.497 
 1429000    288.21617   -2945.9902   -23226.185   -25036.346    1810.1609    1.1610133    30.985945    30.985945    30.985945    29750.497 
 1430000    299.90613   -2639.6494   -23072.011   -24955.591    1883.5805    1.1610133    30.985945    30.985945    30.985945    29750.497 
 1431000    293.87106   -2916.3458   -23178.507   -25024.184    1845.6768    1.1610133    30.985945    30.985945    30.985945    29750.497 
 1432000    301.36587   -2756.2342    -23115.96   -25008.708    1892.7485    1.1610133    30.985945    30.985945    30.985945    29750.497 
 1433000    295.84473   -2637.3901   -23169.013   -25027.085    1858.0726    1.1610133    30.985945    30.985945    30.985945    29750.497 
 1434000    303.22721   -2513.8493   -23152.411    -25056.85    1904.4388    1.1610133    30.985945    30.985945    30.985945    29750.497 
 1435000     290.8602   -2066.2287   -23197.191   -25023.958    1826.7669    1.1610133    30.985945    30.985945    30.985945    29750.497 
 1436000    296.37333    -2645.634   -23169.225   -25030.617    1861.3925    1.1610133    30.985945    30.985945    30.985945    29750.497 
 1437000    306.94333    -2974.512    -23183.31   -25111.088    1927.7781    1.1610133    30.985945    30.985945    30.985945    29750.497 
 1438000     298.0548   -1703.9136   -23185.259   -25057.212    1871.9531    1.1610133    30.985945    30.985945    30.985945    29750.497 
 1439000    302.17923   -2910.0864   -23208.547   -25106.404    1897.8568    1.1610133    30.985945    30.985945    30.985945    29750.497 
 1440000    304.62896   -2887.6519   -23173.434   -25086.676    1913.2425    1.1610133    30.985945    30.985945    30.985945    29750.497 
 1441000    309.69749   -2078.3297   -23062.197   -25007.273    1945.0757    1.1610133    30.985945    30.985945    30.985945    29750.497 
 1442000    304.73637   -2281.4526   -23097.142    -25011.06    1913.9171    1.1610133    30.985945    30.985945    30.985945    29750.497 
 1443000    302.26567   -2772.5851   -23094.004   -24992.403    1898.3997    1.1610133    30.985945    30.985945    30.985945    29750.497 
 1444000     302.1317   -3572.9008   -23151.572    -25049.13    1897.5583    1.1610133    30.985945    30.985945    30.985945    29750.497 
 1445000    298.59631   -3186.8053   -23247.842   -25123.196    1875.3541    1.1610133    30.985945    30.985945    30.985945    29750.497 
 1446000    290.50294   -3347.7834   -23209.203   -25033.726    1824.5231    1.1610133    30.985945    30.985945    30.985945    29750.497 
 1447000    295.08942   -1850.3931    -23222.61   -25075.938    1853.3288    1.1610133    30.985945    30.985945    30.985945    29750.497 
 1448000    303.34202   -1975.8189   -23155.763   -25060.923    1905.1598    1.1610133    30.985945    30.985945    30.985945    29750.497 
 1449000    297.78072   -3495.6808   -23203.839    -25074.07    1870.2317    1.1610133    30.985945    30.985945    30.985945    29750.497 
 1450000     296.8286   -2765.3622    -23096.27   -24960.522    1864.2519    1.1610133    30.985945    30.985945    30.985945    29750.497 
 1451000    299.66998     -2804.67   -23137.565   -25019.662    1882.0973    1.1610133    30.985945    30.985945    30.985945    29750.497 
 1452000     288.5502   -2225.3822   -23235.833   -25048.091    1812.2588    1.1610133    30.985945    30.985945    30.985945    29750.497 
 1453000    305.38352   -2088.1427   -23149.092   -25067.074    1917.9816    1.1610133    30.985945    30.985945    30.985945    29750.497 
 1454000    310.57511   -3242.4034   -23143.699   -25094.287    1950.5877    1.1610133    30.985945    30.985945    30.985945    29750.497 
 1455000    291.98455   -2978.0359   -23271.291    -25105.12    1833.8285    1.1610133    30.985945    30.985945    30.985945    29750.497 
 1456000    300.32146   -2856.0678   -23144.458   -25030.647     1886.189    1.1610133    30.985945    30.985945    30.985945    29750.497 
 1457000    297.41347   -3280.4976   -23198.225   -25066.151    1867.9252    1.1610133    30.985945    30.985945    30.985945    29750.497 
 1458000    317.21637   -2347.9081    -23074.26   -25066.558    1992.2986    1.1610133    30.985945    30.985945    30.985945    29750.497 
 1459000    297.62157   -2132.7892   -23257.209   -25126.441    1869.2321    1.1610133    30.985945    30.985945    30.985945    29750.497 
 1460000    301.61342   -1054.1815   -23265.725   -25160.028    1894.3032    1.1610133    30.985945    30.985945    30.985945    29750.497 
 1461000    291.31223   -1994.9921   -23233.788   -25063.394    1829.6059    1.1610133    30.985945    30.985945    30.985945    29750.497 
 1462000    314.51742   -917.88943   -23081.739   -25057.086    1975.3477    1.1610133    30.985945    30.985945    30.985945    29750.497 
 1463000    300.62878   -2353.0411   -23145.027   -25033.146    1888.1191    1.1610133    30.985945    30.985945    30.985945    29750.497 
 1464000    303.39006    -2938.031    -23098.72   -25004.182    1905.4615    1.1610133    30.985945    30.985945    30.985945    29750.497 
 1465000    300.00243   -2181.2188   -23200.212   -25084.397    1884.1853    1.1610133    30.985945    30.985945    30.985945    29750.497 
 1466000    299.47914   -2070.3161   -23250.399   -25131.298    1880.8987    1.1610133    30.985945    30.985945    30.985945    29750.497 
 1467000    299.44302    -2136.794   -23209.089   -25089.761    1880.6719    1.1610133    30.985945    30.985945    30.985945    29750.497 
 1468000    296.98384   -2610.3409   -23224.343   -25089.569    1865.2269    1.1610133    30.985945    30.985945    30.985945    29750.497 
 1469000    301.34152   -2430.8753   -23181.972   -25074.567    1892.5955    1.1610133    30.985945    30.985945    30.985945    29750.497 
 1470000    298.55847   -1738.6683   -23205.246   -25080.362    1875.1164    1.1610133    30.985945    30.985945    30.985945    29750.497 
 1471000     293.3246    -2236.431    -23134.38   -24976.625    1842.2448    1.1610133    30.985945    30.985945    30.985945    29750.497 
 1472000    297.52464   -2557.3071   -23219.456   -25088.079    1868.6234    1.1610133    30.985945    30.985945    30.985945    29750.497 
 1473000    297.85937   -3479.9594    -23175.53   -25046.256    1870.7257    1.1610133    30.985945    30.985945    30.985945    29750.497 
 1474000    302.28293    -3222.557   -23235.365   -25133.873    1898.5081    1.1610133    30.985945    30.985945    30.985945    29750.497 
 1475000    301.86208   -2071.3881   -23216.029   -25111.894     1895.865    1.1610133    30.985945    30.985945    30.985945    29750.497 
 1476000    290.06198   -2866.6679   -23327.435   -25149.189    1821.7537    1.1610133    30.985945    30.985945    30.985945    29750.497 
 1477000    301.29601   -3318.4431    -23159.79     -25052.1    1892.3097    1.1610133    30.985945    30.985945    30.985945    29750.497 
 1478000    300.46551   -2934.0052   -23139.529   -25026.623    1887.0937    1.1610133    30.985945    30.985945    30.985945    29750.497 
 1479000    297.69362    -2440.214   -23183.877   -25053.562    1869.6846    1.1610133    30.985945    30.985945    30.985945    29750.497 
 1480000    294.83371   -2731.7099   -23119.493   -24971.216    1851.7228    1.1610133    30.985945    30.985945    30.985945    29750.497 
 1481000    312.57764   -2452.3114   -23042.302   -25005.467    1963.1647    1.1610133    30.985945    30.985945    30.985945    29750.497 
 1482000    298.57711   -2338.2864   -23195.116   -25070.349    1875.2335    1.1610133    30.985945    30.985945    30.985945    29750.497 
 1483000    300.89449   -4447.7636    -23243.53   -25133.318    1889.7879    1.1610133    30.985945    30.985945    30.985945    29750.497 
 1484000    294.45633   -2339.5652   -23197.889   -25047.242    1849.3527    1.1610133    30.985945    30.985945    30.985945    29750.497 
 1485000    293.86753   -2878.6948   -23304.812   -25150.467    1845.6546    1.1610133    30.985945    30.985945    30.985945    29750.497 
 1486000    304.82502   -2691.7506   -23245.575   -25160.049    1914.4739    1.1610133    30.985945    30.985945    30.985945    29750.497 
 1487000    303.22822    -3143.152    -23252.73   -25157.175    1904.4451    1.1610133    30.985945    30.985945    30.985945    29750.497 
 1488000    295.96334   -3566.3575   -23235.728   -25094.546    1858.8175    1.1610133    30.985945    30.985945    30.985945    29750.497 
 1489000    298.03373    -3050.879   -23263.307   -25135.128    1871.8208    1.1610133    30.985945    30.985945    30.985945    29750.497 
 1490000    298.90386   -2647.8208   -23203.112   -25080.398    1877.2857    1.1610133    30.985945    30.985945    30.985945    29750.497 
 1491000    299.91971   -2305.7905   -23193.423   -25077.089    1883.6658    1.1610133    30.985945    30.985945    30.985945    29750.497 
 1492000    298.78781   -3172.9971   -23241.255   -25117.812    1876.5568    1.1610133    30.985945    30.985945    30.985945    29750.497 
 1493000     299.7172    -1403.903   -23125.522   -25007.915    1882.3939    1.1610133    30.985945    30.985945    30.985945    29750.497 
 1494000    303.32713   -3475.7632   -23197.651   -25102.718    1905.0663    1.1610133    30.985945    30.985945    30.985945    29750.497 
 1495000    301.56464   -3281.6013   -23186.041   -25080.038    1893.9968    1.1610133    30.985945    30.985945    30.985945    29750.497 
 1496000    297.30055   -2916.8688   -23223.626   -25090.842     1867.216    1.1610133    30.985945    30.985945    30.985945    29750.497 
 1497000    288.09705    -1435.346   -23214.832   -25024.245    1809.4128    1.1610133    30.985945    30.985945    30.985945    29750.497 
 1498000    299.49249   -2938.7262   -23194.444   -25075.427    1880.9826    1.1610133    30.985945    30.985945    30.985945    29750.497 
 1499000    294.18636   -2839.6592   -23180.359   -25028.017    1847.6571    1.1610133    30.985945    30.985945    30.985945    29750.497 
 1500000    292.30001   -2894.8523   -23237.285   -25073.095    1835.8098    1.1610133    30.985945    30.985945    30.985945    29750.497 
 1501000    305.21868   -3735.5198   -23175.058   -25092.004    1916.9463    1.1610133    30.985945    30.985945    30.985945    29750.497 
 1502000    297.85731    -2642.782   -23139.208    -25009.92    1870.7127    1.1610133    30.985945    30.985945    30.985945    29750.497 
 1503000    296.58968   -2649.8693   -23177.339    -25040.09    1862.7513    1.1610133    30.985945    30.985945    30.985945    29750.497 
 1504000    297.77692   -2508.0809   -23142.692     -25012.9    1870.2078    1.1610133    30.985945    30.985945    30.985945    29750.497 
 1505000    303.39362   -2585.9395   -23140.194   -25045.678    1905.4839    1.1610133    30.985945    30.985945    30.985945    29750.497 
 1506000     304.3497   -2219.7499   -23141.358   -25052.847    1911.4886    1.1610133    30.985945    30.985945    30.985945    29750.497 
 1507000    296.37734   -2325.7084   -23129.098   -24990.516    1861.4176    1.1610133    30.985945    30.985945    30.985945    29750.497 
 1508000    300.41499   -2009.6155   -23320.787   -25207.563    1886.7764    1.1610133    30.985945    30.985945    30.985945    29750.497 
 1509000     304.1098   -3300.3744   -23125.524   -25035.506    1909.9819    1.1610133    30.985945    30.985945    30.985945    29750.497 
 1510000    299.87339   -2752.8004   -23199.302   -25082.677    1883.3749    1.1610133    30.985945    30.985945    30.985945    29750.497 
 1511000    299.47135   -2449.8189   -23130.148   -25010.998    1880.8498    1.1610133    30.985945    30.985945    30.985945    29750.497 
 1512000    298.61376   -2451.8599   -23206.774   -25082.238    1875.4637    1.1610133    30.985945    30.985945    30.985945    29750.497 
 1513000    290.53454   -2070.8575   -23231.066   -25055.787    1824.7215    1.1610133    30.985945    30.985945    30.985945    29750.497 
 1514000    306.78947   -2937.1458   -23200.555   -25127.367    1926.8117    1.1610133    30.985945    30.985945    30.985945    29750.497 
 1515000    299.98452   -2629.6192   -23143.038    -25027.11    1884.0728    1.1610133    30.985945    30.985945    30.985945    29750.497 
 1516000    295.69573   -2600.5246   -23168.373    -25025.51    1857.1368    1.1610133    30.985945    30.985945    30.985945    29750.497 
 1517000    292.01667    -1872.532   -23187.187   -25021.217    1834.0302    1.1610133    30.985945    30.985945    30.985945    29750.497 
 1518000    295.61663   -2026.9892   -23106.275   -24962.915      1856.64    1.1610133    30.985945    30.985945    30.985945    29750.497 
 1519000    291.75173   -3112.0303   -23152.642   -24985.008    1832.3662    1.1610133    30.985945    30.985945    30.985945    29750.497 
 1520000    297.66813   -2396.5113   -23100.518   -24970.043    1869.5245    1.1610133    30.985945    30.985945    30.985945    29750.497 
 1521000    301.74072   -2705.1736   -23125.102   -25020.204    1895.1027    1.1610133    30.985945    30.985945    30.985945    29750.497 
 1522000    308.96845   -2571.9412   -23067.559   -25008.056     1940.497    1.1610133    30.985945    30.985945    30.985945    29750.497 
 1523000    301.10977   -2729.9716   -23144.149   -25035.289      1891.14    1.1610133    30.985945    30.985945    30.985945    29750.497 
 1524000     296.4455   -2927.3932   -23201.458   -25063.304    1861.8458    1.1610133    30.985945    30.985945    30.985945    29750.497 
 1525000    300.90474   -3170.2644   -23169.644   -25059.496    1889.8523    1.1610133    30.985945    30.985945    30.985945    29750.497 
 1526000    296.30028   -1787.1888   -23173.803   -25034.737    1860.9337    1.1610133    30.985945    30.985945    30.985945    29750.497 
 1527000    296.74537   -3345.5014   -23196.608   -25060.337    1863.7291    1.1610133    30.985945    30.985945    30.985945    29750.497 
 1528000    300.81823   -2234.2215   -23225.501    -25114.81     1889.309    1.1610133    30.985945    30.985945    30.985945    29750.497 
 1529000    301.39997   -2108.0067   -23212.341   -25105.304    1892.9627    1.1610133    30.985945    30.985945    30.985945    29750.497 
 1530000    304.81148   -2710.6612   -23279.105   -25193.494    1914.3888    1.1610133    30.985945    30.985945    30.985945    29750.497 
 1531000     299.0378   -2026.7583   -23214.757   -25092.884    1878.1269    1.1610133    30.985945    30.985945    30.985945    29750.497 
 1532000    298.09902   -3282.8584   -23194.627   -25066.858    1872.2308    1.1610133    30.985945    30.985945    30.985945    29750.497 
 1533000    298.35461   -1793.8011   -23237.989   -25111.825     1873.836    1.1610133    30.985945    30.985945    30.985945    29750.497 
 1534000    288.50631   -2002.9551   -23307.787    -25119.77    1811.9831    1.1610133    30.985945    30.985945    30.985945    29750.497 
 1535000    301.62096   -2896.4943   -23218.298   -25112.649    1894.3506    1.1610133    30.985945    30.985945    30.985945    29750.497 
 1536000    299.69412   -1942.1111   -23325.705   -25207.954     1882.249    1.1610133    30.985945    30.985945    30.985945    29750.497 
 1537000    297.82412   -1965.0431   -23160.407   -25030.911    1870.5043    1.1610133    30.985945    30.985945    30.985945    29750.497 
 1538000    303.43615   -3025.2246   -23147.316   -25053.067     1905.751    1.1610133    30.985945    30.985945    30.985945    29750.497 
 1539000    292.09888   -2424.8564   -23227.814   -25062.361    1834.5465    1.1610133    30.985945    30.985945    30.985945    29750.497 
 1540000    290.86343   -2756.7977   -23204.384   -25031.172    1826.7872    1.1610133    30.985945    30.985945    30.985945    29750.497 
 1541000    304.97895   -2301.3738    -23176.66   -25092.101    1915.4407    1.1610133    30.985945    30.985945    30.985945    29750.497 
 1542000    306.81643   -3194.0829   -23198.861   -25125.843    1926.9811    1.1610133    30.985945    30.985945    30.985945    29750.497 
 1543000    299.87466     -3048.62   -23272.018   -25155.401    1883.3828    1.1610133    30.985945    30.985945    30.985945    29750.497 
 1544000    302.07875   -2165.0575   -23172.374     -25069.6    1897.2258    1.1610133    30.985945    30.985945    30.985945    29750.497 
 1545000    296.09169   -1937.3411   -23227.873   -25087.496    1859.6236    1.1610133    30.985945    30.985945    30.985945    29750.497 
 1546000    300.39369   -1743.4051    -23082.19   -24968.833    1886.6426    1.1610133    30.985945    30.985945    30.985945    29750.497 
 1547000    299.41866   -2019.2061   -23255.635   -25136.154    1880.5189    1.1610133    30.985945    30.985945    30.985945    29750.497 
 1548000    295.66522   -2557.7489   -23150.372   -25007.317    1856.9452    1.1610133    30.985945    30.985945    30.985945    29750.497 
 1549000    304.25262   -2568.2262   -23190.735   -25101.614    1910.8789    1.1610133    30.985945    30.985945    30.985945    29750.497 
 1550000    298.44854   -2711.2093   -23143.527   -25017.953     1874.426    1.1610133    30.985945    30.985945    30.985945    29750.497 
 1551000    292.56606   -2763.9302   -23316.585   -25154.066    1837.4807    1.1610133    30.985945    30.985945    30.985945    29750.497 
 1552000    293.23058   -2808.6225   -23256.191   -25097.845    1841.6542    1.1610133    30.985945    30.985945    30.985945    29750.497 
 1553000    308.49379   -2838.4509   -23275.916   -25213.432    1937.5159    1.1610133    30.985945    30.985945    30.985945    29750.497 
 1554000    301.81213   -3154.1082   -23231.354   -25126.905    1895.5513    1.1610133    30.985945    30.985945    30.985945    29750.497 
 1555000    291.62261   -1985.2774   -23348.515   -25180.071    1831.5553    1.1610133    30.985945    30.985945    30.985945    29750.497 
 1556000    303.31785   -2668.0914   -23177.756   -25082.764     1905.008    1.1610133    30.985945    30.985945    30.985945    29750.497 
 1557000    304.04564   -3292.2203   -23214.892   -25124.471    1909.5789    1.1610133    30.985945    30.985945    30.985945    29750.497 
 1558000    302.17271    -3173.792   -23302.272   -25200.088    1897.8159    1.1610133    30.985945    30.985945    30.985945    29750.497 
 1559000    305.36323   -2829.4457   -23166.083   -25083.937    1917.8541    1.1610133    30.985945    30.985945    30.985945    29750.497 
 1560000    295.63161   -2457.2281   -23187.421   -25044.155    1856.7341    1.1610133    30.985945    30.985945    30.985945    29750.497 
 1561000    295.04848   -3190.5997    -23248.43   -25101.501    1853.0717    1.1610133    30.985945    30.985945    30.985945    29750.497 
 1562000    296.88645   -2451.4859   -23160.344   -25024.959    1864.6152    1.1610133    30.985945    30.985945    30.985945    29750.497 
 1563000    288.15955   -3114.6485   -23352.129   -25161.935    1809.8053    1.1610133    30.985945    30.985945    30.985945    29750.497 
 1564000    298.48311   -1349.4691   -23146.945   -25021.588    1874.6431    1.1610133    30.985945    30.985945    30.985945    29750.497 
 1565000    298.67466   -1963.1339    -23163.56   -25039.406    1875.8462    1.1610133    30.985945    30.985945    30.985945    29750.497 
 1566000    294.83971   -3126.7209   -23183.772   -25035.533    1851.7605    1.1610133    30.985945    30.985945    30.985945    29750.497 
 1567000    303.85178   -2832.2056   -23183.298    -25091.66    1908.3614    1.1610133    30.985945    30.985945    30.985945    29750.497 
 1568000    299.30636   -2210.9097   -23191.297    -25071.11    1879.8136    1.1610133    30.985945    30.985945    30.985945    29750.497 
 1569000    297.49374   -2291.4661   -23201.747   -25070.177    1868.4293    1.1610133    30.985945    30.985945    30.985945    29750.497 
 1570000    291.67881   -1873.9556   -23225.772    -25057.68    1831.9082    1.1610133    30.985945    30.985945    30.985945    29750.497 
 1571000    308.65207   -2159.6691   -23125.937   -25064.447    1938.5099    1.1610133    30.985945    30.985945    30.985945    29750.497 
 1572000    296.05752   -2435.5065       -23277   -25136.409     1859.409    1.1610133    30.985945    30.985945    30.985945    29750.497 
 1573000    303.46769   -1585.2076   -23109.009   -25014.958    1905.9491    1.1610133    30.985945    30.985945    30.985945    29750.497 
 1574000     304.0752   -2485.6496   -23200.086   -25109.851    1909.7646    1.1610133    30.985945    30.985945    30.985945    29750.497 
 1575000    306.86489   -1974.7462   -23181.582   -25108.868    1927.2854    1.1610133    30.985945    30.985945    30.985945    29750.497 
 1576000     299.6004   -3053.9826   -23195.789   -25077.449    1881.6603    1.1610133    30.985945    30.985945    30.985945    29750.497 
 1577000     302.5455   -3156.6234   -23126.199   -25026.356    1900.1572    1.1610133    30.985945    30.985945    30.985945    29750.497 
 1578000    296.94594   -2315.8345   -23276.987   -25141.976    1864.9888    1.1610133    30.985945    30.985945    30.985945    29750.497 
 1579000    300.58948   -3058.2932   -23272.656   -25160.528    1887.8723    1.1610133    30.985945    30.985945    30.985945    29750.497 
 1580000     305.9148   -3040.4923   -23243.071    -25164.39    1921.3184    1.1610133    30.985945    30.985945    30.985945    29750.497 
 1581000    305.03152   -2787.3973   -23262.126   -25177.897    1915.7708    1.1610133    30.985945    30.985945    30.985945    29750.497 
 1582000    296.57789   -2111.9235   -23323.039   -25185.717    1862.6772    1.1610133    30.985945    30.985945    30.985945    29750.497 
 1583000    296.69644     -3261.19   -23249.106   -25112.528    1863.4218    1.1610133    30.985945    30.985945    30.985945    29750.497 
 1584000    304.42728   -3088.9441   -23211.471   -25123.447    1911.9759    1.1610133    30.985945    30.985945    30.985945    29750.497 
 1585000    299.36041   -2397.4011   -23195.287    -25075.44    1880.1531    1.1610133    30.985945    30.985945    30.985945    29750.497 
 1586000    299.35885   -2094.8316   -23253.476   -25133.619    1880.1432    1.1610133    30.985945    30.985945    30.985945    29750.497 
 1587000    298.84153   -2214.4617   -23246.808   -25123.702    1876.8942    1.1610133    30.985945    30.985945    30.985945    29750.497 
 1588000    293.35006    -3118.772   -23264.666   -25107.071    1842.4046    1.1610133    30.985945    30.985945    30.985945    29750.497 
 1589000    298.59953   -2052.2194   -23201.041   -25076.415    1875.3743    1.1610133    30.985945    30.985945    30.985945    29750.497 
 1590000    302.15557   -2576.7363   -23277.895   -25175.603    1897.7082    1.1610133    30.985945    30.985945    30.985945    29750.497 
 1591000     297.0783   -1897.7459   -23187.432   -25053.252    1865.8201    1.1610133    30.985945    30.985945    30.985945    29750.497 
 1592000    300.91105   -1325.8953   -23222.269   -25112.161    1889.8919    1.1610133    30.985945    30.985945    30.985945    29750.497 
 1593000    294.13064   -2057.2526   -23248.611   -25095.918    1847.3071    1.1610133    30.985945    30.985945    30.985945    29750.497 
 1594000    300.64217   -3019.2378   -23177.902   -25066.105    1888.2032    1.1610133    30.985945    30.985945    30.985945    29750.497 
 1595000    298.66791    -3174.784   -23149.187   -25024.991    1875.8038    1.1610133    30.985945    30.985945    30.985945    29750.497 
 1596000    296.85926   -2244.9345   -23161.826   -25026.271    1864.4444    1.1610133    30.985945    30.985945    30.985945    29750.497 
 1597000    306.34188   -2323.0166   -23130.122   -25054.122    1924.0007    1.1610133    30.985945    30.985945    30.985945    29750.497 
 1598000    299.50672   -3189.4167   -23170.598    -25051.67    1881.0719    1.1610133    30.985945    30.985945    30.985945    29750.497 
 1599000    300.69758   -3112.2848    -23197.41   -25085.961    1888.5512    1.1610133    30.985945    30.985945    30.985945    29750.497 
 1600000    301.27364   -1898.9346   -23072.537   -24964.706    1892.1692    1.1610133    30.985945    30.985945    30.985945    29750.497 
 1601000    297.66469   -2529.8407    -23226.16   -25095.663     1869.503    1.1610133    30.985945    30.985945    30.985945    29750.497 
 1602000    291.56367   -2637.9519   -23238.523   -25069.708    1831.1851    1.1610133    30.985945    30.985945    30.985945    29750.497 
 1603000    306.98065   -3192.5295   -23145.939   -25073.951    1928.0125    1.1610133    30.985945    30.985945    30.985945    29750.497 
 1604000    297.76569   -2052.3277   -23190.459   -25060.597    1870.1373    1.1610133    30.985945    30.985945    30.985945    29750.497 
 1605000     309.1203   -2193.9061   -23156.205   -25097.656    1941.4507    1.1610133    30.985945    30.985945    30.985945    29750.497 
 1606000    308.66627   -2756.3425   -23180.659   -25119.258    1938.5991    1.1610133    30.985945    30.985945    30.985945    29750.497 
 1607000    294.44775   -2891.3565   -23255.883   -25105.182    1849.2987    1.1610133    30.985945    30.985945    30.985945    29750.497 
 1608000    294.48462   -2524.7465   -23224.926   -25074.456    1849.5303    1.1610133    30.985945    30.985945    30.985945    29750.497 
 1609000    298.89024   -2192.0986   -23228.441   -25105.641    1877.2001    1.1610133    30.985945    30.985945    30.985945    29750.497 
 1610000    295.73979   -2169.9488   -23199.007   -25056.421    1857.4135    1.1610133    30.985945    30.985945    30.985945    29750.497 
 1611000    285.94181   -2177.9228   -23313.183    -25109.06    1795.8766    1.1610133    30.985945    30.985945    30.985945    29750.497 
 1612000    298.98079   -2836.2932   -23209.407   -25087.176    1877.7688    1.1610133    30.985945    30.985945    30.985945    29750.497 
 1613000    306.34507   -2301.7503   -23050.027   -24974.048    1924.0207    1.1610133    30.985945    30.985945    30.985945    29750.497 
 1614000    296.07409   -3434.3469   -23210.166   -25069.679    1859.5131    1.1610133    30.985945    30.985945    30.985945    29750.497 
 1615000    291.02507   -2326.8048   -23235.219   -25063.021    1827.8024    1.1610133    30.985945    30.985945    30.985945    29750.497 
 1616000    304.37665   -2187.0641   -23177.757   -25089.415    1911.6579    1.1610133    30.985945    30.985945    30.985945    29750.497 
 1617000    296.87327   -3129.7627    -23254.05   -25118.583    1864.5324    1.1610133    30.985945    30.985945    30.985945    29750.497 
 1618000    289.13312   -3044.3008   -23217.941   -25033.861    1815.9198    1.1610133    30.985945    30.985945    30.985945    29750.497 
 1619000    301.38824   -1543.1021   -23135.982   -25028.871     1892.889    1.1610133    30.985945    30.985945    30.985945    29750.497 
 1620000    298.13964   -2515.5901   -23191.667   -25064.153    1872.4859    1.1610133    30.985945    30.985945    30.985945    29750.497 
 1621000    295.67661   -3410.4254   -23264.623   -25121.639    1857.0167    1.1610133    30.985945    30.985945    30.985945    29750.497 
 1622000    305.92314   -2087.0641   -23231.942   -25153.313    1921.3707    1.1610133    30.985945    30.985945    30.985945    29750.497 
 1623000    296.33569    -3369.143   -23223.955   -25085.111    1861.1561    1.1610133    30.985945    30.985945    30.985945    29750.497 
 1624000    301.22058    -2446.057   -23246.225   -25138.061     1891.836    1.1610133    30.985945    30.985945    30.985945    29750.497 
 1625000    314.68503   -2463.9924   -23136.334   -25112.734    1976.4003    1.1610133    30.985945    30.985945    30.985945    29750.497 
 1626000     294.0831   -2330.1339   -23293.884   -25140.892    1847.0086    1.1610133    30.985945    30.985945    30.985945    29750.497 
 1627000     295.5968   -2713.2813   -23192.627   -25049.143    1856.5154    1.1610133    30.985945    30.985945    30.985945    29750.497 
 1628000    295.60716   -2671.7377   -23197.871   -25054.452    1856.5805    1.1610133    30.985945    30.985945    30.985945    29750.497 
 1629000     294.7702   -2283.7444   -23199.175   -25050.499    1851.3239    1.1610133    30.985945    30.985945    30.985945    29750.497 
 1630000    301.21353   -2929.2655   -23272.691   -25164.482    1891.7917    1.1610133    30.985945    30.985945    30.985945    29750.497 
 1631000    306.53193   -2128.8352    -23276.49   -25201.684    1925.1943    1.1610133    30.985945    30.985945    30.985945    29750.497 
 1632000     294.4342   -1978.1911   -23326.531   -25175.744    1849.2136    1.1610133    30.985945    30.985945    30.985945    29750.497 
 1633000    311.90376   -1871.0759    -23128.19   -25087.122    1958.9324    1.1610133    30.985945    30.985945    30.985945    29750.497 
 1634000    295.55546   -1911.5621   -23212.822   -25069.078    1856.2558    1.1610133    30.985945    30.985945    30.985945    29750.497 
 1635000    309.81102   -2431.5275   -23137.956   -25083.745    1945.7888    1.1610133    30.985945    30.985945    30.985945    29750.497 
 1636000    297.33358   -2994.3022    -23209.08   -25076.504    1867.4234    1.1610133    30.985945    30.985945    30.985945    29750.497 
 1637000     297.3579   -2712.4235   -23177.119   -25044.696    1867.5762    1.1610133    30.985945    30.985945    30.985945    29750.497 
 1638000     298.3029   -2875.9568   -23124.405   -24997.916    1873.5113    1.1610133    30.985945    30.985945    30.985945    29750.497 
 1639000    306.38025    -1903.632   -23166.778   -25091.019    1924.2416    1.1610133    30.985945    30.985945    30.985945    29750.497 
 1640000    304.19829   -2693.1075   -23167.292    -25077.83    1910.5377    1.1610133    30.985945    30.985945    30.985945    29750.497 
 1641000    295.92831   -3351.6509   -23214.105   -25072.702    1858.5975    1.1610133    30.985945    30.985945    30.985945    29750.497 
 1642000    298.45957   -1531.9751   -23173.592   -25048.087    1874.4952    1.1610133    30.985945    30.985945    30.985945    29750.497 
 1643000    313.43523   -2630.0784   -23158.913   -25127.464    1968.5509    1.1610133    30.985945    30.985945    30.985945    29750.497 
 1644000    302.80086   -3047.0971   -23238.829    -25140.59     1901.761    1.1610133    30.985945    30.985945    30.985945    29750.497 
 1645000    294.18578   -1698.7585   -23325.887    -25173.54    1847.6534    1.1610133    30.985945    30.985945    30.985945    29750.497 
 1646000    295.38442      -2282.4   -23203.327   -25058.509    1855.1816    1.1610133    30.985945    30.985945    30.985945    29750.497 
 1647000    297.97632   -2755.0354   -23223.633   -25095.093    1871.4602    1.1610133    30.985945    30.985945    30.985945    29750.497 
 1648000    301.25688    -1834.224   -23216.274   -25108.338     1892.064    1.1610133    30.985945    30.985945    30.985945    29750.497 
 1649000    292.67632   -1611.6333   -23252.273   -25090.447    1838.1732    1.1610133    30.985945    30.985945    30.985945    29750.497 
 1650000    311.44964   -2279.1393    -23112.29    -25068.37    1956.0803    1.1610133    30.985945    30.985945    30.985945    29750.497 
 1651000    304.92139   -2291.0086   -23107.992   -25023.071    1915.0791    1.1610133    30.985945    30.985945    30.985945    29750.497 
 1652000    297.68929   -2094.5265   -23230.046   -25099.703    1869.6575    1.1610133    30.985945    30.985945    30.985945    29750.497 
 1653000    299.14787   -3346.3333   -23202.578   -25081.396    1878.8182    1.1610133    30.985945    30.985945    30.985945    29750.497 
 1654000    297.96051   -2311.0269   -23176.743   -25048.104    1871.3609    1.1610133    30.985945    30.985945    30.985945    29750.497 
 1655000    298.61708   -2419.4504   -23126.195   -25001.679    1875.4845    1.1610133    30.985945    30.985945    30.985945    29750.497 
 1656000    309.29876   -1250.4356    -23067.94   -25010.511    1942.5715    1.1610133    30.985945    30.985945    30.985945    29750.497 
 1657000    292.11098   -2026.8545   -23180.758    -25015.38    1834.6225    1.1610133    30.985945    30.985945    30.985945    29750.497 
 1658000    297.60961   -1444.2705   -23168.643     -25037.8    1869.1571    1.1610133    30.985945    30.985945    30.985945    29750.497 
 1659000    297.52768   -2537.4971   -23138.016   -25006.658    1868.6425    1.1610133    30.985945    30.985945    30.985945    29750.497 
 1660000    310.42505   -2594.7415   -23123.654   -25073.299    1949.6452    1.1610133    30.985945    30.985945    30.985945    29750.497 
 1661000    299.95216   -2222.3222   -23151.332   -25035.202    1883.8695    1.1610133    30.985945    30.985945    30.985945    29750.497 
 1662000    297.25741   -1710.1203   -23165.865    -25032.81     1866.945    1.1610133    30.985945    30.985945    30.985945    29750.497 
 1663000    297.44671    -2428.483    -23168.56   -25036.694    1868.1339    1.1610133    30.985945    30.985945    30.985945    29750.497 
 1664000    301.33174   -1388.2662   -23129.519   -25022.053    1892.5341    1.1610133    30.985945    30.985945    30.985945    29750.497 
 1665000    293.60966   -2443.2282   -23144.693   -24988.728    1844.0351    1.1610133    30.985945    30.985945    30.985945    29750.497 
 1666000    296.08593   -2283.6983   -23235.708   -25095.295    1859.5875    1.1610133    30.985945    30.985945    30.985945    29750.497 
 1667000    295.31055   -3021.3114   -23199.142    -25053.86    1854.7177    1.1610133    30.985945    30.985945    30.985945    29750.497 
 1668000    300.57071   -3055.8592   -23264.815   -25152.569    1887.7544    1.1610133    30.985945    30.985945    30.985945    29750.497 
 1669000    293.38666   -3265.1739   -23207.514   -25050.149    1842.6345    1.1610133    30.985945    30.985945    30.985945    29750.497 
 1670000    295.38899   -2863.2762   -23287.766   -25142.976    1855.2103    1.1610133    30.985945    30.985945    30.985945    29750.497 
 1671000    295.20557   -2869.4115   -23226.169   -25080.227    1854.0583    1.1610133    30.985945    30.985945    30.985945    29750.497 
 1672000    289.32196   -2922.2955    -23375.18   -25192.285    1817.1059    1.1610133    30.985945    30.985945    30.985945    29750.497 
 1673000    299.75965    -2668.101   -23226.933   -25109.593    1882.6605    1.1610133    30.985945    30.985945    30.985945    29750.497 
 1674000    295.15699   -2107.8664   -23309.532   -25163.285    1853.7532    1.1610133    30.985945    30.985945    30.985945    29750.497 
 1675000    309.59111   -3941.6989    -23193.52   -25137.928    1944.4077    1.1610133    30.985945    30.985945    30.985945    29750.497 
 1676000    300.25907   -2502.4056   -23195.432   -25081.229    1885.7971    1.1610133    30.985945    30.985945    30.985945    29750.497 
 1677000    294.73154   -2256.6709   -23278.972   -25130.053    1851.0811    1.1610133    30.985945    30.985945    30.985945    29750.497 
 1678000    296.91902   -2683.7513   -23221.043   -25085.862    1864.8197    1.1610133    30.985945    30.985945    30.985945    29750.497 
 1679000    302.88095   -2607.1814   -23232.287   -25134.551     1902.264    1.1610133    30.985945    30.985945    30.985945    29750.497 
 1680000    292.01844    -2002.493   -23258.364   -25092.406    1834.0413    1.1610133    30.985945    30.985945    30.985945    29750.497 
 1681000    295.59792   -1654.3743   -23248.415   -25104.937    1856.5225    1.1610133    30.985945    30.985945    30.985945    29750.497 
 1682000    305.45567   -2148.6657   -23149.579   -25068.014    1918.4347    1.1610133    30.985945    30.985945    30.985945    29750.497 
 1683000    302.81511   -1925.9319   -23169.311   -25071.161    1901.8505    1.1610133    30.985945    30.985945    30.985945    29750.497 
 1684000    293.51737    -3043.474   -23187.586   -25031.042    1843.4554    1.1610133    30.985945    30.985945    30.985945    29750.497 
 1685000    291.93452   -1869.0577    -23219.23   -25052.745    1833.5143    1.1610133    30.985945    30.985945    30.985945    29750.497 
 1686000    294.39429   -2505.4777   -23135.998   -24984.961     1848.963    1.1610133    30.985945    30.985945    30.985945    29750.497 
 1687000    299.99694   -1716.8245   -23198.122   -25082.273    1884.1508    1.1610133    30.985945    30.985945    30.985945    29750.497 
 1688000    297.14148   -1529.9771   -23134.146   -25000.363    1866.2169    1.1610133    30.985945    30.985945    30.985945    29750.497 
 1689000    302.27622   -2123.4715   -23177.086   -25075.552     1898.466    1.1610133    30.985945    30.985945    30.985945    29750.497 
 1690000    290.25344   -2011.9896   -23274.337   -25097.293    1822.9561    1.1610133    30.985945    30.985945    30.985945    29750.497 
 1691000     305.1428   -2676.7518    -23159.11    -25075.58    1916.4698    1.1610133    30.985945    30.985945    30.985945    29750.497 
 1692000    288.32733   -2437.1646   -23174.889   -24985.748     1810.859    1.1610133    30.985945    30.985945    30.985945    29750.497 
 1693000    292.60278   -2507.7194   -23204.412   -25042.123    1837.7113    1.1610133    30.985945    30.985945    30.985945    29750.497 
 1694000    295.87892    -3543.225   -23254.158   -25112.445    1858.2873    1.1610133    30.985945    30.985945    30.985945    29750.497 
 1695000     293.7863   -2432.2611    -23219.38   -25064.525    1845.1445    1.1610133    30.985945    30.985945    30.985945    29750.497 
 1696000    304.38943   -2048.1126   -23192.474   -25104.213    1911.7382    1.1610133    30.985945    30.985945    30.985945    29750.497 
 1697000    299.55295   -3280.9803   -23207.944   -25089.307    1881.3623    1.1610133    30.985945    30.985945    30.985945    29750.497 
 1698000    293.32203    -3282.601   -23202.949   -25045.178    1842.2286    1.1610133    30.985945    30.985945    30.985945    29750.497 
 1699000    303.62262   -2547.7351   -23200.072   -25106.994    1906.9222    1.1610133    30.985945    30.985945    30.985945    29750.497 
 1700000    294.38182   -3145.1063   -23274.159   -25123.043    1848.8847    1.1610133    30.985945    30.985945    30.985945    29750.497 
 1701000    300.28466   -2399.0876   -23196.849   -25082.807    1885.9579    1.1610133    30.985945    30.985945    30.985945    29750.497 
 1702000    298.21489   -2889.8981   -23141.218   -25014.177    1872.9585    1.1610133    30.985945    30.985945    30.985945    29750.497 
 1703000     298.3018   -2224.7649    -23146.92   -25020.425    1873.5044    1.1610133    30.985945    30.985945    30.985945    29750.497 
 1704000    298.06135   -2379.8246   -23148.374   -25020.368    1871.9942    1.1610133    30.985945    30.985945    30.985945    29750.497 
 1705000    293.98454   -1534.1316   -23157.213   -25003.603    1846.3896    1.1610133    30.985945    30.985945    30.985945    29750.497 
 1706000    299.50296   -2017.9357   -23237.386   -25118.435    1881.0483    1.1610133    30.985945    30.985945    30.985945    29750.497 
 1707000    311.11058   -2600.1654   -22982.024   -24935.975    1953.9508    1.1610133    30.985945    30.985945    30.985945    29750.497 
 1708000    299.92516   -1382.5249   -23078.907   -24962.607       1883.7    1.1610133    30.985945    30.985945    30.985945    29750.497 
 1709000    298.29375   -2451.8156   -23226.905   -25100.359    1873.4538    1.1610133    30.985945    30.985945    30.985945    29750.497 
 1710000    294.85289   -2862.5951   -23165.752   -25017.595    1851.8433    1.1610133    30.985945    30.985945    30.985945    29750.497 
 1711000    304.29111   -2671.4252   -23104.583   -25015.703    1911.1206    1.1610133    30.985945    30.985945    30.985945    29750.497 
 1712000    294.42669   -2062.4265   -23297.583    -25146.75    1849.1665    1.1610133    30.985945    30.985945    30.985945    29750.497 
 1713000    303.24482    -2602.418   -23195.767   -25100.316    1904.5494    1.1610133    30.985945    30.985945    30.985945    29750.497 
 1714000    297.02224   -3765.8853    -23250.73   -25116.198     1865.468    1.1610133    30.985945    30.985945    30.985945    29750.497 
 1715000    292.49521   -2181.4103   -23229.235   -25066.271    1837.0357    1.1610133    30.985945    30.985945    30.985945    29750.497 
 1716000    296.35097   -2637.0442   -23237.945   -25099.197    1861.2521    1.1610133    30.985945    30.985945    30.985945    29750.497 
 1717000    298.47709   -2388.4788   -23266.662   -25141.268    1874.6053    1.1610133    30.985945    30.985945    30.985945    29750.497 
 1718000    301.52673   -2537.5434   -23196.833   -25090.592    1893.7588    1.1610133    30.985945    30.985945    30.985945    29750.497 
 1719000    295.10096   -2648.7429   -23263.245   -25116.647    1853.4013    1.1610133    30.985945    30.985945    30.985945    29750.497 
 1720000    295.15792   -2236.8922   -23108.418   -24962.177     1853.759    1.1610133    30.985945    30.985945    30.985945    29750.497 
 1721000    295.82609   -2249.1682   -23253.381   -25111.336    1857.9555    1.1610133    30.985945    30.985945    30.985945    29750.497 
 1722000       305.89   -2247.2302   -23281.105   -25202.268    1921.1626    1.1610133    30.985945    30.985945    30.985945    29750.497 
 1723000    296.16493   -2400.6289   -23345.933   -25206.017    1860.0836    1.1610133    30.985945    30.985945    30.985945    29750.497 
 1724000    298.20165   -3293.2531   -23314.384    -25187.26    1872.8754    1.1610133    30.985945    30.985945    30.985945    29750.497 
 1725000    298.30634   -2345.2547   -23251.568   -25125.101    1873.5329    1.1610133    30.985945    30.985945    30.985945    29750.497 
 1726000    303.19116   -2342.9705   -23195.679   -25099.891    1904.2123    1.1610133    30.985945    30.985945    30.985945    29750.497 
 1727000    311.66752    -2578.869   -23045.666   -25003.115    1957.4487    1.1610133    30.985945    30.985945    30.985945    29750.497 
 1728000    301.85436   -2937.2025   -23192.695   -25088.512    1895.8164    1.1610133    30.985945    30.985945    30.985945    29750.497 
 1729000    297.39387   -2411.7641   -23252.303   -25120.106    1867.8021    1.1610133    30.985945    30.985945    30.985945    29750.497 
 1730000    296.14853     -2079.55   -23256.334   -25116.315    1859.9806    1.1610133    30.985945    30.985945    30.985945    29750.497 
 1731000    300.72217   -2563.1159   -23278.421   -25167.126    1888.7056    1.1610133    30.985945    30.985945    30.985945    29750.497 
 1732000    304.35042   -2275.1221   -23183.455   -25094.948    1911.4931    1.1610133    30.985945    30.985945    30.985945    29750.497 
 1733000    304.19232   -2741.0484   -23133.173   -25043.673    1910.5002    1.1610133    30.985945    30.985945    30.985945    29750.497 
 1734000    299.99075   -2083.8238   -23092.682   -24976.794    1884.1119    1.1610133    30.985945    30.985945    30.985945    29750.497 
 1735000    304.83962   -2510.2786   -23176.959   -25091.525    1914.5656    1.1610133    30.985945    30.985945    30.985945    29750.497 
 1736000     297.8569   -1334.8478   -23169.654   -25040.365    1870.7101    1.1610133    30.985945    30.985945    30.985945    29750.497 
 1737000     304.3198   -2380.0817   -23169.632   -25080.933    1911.3008    1.1610133    30.985945    30.985945    30.985945    29750.497 
 1738000    298.01564   -2313.9048   -23158.656   -25030.363    1871.7071    1.1610133    30.985945    30.985945    30.985945    29750.497 
 1739000    300.04711   -2458.2261   -23251.157   -25135.623    1884.4659    1.1610133    30.985945    30.985945    30.985945    29750.497 
 1740000    291.64212   -2209.8416   -23250.977   -25082.654    1831.6778    1.1610133    30.985945    30.985945    30.985945    29750.497 
 1741000    302.34327   -2467.4349   -23135.264   -25034.151    1898.8871    1.1610133    30.985945    30.985945    30.985945    29750.497 
 1742000    304.06562   -1797.9578    -23195.12   -25104.825    1909.7044    1.1610133    30.985945    30.985945    30.985945    29750.497 
 1743000    291.88571     -2923.02   -23265.636   -25098.843    1833.2077    1.1610133    30.985945    30.985945    30.985945    29750.497 
 1744000    292.49849   -2427.7514   -23260.026   -25097.082    1837.0563    1.1610133    30.985945    30.985945    30.985945    29750.497 
 1745000     309.6384   -2891.8085   -23102.742   -25047.447    1944.7047    1.1610133    30.985945    30.985945    30.985945    29750.497 
 1746000    297.21185   -2616.8173   -23183.344   -25050.003    1866.6589    1.1610133    30.985945    30.985945    30.985945    29750.497 
 1747000     302.7084   -1934.7878   -23127.557   -25028.737    1901.1803    1.1610133    30.985945    30.985945    30.985945    29750.497 
 1748000     296.4284   -1514.1272   -23144.536   -25006.274    1861.7384    1.1610133    30.985945    30.985945    30.985945    29750.497 
 1749000    294.04904   -2752.7557   -23189.002   -25035.796    1846.7946    1.1610133    30.985945    30.985945    30.985945    29750.497 
 1750000    289.67424   -3065.6376   -23218.135   -25037.454    1819.3184    1.1610133    30.985945    30.985945    30.985945    29750.497 
 1751000    303.25337   -2943.0772   -23233.153   -25137.756     1904.603    1.1610133    30.985945    30.985945    30.985945    29750.497 
 1752000    298.43872   -2665.6645   -23196.558   -25070.922    1874.3643    1.1610133    30.985945    30.985945    30.985945    29750.497 
 1753000    303.30419   -1930.8251   -23137.124   -25042.046    1904.9222    1.1610133    30.985945    30.985945    30.985945    29750.497 
 1754000     291.6761   -3119.0085   -23228.238   -25060.129    1831.8912    1.1610133    30.985945    30.985945    30.985945    29750.497 
 1755000    311.36723   -2404.0951   -22949.585   -24905.148    1955.5627    1.1610133    30.985945    30.985945    30.985945    29750.497 
 1756000    302.43338   -2215.7217   -23167.995   -25067.448    1899.4531    1.1610133    30.985945    30.985945    30.985945    29750.497 
 1757000    301.49435   -2341.1079   -23146.458   -25040.013    1893.5554    1.1610133    30.985945    30.985945    30.985945    29750.497 
 1758000    297.57114   -881.42085   -23175.798   -25044.713    1868.9154    1.1610133    30.985945    30.985945    30.985945    29750.497 
 1759000    306.02318   -2351.6713   -23101.991    -25023.99     1921.999    1.1610133    30.985945    30.985945    30.985945    29750.497 
 1760000     301.8628   -2346.0701   -23148.268   -25044.138    1895.8694    1.1610133    30.985945    30.985945    30.985945    29750.497 
 1761000    298.49714   -3017.6071    -23156.73   -25031.462    1874.7312    1.1610133    30.985945    30.985945    30.985945    29750.497 
 1762000    302.42897   -2643.6863   -23192.732   -25092.158    1899.4253    1.1610133    30.985945    30.985945    30.985945    29750.497 
 1763000    299.13128   -2242.9797   -23131.186     -25009.9     1878.714    1.1610133    30.985945    30.985945    30.985945    29750.497 
 1764000    295.45952   -2417.0242   -23209.842   -25065.496    1855.6533    1.1610133    30.985945    30.985945    30.985945    29750.497 
 1765000    301.05432   -1590.8065   -23175.742   -25066.534    1890.7918    1.1610133    30.985945    30.985945    30.985945    29750.497 
 1766000    292.83527   -2037.6564   -23182.985   -25022.157    1839.1715    1.1610133    30.985945    30.985945    30.985945    29750.497 
 1767000    304.46904   -2414.1913   -23207.787   -25120.025    1912.2381    1.1610133    30.985945    30.985945    30.985945    29750.497 
 1768000    296.43028   -2993.9775   -23295.216   -25156.966    1861.7502    1.1610133    30.985945    30.985945    30.985945    29750.497 
 1769000    306.15526   -2113.4091   -23216.808   -25139.637    1922.8285    1.1610133    30.985945    30.985945    30.985945    29750.497 
 1770000    300.92436   -2360.5687   -23154.891   -25044.866    1889.9755    1.1610133    30.985945    30.985945    30.985945    29750.497 
 1771000    296.18223    -3137.468   -23140.173   -25000.365    1860.1923    1.1610133    30.985945    30.985945    30.985945    29750.497 
 1772000    294.99368   -3055.3502   -23186.738   -25039.465    1852.7275    1.1610133    30.985945    30.985945    30.985945    29750.497 
 1773000    294.17181   -2829.8526    -23151.65   -24999.216    1847.5657    1.1610133    30.985945    30.985945    30.985945    29750.497 
 1774000    304.76213   -2688.3242   -23204.764   -25118.843    1914.0789    1.1610133    30.985945    30.985945    30.985945    29750.497 
 1775000    292.16702   -3068.9003    -23169.88   -25004.855    1834.9745    1.1610133    30.985945    30.985945    30.985945    29750.497 
 1776000    305.07836   -2192.6726   -23144.512   -25060.577     1916.065    1.1610133    30.985945    30.985945    30.985945    29750.497 
 1777000    301.23907   -2966.2819   -23209.522   -25101.474    1891.9521    1.1610133    30.985945    30.985945    30.985945    29750.497 
 1778000    302.20337   -3315.5614   -23074.184   -24972.193    1898.0084    1.1610133    30.985945    30.985945    30.985945    29750.497 
 1779000    291.43174   -2947.2854    -23166.03   -24996.387    1830.3565    1.1610133    30.985945    30.985945    30.985945    29750.497 
 1780000    305.54768   -2776.8014   -23105.654   -25024.666    1919.0126    1.1610133    30.985945    30.985945    30.985945    29750.497 
 1781000    294.52568   -2004.5769   -23171.263   -25021.051    1849.7882    1.1610133    30.985945    30.985945    30.985945    29750.497 
 1782000    301.33098   -1915.7351   -23222.978   -25115.507    1892.5293    1.1610133    30.985945    30.985945    30.985945    29750.497 
 1783000    304.15969   -1820.5056   -23212.491   -25122.786    1910.2952    1.1610133    30.985945    30.985945    30.985945    29750.497 
 1784000    293.61909   -2366.4052   -23186.522   -25030.616    1844.0943    1.1610133    30.985945    30.985945    30.985945    29750.497 
 1785000     297.0508   -2294.2921   -23222.893    -25088.54    1865.6474    1.1610133    30.985945    30.985945    30.985945    29750.497 
 1786000    300.47026   -3236.2223   -23245.995   -25133.119    1887.1235    1.1610133    30.985945    30.985945    30.985945    29750.497 
 1787000    292.75631   -1856.1787   -23297.712   -25136.387    1838.6755    1.1610133    30.985945    30.985945    30.985945    29750.497 
 1788000    303.77459   -2654.2137   -23252.801   -25160.678    1907.8766    1.1610133    30.985945    30.985945    30.985945    29750.497 
 1789000    300.92621   -1980.6635   -23232.309   -25122.296    1889.9871    1.1610133    30.985945    30.985945    30.985945    29750.497 
 1790000    295.94528   -2496.3145   -23248.404   -25107.108    1858.7041    1.1610133    30.985945    30.985945    30.985945    29750.497 
 1791000    303.17886   -3131.4623   -23185.541   -25089.677    1904.1351    1.1610133    30.985945    30.985945    30.985945    29750.497 
 1792000    293.44162   -2824.8764   -23217.131   -25060.111    1842.9797    1.1610133    30.985945    30.985945    30.985945    29750.497 
 1793000    296.88387   -2573.5488   -23259.658   -25124.257     1864.599    1.1610133    30.985945    30.985945    30.985945    29750.497 
 1794000    302.84132   -1298.3147   -23219.019   -25121.035    1902.0152    1.1610133    30.985945    30.985945    30.985945    29750.497 
 1795000     296.2185   -3142.1051   -23177.096   -25037.516    1860.4201    1.1610133    30.985945    30.985945    30.985945    29750.497 
 1796000    287.95916   -2912.1062   -23296.808   -25105.355    1808.5467    1.1610133    30.985945    30.985945    30.985945    29750.497 
 1797000    292.69938   -2383.2517   -23258.627   -25096.945     1838.318    1.1610133    30.985945    30.985945    30.985945    29750.497 
 1798000    298.63584   -2915.3046   -23242.858    -25118.46    1875.6023    1.1610133    30.985945    30.985945    30.985945    29750.497 
 1799000    303.07706   -3283.1924   -23091.061   -24994.557    1903.4957    1.1610133    30.985945    30.985945    30.985945    29750.497 
 1800000    290.49227   -2993.8986   -23221.096   -25045.552    1824.4561    1.1610133    30.985945    30.985945    30.985945    29750.497 
 1801000    301.08196   -2439.6245   -23178.006   -25068.971    1890.9653    1.1610133    30.985945    30.985945    30.985945    29750.497 
 1802000    300.60799   -2546.3832   -23164.237   -25052.226    1887.9886    1.1610133    30.985945    30.985945    30.985945    29750.497 
 1803000    303.48608   -2533.9177   -23106.472   -25012.536    1906.0646    1.1610133    30.985945    30.985945    30.985945    29750.497 
 1804000    298.38946   -2043.1175   -23244.963   -25119.018     1874.055    1.1610133    30.985945    30.985945    30.985945    29750.497 
 1805000    286.43882   -3129.1173   -23253.375   -25052.373    1798.9982    1.1610133    30.985945    30.985945    30.985945    29750.497 
 1806000    302.33039   -2878.7924   -23185.773   -25084.579    1898.8062    1.1610133    30.985945    30.985945    30.985945    29750.497 
 1807000     296.1222   -2705.4936   -23168.883   -25028.698    1859.8153    1.1610133    30.985945    30.985945    30.985945    29750.497 
 1808000    304.42504    -2660.981   -23207.324   -25119.285    1911.9618    1.1610133    30.985945    30.985945    30.985945    29750.497 
 1809000    294.96583   -3047.0607   -23228.662   -25081.214    1852.5526    1.1610133    30.985945    30.985945    30.985945    29750.497 
 1810000    300.00212   -2421.4647   -23250.343   -25134.526    1884.1834    1.1610133    30.985945    30.985945    30.985945    29750.497 
 1811000    302.31357    -1944.148   -23152.394   -25051.095    1898.7006    1.1610133    30.985945    30.985945    30.985945    29750.497 
 1812000    301.28403   -1880.1488     -23078.2   -24970.434    1892.2345    1.1610133    30.985945    30.985945    30.985945    29750.497 
 1813000    297.08079   -3348.7966   -23216.258   -25082.094    1865.8357    1.1610133    30.985945    30.985945    30.985945    29750.497 
 1814000    299.54574   -3097.2417   -23197.422   -25078.739     1881.317    1.1610133    30.985945    30.985945    30.985945    29750.497 
 1815000    295.63187   -3389.5981   -23199.397   -25056.132    1856.7357    1.1610133    30.985945    30.985945    30.985945    29750.497 
 1816000    302.37206   -2344.5121   -23206.026   -25105.094    1899.0679    1.1610133    30.985945    30.985945    30.985945    29750.497 
 1817000    298.87572   -2913.5333   -23274.326   -25151.435    1877.1089    1.1610133    30.985945    30.985945    30.985945    29750.497 
 1818000    294.84413   -2126.5134   -23205.084   -25056.872    1851.7883    1.1610133    30.985945    30.985945    30.985945    29750.497 
 1819000    296.68717   -1877.8233    -23232.88   -25096.244    1863.3636    1.1610133    30.985945    30.985945    30.985945    29750.497 
 1820000    300.75212    -2249.663   -23161.143   -25050.036    1888.8938    1.1610133    30.985945    30.985945    30.985945    29750.497 
 1821000    300.88866   -1974.1547   -23136.434   -25026.186    1889.7513    1.1610133    30.985945    30.985945    30.985945    29750.497 
 1822000    298.30351   -2468.7019   -23321.682   -25195.197    1873.5151    1.1610133    30.985945    30.985945    30.985945    29750.497 
 1823000    295.83289   -2100.4681   -23274.376   -25132.374    1857.9982    1.1610133    30.985945    30.985945    30.985945    29750.497 
 1824000    300.22032   -2415.3645   -23242.408   -25127.961    1885.5538    1.1610133    30.985945    30.985945    30.985945    29750.497 
 1825000    300.95159   -3856.4505   -23249.605   -25139.751    1890.1466    1.1610133    30.985945    30.985945    30.985945    29750.497 
 1826000    295.32129   -2959.8786   -23294.945    -25149.73    1854.7851    1.1610133    30.985945    30.985945    30.985945    29750.497 
 1827000     302.2025   -2431.7399   -23172.761   -25070.764     1898.003    1.1610133    30.985945    30.985945    30.985945    29750.497 
 1828000    300.60726   -2664.7766   -23201.815   -25089.799     1887.984    1.1610133    30.985945    30.985945    30.985945    29750.497 
 1829000    288.32842   -2393.9025   -23338.499   -25149.365    1810.8659    1.1610133    30.985945    30.985945    30.985945    29750.497 
 1830000    292.33132   -2612.0877   -23293.903    -25129.91    1836.0064    1.1610133    30.985945    30.985945    30.985945    29750.497 
 1831000    301.67976   -2775.9466   -23247.832   -25142.552    1894.7199    1.1610133    30.985945    30.985945    30.985945    29750.497 
 1832000    304.11972   -2404.9095    -23172.17   -25082.214    1910.0442    1.1610133    30.985945    30.985945    30.985945    29750.497 
 1833000    297.21234   -1274.6058   -23214.342   -25081.004    1866.6619    1.1610133    30.985945    30.985945    30.985945    29750.497 
 1834000    297.45184    -2991.744   -23167.428   -25035.595    1868.1662    1.1610133    30.985945    30.985945    30.985945    29750.497 
 1835000    300.25197   -2403.9669   -23143.917   -25029.669    1885.7525    1.1610133    30.985945    30.985945    30.985945    29750.497 
 1836000    295.38847   -1901.9012   -23040.802   -24896.009     1855.207    1.1610133    30.985945    30.985945    30.985945    29750.497 
 1837000    304.60641   -2346.0097   -23079.187   -24992.288    1913.1009    1.1610133    30.985945    30.985945    30.985945    29750.497 
 1838000    301.16695    -2254.943   -23174.093   -25065.592    1891.4991    1.1610133    30.985945    30.985945    30.985945    29750.497 
 1839000    293.23744   -2695.4675   -23273.534   -25115.231    1841.6973    1.1610133    30.985945    30.985945    30.985945    29750.497 
 1840000     296.0388   -2998.0275   -23180.201   -25039.493    1859.2915    1.1610133    30.985945    30.985945    30.985945    29750.497 
 1841000     294.0013   -2383.6887   -23153.532   -25000.027    1846.4948    1.1610133    30.985945    30.985945    30.985945    29750.497 
 1842000    298.88622   -2305.4537   -23145.352   -25022.527    1877.1749    1.1610133    30.985945    30.985945    30.985945    29750.497 
 1843000     298.5026   -2091.4998   -23124.671   -24999.437    1874.7655    1.1610133    30.985945    30.985945    30.985945    29750.497 
 1844000    295.15966   -2354.4365   -23141.945   -24995.715      1853.77    1.1610133    30.985945    30.985945    30.985945    29750.497 
 1845000    310.27828   -2359.0537   -23048.855   -24997.578    1948.7235    1.1610133    30.985945    30.985945    30.985945    29750.497 
 1846000    298.39837   -2366.8435   -23133.508   -25007.619    1874.1109    1.1610133    30.985945    30.985945    30.985945    29750.497 
 1847000    293.68194   -3487.9494   -23152.647   -24997.136     1844.489    1.1610133    30.985945    30.985945    30.985945    29750.497 
 1848000    302.76556   -3818.7297   -23209.594   -25111.133    1901.5393    1.1610133    30.985945    30.985945    30.985945    29750.497 
 1849000     296.3326   -1937.2723   -23152.602   -25013.738    1861.1367    1.1610133    30.985945    30.985945    30.985945    29750.497 
 1850000    300.35984   -2503.4046   -23168.383   -25054.813      1886.43    1.1610133    30.985945    30.985945    30.985945    29750.497 
 1851000    301.83709   -2065.6602   -23114.062    -25009.77     1895.708    1.1610133    30.985945    30.985945    30.985945    29750.497 
 1852000    294.90194    -2094.161   -23176.295   -25028.447    1852.1513    1.1610133    30.985945    30.985945    30.985945    29750.497 
 1853000    301.42555   -2130.5798   -23161.116   -25054.239    1893.1233    1.1610133    30.985945    30.985945    30.985945    29750.497 
 1854000    302.91879   -2489.0405   -23100.311   -25002.813    1902.5017    1.1610133    30.985945    30.985945    30.985945    29750.497 
 1855000    298.23857   -2795.9584   -23183.296   -25056.404    1873.1072    1.1610133    30.985945    30.985945    30.985945    29750.497 
 1856000      290.999   -1780.0765   -23242.524   -25070.163    1827.6387    1.1610133    30.985945    30.985945    30.985945    29750.497 
 1857000    299.58795   -3351.4014     -23215.1   -25096.682    1881.5821    1.1610133    30.985945    30.985945    30.985945    29750.497 
 1858000    301.03778   -2076.1992   -23156.256   -25046.944    1890.6879    1.1610133    30.985945    30.985945    30.985945    29750.497 
 1859000    295.14453   -1881.5213   -23229.272   -25082.947    1853.6749    1.1610133    30.985945    30.985945    30.985945    29750.497 
 1860000    299.34121   -2393.9461   -23140.796   -25020.828    1880.0324    1.1610133    30.985945    30.985945    30.985945    29750.497 
 1861000    298.29315   -3466.2473    -23192.93    -25066.38    1873.4501    1.1610133    30.985945    30.985945    30.985945    29750.497 
 1862000    298.81904    -3326.705   -23216.709   -25093.461    1876.7529    1.1610133    30.985945    30.985945    30.985945    29750.497 
 1863000    291.92906   -3530.1514     -23208.2    -25041.68      1833.48    1.1610133    30.985945    30.985945    30.985945    29750.497 
 1864000     290.8764    -2470.784   -23320.968   -25147.836    1826.8687    1.1610133    30.985945    30.985945    30.985945    29750.497 
 1865000    295.05023   -2648.7857   -23249.638   -25102.721    1853.0826    1.1610133    30.985945    30.985945    30.985945    29750.497 
 1866000    304.07986   -3164.2375   -23074.672   -24984.466    1909.7938    1.1610133    30.985945    30.985945    30.985945    29750.497 
 1867000    286.53219   -2562.6259   -23223.897   -25023.482    1799.5845    1.1610133    30.985945    30.985945    30.985945    29750.497 
 1868000    296.72769   -2022.9563   -23194.302    -25057.92     1863.618    1.1610133    30.985945    30.985945    30.985945    29750.497 
 1869000    296.64232   -3079.7726    -23178.63   -25041.712    1863.0819    1.1610133    30.985945    30.985945    30.985945    29750.497 
 1870000    299.13928   -2589.6727   -23117.382   -24996.146    1878.7642    1.1610133    30.985945    30.985945    30.985945    29750.497 
 1871000    299.45918   -1999.3524   -23118.048   -24998.822    1880.7734    1.1610133    30.985945    30.985945    30.985945    29750.497 
 1872000     295.4578   -3249.3429   -23215.696   -25071.338    1855.6424    1.1610133    30.985945    30.985945    30.985945    29750.497 
 1873000    309.42822   -2445.0671   -23077.088   -25020.473    1943.3846    1.1610133    30.985945    30.985945    30.985945    29750.497 
 1874000    297.18219   -2346.0529   -23224.586   -25091.058    1866.4726    1.1610133    30.985945    30.985945    30.985945    29750.497 
 1875000    304.59691   -3221.0538   -23155.707   -25068.749    1913.0412    1.1610133    30.985945    30.985945    30.985945    29750.497 
 1876000    296.24952   -2381.9554   -23233.806   -25094.421    1860.6149    1.1610133    30.985945    30.985945    30.985945    29750.497 
 1877000     298.9315   -1618.0468   -23193.584   -25071.043    1877.4593    1.1610133    30.985945    30.985945    30.985945    29750.497 
 1878000    295.21439   -1704.2611   -23275.734   -25129.847    1854.1137    1.1610133    30.985945    30.985945    30.985945    29750.497 
 1879000    295.25905    -2450.236   -23190.946   -25045.341    1854.3942    1.1610133    30.985945    30.985945    30.985945    29750.497 
 1880000    309.66312   -1439.9666   -23037.398   -24982.258    1944.8599    1.1610133    30.985945    30.985945    30.985945    29750.497 
 1881000    295.13189     -2137.29   -23223.369   -25076.965    1853.5955    1.1610133    30.985945    30.985945    30.985945    29750.497 
 1882000    301.29994   -1702.5539   -23177.672   -25070.006    1892.3344    1.1610133    30.985945    30.985945    30.985945    29750.497 
 1883000     296.4526    -1155.022   -23148.061   -25009.952    1861.8903    1.1610133    30.985945    30.985945    30.985945    29750.497 
 1884000    299.85943    -1820.936   -23103.774   -24987.062    1883.2872    1.1610133    30.985945    30.985945    30.985945    29750.497 
 1885000    304.06629   -2371.6099   -23124.012   -25033.721    1909.7086    1.1610133    30.985945    30.985945    30.985945    29750.497 
 1886000    300.50874   -2712.6485   -23181.987   -25069.353    1887.3652    1.1610133    30.985945    30.985945    30.985945    29750.497 
 1887000    310.88081   -2351.4292    -23197.62   -25150.128    1952.5077    1.1610133    30.985945    30.985945    30.985945    29750.497 
 1888000    300.97859   -2196.4041   -23286.813   -25177.129    1890.3161    1.1610133    30.985945    30.985945    30.985945    29750.497 
 1889000    297.96001   -2957.7513   -23112.301   -24983.658    1871.3577    1.1610133    30.985945    30.985945    30.985945    29750.497 
 1890000    299.69746   -2189.8177   -23081.591   -24963.861    1882.2699    1.1610133    30.985945    30.985945    30.985945    29750.497 
 1891000    304.88127   -2143.2416   -23154.596   -25069.423    1914.8272    1.1610133    30.985945    30.985945    30.985945    29750.497 
 1892000    292.40821   -3211.3984   -23158.119   -24994.608    1836.4893    1.1610133    30.985945    30.985945    30.985945    29750.497 
 1893000    294.21151   -2011.2213    -23078.64   -24926.455    1847.8151    1.1610133    30.985945    30.985945    30.985945    29750.497 
 1894000     295.9644   -2759.8577    -23214.56   -25073.384    1858.8242    1.1610133    30.985945    30.985945    30.985945    29750.497 
 1895000    304.97879   -2731.0753   -23169.984   -25085.424    1915.4396    1.1610133    30.985945    30.985945    30.985945    29750.497 
 1896000    308.21427    -3180.694   -23163.394   -25099.154    1935.7603    1.1610133    30.985945    30.985945    30.985945    29750.497 
 1897000    298.84983   -2112.8988   -23251.205   -25128.151    1876.9463    1.1610133    30.985945    30.985945    30.985945    29750.497 
 1898000     299.6664   -1409.4342   -23244.028   -25126.103    1882.0748    1.1610133    30.985945    30.985945    30.985945    29750.497 
 1899000    305.93571   -1741.9935   -23183.517   -25104.967    1921.4497    1.1610133    30.985945    30.985945    30.985945    29750.497 
 1900000    296.84125   -2394.3689   -23196.503   -25060.834    1864.3313    1.1610133    30.985945    30.985945    30.985945    29750.497 
 1901000    307.40567   -2571.7216   -23154.361   -25085.042    1930.6818    1.1610133    30.985945    30.985945    30.985945    29750.497 
 1902000    298.90465   -2560.9591   -23210.727   -25088.018    1877.2906    1.1610133    30.985945    30.985945    30.985945    29750.497 
 1903000    299.14579   -2034.7581   -23192.976   -25071.781    1878.8051    1.1610133    30.985945    30.985945    30.985945    29750.497 
 1904000    299.66054   -2495.2161   -23227.665   -25109.703    1882.0381    1.1610133    30.985945    30.985945    30.985945    29750.497 
 1905000    301.05099   -2045.0222   -23100.828   -24991.599    1890.7708    1.1610133    30.985945    30.985945    30.985945    29750.497 
 1906000    288.95545   -2009.0342    -23221.23   -25036.034     1814.804    1.1610133    30.985945    30.985945    30.985945    29750.497 
 1907000    300.96671   -2558.7558   -23211.038    -25101.28    1890.2415    1.1610133    30.985945    30.985945    30.985945    29750.497 
 1908000    307.92038   -1146.5459   -23122.951   -25056.865    1933.9145    1.1610133    30.985945    30.985945    30.985945    29750.497 
 1909000    303.32569   -3199.8763   -23057.065   -24962.122    1905.0573    1.1610133    30.985945    30.985945    30.985945    29750.497 
 1910000    302.40732   -2129.7818   -23214.291    -25113.58    1899.2894    1.1610133    30.985945    30.985945    30.985945    29750.497 
 1911000    293.46362   -3673.0696   -23210.748   -25053.866    1843.1178    1.1610133    30.985945    30.985945    30.985945    29750.497 
 1912000    301.31577   -3167.0529   -23174.982   -25067.416    1892.4338    1.1610133    30.985945    30.985945    30.985945    29750.497 
 1913000    294.90853   -2184.3442   -23146.308   -24998.501    1852.1927    1.1610133    30.985945    30.985945    30.985945    29750.497 
 1914000    308.05697   -1422.1115   -23113.575   -25048.347    1934.7723    1.1610133    30.985945    30.985945    30.985945    29750.497 
 1915000    305.40752   -2113.4639   -23032.485   -24950.618    1918.1323    1.1610133    30.985945    30.985945    30.985945    29750.497 
 1916000    296.65011   -3507.6216   -23180.313   -25043.444    1863.1308    1.1610133    30.985945    30.985945    30.985945    29750.497 
 1917000    298.61208   -2997.8592   -23215.674   -25091.128    1875.4531    1.1610133    30.985945    30.985945    30.985945    29750.497 
 1918000    293.64771   -2701.8474   -23197.792   -25042.066    1844.2741    1.1610133    30.985945    30.985945    30.985945    29750.497 
 1919000    300.08635   -2163.5704   -23085.151   -24969.863    1884.7124    1.1610133    30.985945    30.985945    30.985945    29750.497 
 1920000    300.91025   -2171.9826   -23070.438   -24960.325    1889.8869    1.1610133    30.985945    30.985945    30.985945    29750.497 
 1921000    295.83226   -1654.6417   -23151.829   -25009.824    1857.9943    1.1610133    30.985945    30.985945    30.985945    29750.497 
 1922000    297.52817   -2878.5003   -23181.156   -25049.801    1868.6455    1.1610133    30.985945    30.985945    30.985945    29750.497 
 1923000    303.70638   -2400.5819   -23234.181    -25141.63    1907.4482    1.1610133    30.985945    30.985945    30.985945    29750.497 
 1924000    302.64321   -1153.2395   -23123.971   -25024.742    1900.7709    1.1610133    30.985945    30.985945    30.985945    29750.497 
 1925000    292.33222   -1549.4896   -23191.949   -25027.961     1836.012    1.1610133    30.985945    30.985945    30.985945    29750.497 
 1926000    299.36913   -2153.0842   -23080.621   -24960.829    1880.2078    1.1610133    30.985945    30.985945    30.985945    29750.497 
 1927000    303.24016   -2245.2085   -23097.788   -25002.308    1904.5201    1.1610133    30.985945    30.985945    30.985945    29750.497 
 1928000    296.17441   -2176.4991   -23113.846    -24973.99    1860.1431    1.1610133    30.985945    30.985945    30.985945    29750.497 
 1929000    295.81562   -1524.4129   -23172.008   -25029.898    1857.8897    1.1610133    30.985945    30.985945    30.985945    29750.497 
 1930000    303.98789   -1652.4529   -23032.677   -24941.894    1909.2163    1.1610133    30.985945    30.985945    30.985945    29750.497 
 1931000    292.66786   -2743.8536   -23127.045   -24965.165      1838.12    1.1610133    30.985945    30.985945    30.985945    29750.497 
 1932000    311.73005   -2112.1731   -23124.424   -25082.266    1957.8414    1.1610133    30.985945    30.985945    30.985945    29750.497 
 1933000    296.20189   -2112.1592   -23197.376   -25057.692    1860.3157    1.1610133    30.985945    30.985945    30.985945    29750.497 
 1934000    299.55238   -2304.4476   -23149.447   -25030.805    1881.3587    1.1610133    30.985945    30.985945    30.985945    29750.497 
 1935000     296.2296   -2098.4898   -23246.932   -25107.422    1860.4898    1.1610133    30.985945    30.985945    30.985945    29750.497 
 1936000    301.36351   -2185.6165    -23195.42   -25088.154    1892.7336    1.1610133    30.985945    30.985945    30.985945    29750.497 
 1937000    289.25419   -2747.7464   -23154.154   -24970.835    1816.6802    1.1610133    30.985945    30.985945    30.985945    29750.497 
 1938000     299.4335   -2642.3402   -23201.305   -25081.917    1880.6121    1.1610133    30.985945    30.985945    30.985945    29750.497 
 1939000    304.44877   -2023.9886   -23232.353   -25144.463    1912.1108    1.1610133    30.985945    30.985945    30.985945    29750.497 
 1940000     288.3217   -1324.8351   -23263.604   -25074.428    1810.8237    1.1610133    30.985945    30.985945    30.985945    29750.497 
 1941000    301.25768   -1804.3972   -23242.807   -25134.876     1892.069    1.1610133    30.985945    30.985945    30.985945    29750.497 
 1942000    294.84484   -1726.0808   -23269.925   -25121.718    1851.7927    1.1610133    30.985945    30.985945    30.985945    29750.497 
 1943000    298.40887   -2745.7257   -23286.069   -25160.245    1874.1768    1.1610133    30.985945    30.985945    30.985945    29750.497 
 1944000      291.351   -2316.0366   -23253.083   -25082.933    1829.8494    1.1610133    30.985945    30.985945    30.985945    29750.497 
 1945000    294.10645   -2857.1522   -23213.377   -25060.532    1847.1552    1.1610133    30.985945    30.985945    30.985945    29750.497 
 1946000    286.58889   -3138.3837   -23277.607   -25077.548    1799.9407    1.1610133    30.985945    30.985945    30.985945    29750.497 
 1947000    304.32863   -2211.4381   -23092.357   -25003.713    1911.3563    1.1610133    30.985945    30.985945    30.985945    29750.497 
 1948000    289.84945   -2380.5407    -23186.07   -25006.489    1820.4188    1.1610133    30.985945    30.985945    30.985945    29750.497 
 1949000    297.93656   -2891.4184    -23170.57   -25041.781    1871.2104    1.1610133    30.985945    30.985945    30.985945    29750.497 
 1950000    295.22019   -2929.2024   -23229.483   -25083.633    1854.1501    1.1610133    30.985945    30.985945    30.985945    29750.497 
 1951000    304.73144   -2143.1109   -23142.177   -25056.063    1913.8862    1.1610133    30.985945    30.985945    30.985945    29750.497 
 1952000    298.81246   -1143.8581   -23098.407   -24975.118    1876.7116    1.1610133    30.985945    30.985945    30.985945    29750.497 
 1953000    302.16482    -1569.267   -23202.508   -25100.275    1897.7663    1.1610133    30.985945    30.985945    30.985945    29750.497 
 1954000    297.84853   -2869.3853   -23297.499   -25168.157    1870.6576    1.1610133    30.985945    30.985945    30.985945    29750.497 
 1955000    303.38363   -2204.9986   -23189.797   -25095.218    1905.4211    1.1610133    30.985945    30.985945    30.985945    29750.497 
 1956000    296.86884   -269.60588   -23182.893   -25047.397    1864.5046    1.1610133    30.985945    30.985945    30.985945    29750.497 
 1957000    297.00614   -2034.7837   -23166.313    -25031.68    1865.3669    1.1610133    30.985945    30.985945    30.985945    29750.497 
 1958000    287.84108   -2849.7666   -23239.531   -25047.337    1807.8051    1.1610133    30.985945    30.985945    30.985945    29750.497 
 1959000    290.88936   -2778.7386   -23255.074   -25082.024    1826.9501    1.1610133    30.985945    30.985945    30.985945    29750.497 
 1960000    300.16977   -2460.6143   -23217.385   -25102.622    1885.2363    1.1610133    30.985945    30.985945    30.985945    29750.497 
 1961000    299.00621   -2591.2527   -23223.582    -25101.51    1877.9284    1.1610133    30.985945    30.985945    30.985945    29750.497 
 1962000    301.36512   -1717.7762   -23081.816    -24974.56    1892.7438    1.1610133    30.985945    30.985945    30.985945    29750.497 
 1963000    295.55942   -3095.2625    -23199.17    -25055.45    1856.2807    1.1610133    30.985945    30.985945    30.985945    29750.497 
 1964000    307.15272   -1852.6198   -23249.163   -25178.256    1929.0932    1.1610133    30.985945    30.985945    30.985945    29750.497 
 1965000    295.22391   -2118.7916   -23233.257   -25087.431    1854.1735    1.1610133    30.985945    30.985945    30.985945    29750.497 
 1966000    291.73262   -2489.0379   -23231.126   -25063.372    1832.2462    1.1610133    30.985945    30.985945    30.985945    29750.497 
 1967000    295.40465   -2254.5733   -23225.828   -25081.137    1855.3086    1.1610133    30.985945    30.985945    30.985945    29750.497 
 1968000    302.82306   -1980.0699   -23147.827   -25049.728    1901.9004    1.1610133    30.985945    30.985945    30.985945    29750.497 
 1969000     295.1002   -2380.3517   -23156.241   -25009.637    1853.3965    1.1610133    30.985945    30.985945    30.985945    29750.497 
 1970000    305.03288   -2381.5568   -23268.757   -25184.536    1915.7794    1.1610133    30.985945    30.985945    30.985945    29750.497 
 1971000    292.77642   -2752.1825    -23256.81   -25095.611    1838.8018    1.1610133    30.985945    30.985945    30.985945    29750.497 
 1972000    301.88188   -2569.1738   -23081.492   -24977.481    1895.9893    1.1610133    30.985945    30.985945    30.985945    29750.497 
 1973000    291.33534   -1732.9846   -23202.749     -25032.5    1829.7511    1.1610133    30.985945    30.985945    30.985945    29750.497 
 1974000    301.55081   -2485.4422   -23134.263   -25028.173      1893.91    1.1610133    30.985945    30.985945    30.985945    29750.497 
 1975000    293.78718   -2349.0328   -23284.703   -25129.853      1845.15    1.1610133    30.985945    30.985945    30.985945    29750.497 
 1976000    308.47534    -2321.182   -23074.668   -25012.068       1937.4    1.1610133    30.985945    30.985945    30.985945    29750.497 
 1977000    312.49505   -1624.3254   -23058.091   -25020.737     1962.646    1.1610133    30.985945    30.985945    30.985945    29750.497 
 1978000    293.94612   -2674.6138   -23223.445   -25069.593    1846.1483    1.1610133    30.985945    30.985945    30.985945    29750.497 
 1979000    293.41484   -2923.6869   -23189.989   -25032.801    1842.8115    1.1610133    30.985945    30.985945    30.985945    29750.497 
 1980000    294.55594    -1674.282   -23254.415   -25104.393    1849.9782    1.1610133    30.985945    30.985945    30.985945    29750.497 
 1981000    301.68678   -2921.8747    -23188.74   -25083.503     1894.764    1.1610133    30.985945    30.985945    30.985945    29750.497 
 1982000    290.78588   -2619.0814   -23201.382   -25027.682    1826.3001    1.1610133    30.985945    30.985945    30.985945    29750.497 
 1983000    298.77389   -2290.3653   -23235.415   -25111.884    1876.4694    1.1610133    30.985945    30.985945    30.985945    29750.497 
 1984000    302.37971   -1718.3881   -23118.993   -25018.109    1899.1159    1.1610133    30.985945    30.985945    30.985945    29750.497 
 1985000     305.1647   -1640.3291   -23188.661   -25105.268    1916.6073    1.1610133    30.985945    30.985945    30.985945    29750.497 
 1986000    314.92798   -2127.1112    -23044.15   -25022.076    1977.9262    1.1610133    30.985945    30.985945    30.985945    29750.497 
 1987000     300.7424   -2753.9734   -23055.963   -24944.795    1888.8327    1.1610133    30.985945    30.985945    30.985945    29750.497 
 1988000    299.67409   -2071.5176   -23238.015   -25120.138    1882.1231    1.1610133    30.985945    30.985945    30.985945    29750.497 
 1989000    286.57654   -2650.9608   -23261.395   -25061.258    1799.8631    1.1610133    30.985945    30.985945    30.985945    29750.497 
 1990000    295.38058   -3048.7686   -23237.758   -25092.916    1855.1575    1.1610133    30.985945    30.985945    30.985945    29750.497 
 1991000    302.17343    -2027.317   -23247.331   -25145.151    1897.8204    1.1610133    30.985945    30.985945    30.985945    29750.497 
 1992000    292.47207   -2310.3732   -23195.992   -25032.882    1836.8904    1.1610133    30.985945    30.985945    30.985945    29750.497 
 1993000    302.34843    -1515.719   -23223.067   -25121.986    1898.9195    1.1610133    30.985945    30.985945    30.985945    29750.497 
 1994000    299.54476   -2729.8522   -23212.018   -25093.329    1881.3109    1.1610133    30.985945    30.985945    30.985945    29750.497 
 1995000    299.24863   -2530.5899   -23150.259    -25029.71     1879.451    1.1610133    30.985945    30.985945    30.985945    29750.497 
 1996000    296.78642   -2560.0989   -23197.234   -25061.221    1863.9869    1.1610133    30.985945    30.985945    30.985945    29750.497 
 1997000    294.22135   -1825.5913    -23182.78   -25030.656    1847.8768    1.1610133    30.985945    30.985945    30.985945    29750.497 
 1998000    308.58488   -2907.9794   -23055.164   -24993.252     1938.088    1.1610133    30.985945    30.985945    30.985945    29750.497 
 1999000    310.95213   -2219.6864   -23200.777   -25153.733    1952.9556    1.1610133    30.985945    30.985945    30.985945    29750.497 
 2000000    294.03016   -2368.6121   -23201.016   -25047.692     1846.676    1.1610133    30.985945    30.985945    30.985945    29750.497 
 2001000    306.33208   -2719.0242   -23057.081    -24981.02    1923.9391    1.1610133    30.985945    30.985945    30.985945    29750.497 
 2002000    308.73373   -2674.0368   -23035.126   -24974.149    1939.0228    1.1610133    30.985945    30.985945    30.985945    29750.497 
 2003000    296.96675   -1770.5964   -23211.382   -25076.501    1865.1195    1.1610133    30.985945    30.985945    30.985945    29750.497 
 2004000    298.09846   -2221.1796   -23199.575   -25071.802    1872.2273    1.1610133    30.985945    30.985945    30.985945    29750.497 
 2005000    307.36861   -2866.8971   -23178.294   -25108.743    1930.4491    1.1610133    30.985945    30.985945    30.985945    29750.497 
 2006000     304.6228   -2492.4523   -23087.687    -25000.89    1913.2038    1.1610133    30.985945    30.985945    30.985945    29750.497 
 2007000    300.49072   -1597.1427   -23159.538    -25046.79     1887.252    1.1610133    30.985945    30.985945    30.985945    29750.497 
 2008000    295.54463   -1355.1161   -23137.762    -24993.95    1856.1878    1.1610133    30.985945    30.985945    30.985945    29750.497 
 2009000    299.13761   -1597.2987   -23157.999   -25036.752    1878.7538    1.1610133    30.985945    30.985945    30.985945    29750.497 
 2010000    296.33878   -2804.8401   -23213.838   -25075.013    1861.1755    1.1610133    30.985945    30.985945    30.985945    29750.497 
 2011000     299.0211   -3110.7127   -23132.465   -25010.487     1878.022    1.1610133    30.985945    30.985945    30.985945    29750.497 
 2012000    301.37527    -1983.661   -23145.877   -25038.684    1892.8075    1.1610133    30.985945    30.985945    30.985945    29750.497 
 2013000    288.21376   -2477.4104   -23257.797   -25067.943    1810.1458    1.1610133    30.985945    30.985945    30.985945    29750.497 
 2014000    298.91732   -1741.3824   -23138.498   -25015.868    1877.3702    1.1610133    30.985945    30.985945    30.985945    29750.497 
 2015000    296.72927   -3147.2065   -23187.477   -25051.105     1863.628    1.1610133    30.985945    30.985945    30.985945    29750.497 
 2016000    297.71584   -3092.9119   -23237.432   -25107.257    1869.8242    1.1610133    30.985945    30.985945    30.985945    29750.497 
 2017000    292.28918   -2361.8798   -23236.596   -25072.338    1835.7417    1.1610133    30.985945    30.985945    30.985945    29750.497 
 2018000    296.75868   -2659.4861   -23190.241   -25054.054    1863.8127    1.1610133    30.985945    30.985945    30.985945    29750.497 
 2019000    298.40909   -3362.6961   -23218.315   -25092.493    1874.1782    1.1610133    30.985945    30.985945    30.985945    29750.497 
 2020000    299.63905   -2371.6824   -23185.927    -25067.83     1881.903    1.1610133    30.985945    30.985945    30.985945    29750.497 
 2021000    304.09796   -1964.1587   -23135.839   -25045.747    1909.9076    1.1610133    30.985945    30.985945    30.985945    29750.497 
 2022000    293.04669    -3445.774   -23274.281    -25114.78    1840.4993    1.1610133    30.985945    30.985945    30.985945    29750.497 
 2023000    298.91642   -2496.7136   -23193.454   -25070.818    1877.3645    1.1610133    30.985945    30.985945    30.985945    29750.497 
 2024000    306.05906   -1384.3083   -23193.833   -25116.057    1922.2244    1.1610133    30.985945    30.985945    30.985945    29750.497 
 2025000    296.88485   -2459.5854   -23249.208   -25113.813    1864.6051    1.1610133    30.985945    30.985945    30.985945    29750.497 
 2026000    300.53821   -2859.5502   -23250.015   -25137.566    1887.5503    1.1610133    30.985945    30.985945    30.985945    29750.497 
 2027000    300.07455   -2152.8154   -23128.027   -25012.665    1884.6383    1.1610133    30.985945    30.985945    30.985945    29750.497 
 2028000    296.40564   -2888.9739    -23277.58   -25139.175    1861.5954    1.1610133    30.985945    30.985945    30.985945    29750.497 
 2029000    303.12579   -2669.2903   -23173.253   -25077.055    1903.8018    1.1610133    30.985945    30.985945    30.985945    29750.497 
 2030000    300.32168   -2193.6386   -23176.324   -25062.514    1886.1903    1.1610133    30.985945    30.985945    30.985945    29750.497 
 2031000    299.14185   -2057.0224   -23135.242   -25014.023    1878.7804    1.1610133    30.985945    30.985945    30.985945    29750.497 
 2032000    297.52111   -1372.3666   -23210.252   -25078.854    1868.6012    1.1610133    30.985945    30.985945    30.985945    29750.497 
 2033000    294.65026   -2308.4666   -23208.601   -25059.171    1850.5706    1.1610133    30.985945    30.985945    30.985945    29750.497 
 2034000    302.77139   -2375.5526   -23229.973   -25131.549    1901.5759    1.1610133    30.985945    30.985945    30.985945    29750.497 
 2035000    292.10576   -2358.0265   -23264.524   -25099.114    1834.5897    1.1610133    30.985945    30.985945    30.985945    29750.497 
 2036000     303.1751   -2061.9317   -23184.462   -25088.573    1904.1115    1.1610133    30.985945    30.985945    30.985945    29750.497 
 2037000    298.76274   -3191.9014   -23217.909   -25094.308    1876.3993    1.1610133    30.985945    30.985945    30.985945    29750.497 
 2038000    296.17226   -2477.4632   -23326.974   -25187.103    1860.1297    1.1610133    30.985945    30.985945    30.985945    29750.497 
 2039000    296.37286    -2281.765   -23174.249   -25035.639    1861.3895    1.1610133    30.985945    30.985945    30.985945    29750.497 
 2040000    292.35363   -2211.6789   -23275.694    -25111.84    1836.1465    1.1610133    30.985945    30.985945    30.985945    29750.497 
 2041000    297.98393   -2905.2681   -23308.899   -25180.407     1871.508    1.1610133    30.985945    30.985945    30.985945    29750.497 
 2042000     292.6601   -1905.6958   -23312.837   -25150.909    1838.0713    1.1610133    30.985945    30.985945    30.985945    29750.497 
 2043000    292.40198   -2862.3473   -23361.936   -25198.386    1836.4502    1.1610133    30.985945    30.985945    30.985945    29750.497 
 2044000    284.26049   -3186.8889   -23317.614   -25102.931     1785.317    1.1610133    30.985945    30.985945    30.985945    29750.497 
 2045000    301.85796   -2186.1457   -23286.631   -25182.471    1895.8391    1.1610133    30.985945    30.985945    30.985945    29750.497 
 2046000    288.16936   -2868.6093   -23269.221   -25079.088    1809.8669    1.1610133    30.985945    30.985945    30.985945    29750.497 
 2047000     309.4417   -2950.2336   -23241.989   -25185.458    1943.4693    1.1610133    30.985945    30.985945    30.985945    29750.497 
 2048000     300.5701   -1706.2861   -23262.309    -25150.06    1887.7506    1.1610133    30.985945    30.985945    30.985945    29750.497 
 2049000    291.73927   -1460.7919   -23215.172    -25047.46     1832.288    1.1610133    30.985945    30.985945    30.985945    29750.497 
 2050000    297.01793   -2660.9814   -23196.661   -25062.102    1865.4409    1.1610133    30.985945    30.985945    30.985945    29750.497 
 2051000    295.80247    -1402.796   -23199.369   -25057.176    1857.8072    1.1610133    30.985945    30.985945    30.985945    29750.497 
 2052000    299.26874   -2966.9105   -23233.415   -25112.992    1879.5773    1.1610133    30.985945    30.985945    30.985945    29750.497 
 2053000    302.65333   -2206.3563     -23185.8   -25086.634    1900.8345    1.1610133    30.985945    30.985945    30.985945    29750.497 
 2054000    296.83454   -1903.5582   -23138.524   -25002.813    1864.2892    1.1610133    30.985945    30.985945    30.985945    29750.497 
 2055000    296.33782   -2538.7817   -23225.537   -25086.706    1861.1695    1.1610133    30.985945    30.985945    30.985945    29750.497 
 2056000     304.6662   -1132.7093   -23076.651   -24990.127    1913.4764    1.1610133    30.985945    30.985945    30.985945    29750.497 
 2057000     311.6892   -2353.7019   -23164.732   -25122.317    1957.5848    1.1610133    30.985945    30.985945    30.985945    29750.497 
 2058000    300.23434   -2559.4231   -23150.879   -25036.521    1885.6418    1.1610133    30.985945    30.985945    30.985945    29750.497 
 2059000    291.78009   -2551.2625   -23198.615    -25031.16    1832.5443    1.1610133    30.985945    30.985945    30.985945    29750.497 
 2060000    297.36561   -1773.7316   -23198.495   -25066.119    1867.6246    1.1610133    30.985945    30.985945    30.985945    29750.497 
 2061000    304.59984   -1803.0672   -23200.128   -25113.187    1913.0596    1.1610133    30.985945    30.985945    30.985945    29750.497 
 2062000    295.76989   -2532.9938   -23211.897     -25069.5    1857.6026    1.1610133    30.985945    30.985945    30.985945    29750.497 
 2063000    305.74515   -2027.3096   -23166.421   -25086.673    1920.2528    1.1610133    30.985945    30.985945    30.985945    29750.497 
 2064000    301.30326   -3074.6523   -23206.931   -25099.286    1892.3553    1.1610133    30.985945    30.985945    30.985945    29750.497 
 2065000    292.90681   -1943.7052   -23228.881   -25068.502    1839.6208    1.1610133    30.985945    30.985945    30.985945    29750.497 
 2066000    296.36574   -2207.9161   -23168.626   -25029.971    1861.3448    1.1610133    30.985945    30.985945    30.985945    29750.497 
 2067000    295.99164   -2349.3041    -23169.03   -25028.025    1858.9953    1.1610133    30.985945    30.985945    30.985945    29750.497 
 2068000    304.97161   -3108.3774   -23139.607   -25055.001    1915.3945    1.1610133    30.985945    30.985945    30.985945    29750.497 
 2069000    294.00191   -3550.5623    -23193.63   -25040.129    1846.4986    1.1610133    30.985945    30.985945    30.985945    29750.497 
 2070000    311.04701   -2767.4927   -23113.625   -25067.177    1953.5515    1.1610133    30.985945    30.985945    30.985945    29750.497 
 2071000    299.30835   -2562.6241    -23226.79   -25106.616    1879.8261    1.1610133    30.985945    30.985945    30.985945    29750.497 
 2072000     301.2616   -2944.3148   -23260.052   -25152.146    1892.0936    1.1610133    30.985945    30.985945    30.985945    29750.497 
 2073000    301.62642   -2916.4787   -23249.002   -25143.387    1894.3849    1.1610133    30.985945    30.985945    30.985945    29750.497 
 2074000    303.28814   -2364.4753   -23232.167   -25136.988    1904.8214    1.1610133    30.985945    30.985945    30.985945    29750.497 
 2075000    293.57773    -3001.268   -23269.363   -25113.197    1843.8346    1.1610133    30.985945    30.985945    30.985945    29750.497 
 2076000    297.83225   -3113.2182    -23215.29   -25085.845    1870.5554    1.1610133    30.985945    30.985945    30.985945    29750.497 
 2077000    302.92196   -2887.0369   -23149.503   -25052.025    1902.5216    1.1610133    30.985945    30.985945    30.985945    29750.497 
 2078000    295.78972   -2378.0141   -23313.522   -25171.249    1857.7271    1.1610133    30.985945    30.985945    30.985945    29750.497 
 2079000    292.55525   -2441.0609   -23232.856   -25070.269    1837.4128    1.1610133    30.985945    30.985945    30.985945    29750.497 
 2080000       297.51    -1883.712   -23247.074   -25115.605    1868.5314    1.1610133    30.985945    30.985945    30.985945    29750.497 
 2081000    308.91385   -2082.9478    -23028.26   -24968.414     1940.154    1.1610133    30.985945    30.985945    30.985945    29750.497 
 2082000    294.28972   -3205.0059   -23234.626   -25082.932    1848.3062    1.1610133    30.985945    30.985945    30.985945    29750.497 
 2083000    297.39669   -2711.8154    -23205.73    -25073.55    1867.8198    1.1610133    30.985945    30.985945    30.985945    29750.497 
 2084000    305.31205   -2216.3051   -23169.693   -25087.225    1917.5327    1.1610133    30.985945    30.985945    30.985945    29750.497 
 2085000    289.11487   -2734.3832    -23238.06   -25053.865    1815.8053    1.1610133    30.985945    30.985945    30.985945    29750.497 
 2086000     308.0194   -2574.5595   -23095.403   -25029.939    1934.5364    1.1610133    30.985945    30.985945    30.985945    29750.497 
 2087000    288.62591   -2647.9109   -23318.775    -25131.51    1812.7343    1.1610133    30.985945    30.985945    30.985945    29750.497 
 2088000    292.19593   -3438.6132   -23218.701   -25053.857     1835.156    1.1610133    30.985945    30.985945    30.985945    29750.497 
 2089000    302.69763   -2807.5976   -23193.902   -25095.015    1901.1127    1.1610133    30.985945    30.985945    30.985945    29750.497 
 2090000    295.17438   -1377.0316   -23245.644   -25099.506    1853.8624    1.1610133    30.985945    30.985945    30.985945    29750.497 
 2091000    307.21589   -972.19652   -23087.489   -25016.978    1929.4899    1.1610133    30.985945    30.985945    30.985945    29750.497 
 2092000    302.73986   -2226.3697   -23093.701   -24995.078    1901.3779    1.1610133    30.985945    30.985945    30.985945    29750.497 
 2093000    298.44807   -2931.0493   -23171.392   -25045.815     1874.423    1.1610133    30.985945    30.985945    30.985945    29750.497 
 2094000    311.85014   -3031.9589   -23074.706   -25033.301    1958.5956    1.1610133    30.985945    30.985945    30.985945    29750.497 
 2095000    302.32634   -2793.7683   -23209.501   -25108.281    1898.7808    1.1610133    30.985945    30.985945    30.985945    29750.497 
 2096000    300.04754   -3413.8357   -23247.957   -25132.426    1884.4686    1.1610133    30.985945    30.985945    30.985945    29750.497 
 2097000    295.86678   -2934.1233   -23293.566   -25151.777     1858.211    1.1610133    30.985945    30.985945    30.985945    29750.497 
 2098000    296.46837   -2466.0922    -23155.79    -25017.78    1861.9894    1.1610133    30.985945    30.985945    30.985945    29750.497 
 2099000     293.0423    -2863.649   -23270.269   -25110.741    1840.4717    1.1610133    30.985945    30.985945    30.985945    29750.497 
 2100000    297.88762   -2578.6683   -23188.868   -25059.771    1870.9031    1.1610133    30.985945    30.985945    30.985945    29750.497 
 2101000    298.84933   -2261.6865   -23172.466   -25049.409    1876.9432    1.1610133    30.985945    30.985945    30.985945    29750.497 
 2102000    311.78536   -2959.6849   -23125.401    -25083.59    1958.1887    1.1610133    30.985945    30.985945    30.985945    29750.497 
 2103000    285.03046   -2450.9233   -23223.899   -25014.052    1790.1528    1.1610133    30.985945    30.985945    30.985945    29750.497 
 2104000    299.94214   -2518.2643   -23213.321   -25097.128    1883.8066    1.1610133    30.985945    30.985945    30.985945    29750.497 
 2105000    308.89839   -2335.0621   -23103.936   -25043.993     1940.057    1.1610133    30.985945    30.985945    30.985945    29750.497 
 2106000    294.02105   -2231.5098   -23228.904   -25075.523    1846.6189    1.1610133    30.985945    30.985945    30.985945    29750.497 
 2107000    300.99679   -2671.8464   -23134.645   -25025.075    1890.4305    1.1610133    30.985945    30.985945    30.985945    29750.497 
 2108000    299.31922   -2752.3486   -23177.091   -25056.985    1879.8943    1.1610133    30.985945    30.985945    30.985945    29750.497 
 2109000    301.59663   -2867.0799   -23135.598   -25029.795    1894.1978    1.1610133    30.985945    30.985945    30.985945    29750.497 
 2110000    296.61742   -2679.9467   -23174.741   -25037.666    1862.9255    1.1610133    30.985945    30.985945    30.985945    29750.497 
 2111000    293.40709   -1051.7127   -23264.141   -25106.904    1842.7628    1.1610133    30.985945    30.985945    30.985945    29750.497 
 2112000    296.44939   -2900.1519   -23228.066   -25089.936    1861.8702    1.1610133    30.985945    30.985945    30.985945    29750.497 
 2113000     300.0871   -1845.4237   -23204.054   -25088.771    1884.7171    1.1610133    30.985945    30.985945    30.985945    29750.497 
 2114000    301.16464   -2294.7091   -23176.571   -25068.056    1891.4846    1.1610133    30.985945    30.985945    30.985945    29750.497 
 2115000    298.92548   -2501.7538   -23206.697   -25084.118    1877.4215    1.1610133    30.985945    30.985945    30.985945    29750.497 
 2116000    305.73914   -2184.3291   -23187.324   -25107.539    1920.2151    1.1610133    30.985945    30.985945    30.985945    29750.497 
 2117000    300.69185   -2198.5988   -23176.304   -25064.819    1888.5153    1.1610133    30.985945    30.985945    30.985945    29750.497 
 2118000    297.82943   -2170.0479    -23233.57   -25104.107    1870.5376    1.1610133    30.985945    30.985945    30.985945    29750.497 
 2119000    300.94159   -3017.3587   -23221.346   -25111.429    1890.0838    1.1610133    30.985945    30.985945    30.985945    29750.497 
 2120000    296.53807    -1845.802   -23252.585   -25115.012    1862.4272    1.1610133    30.985945    30.985945    30.985945    29750.497 
 2121000    297.79998   -2366.3258    -23218.56   -25088.913    1870.3526    1.1610133    30.985945    30.985945    30.985945    29750.497 
 2122000    290.02448    -2998.341   -23260.104   -25081.623    1821.5181    1.1610133    30.985945    30.985945    30.985945    29750.497 
 2123000    296.03566   -2033.8378   -23286.909   -25146.181    1859.2717    1.1610133    30.985945    30.985945    30.985945    29750.497 
 2124000    298.96585   -2087.9112   -23208.911   -25086.586     1877.675    1.1610133    30.985945    30.985945    30.985945    29750.497 
 2125000    301.58236   -2660.6093   -23172.229   -25066.337    1894.1081    1.1610133    30.985945    30.985945    30.985945    29750.497 
 2126000    298.39747   -2928.4343   -23177.397   -25051.503    1874.1053    1.1610133    30.985945    30.985945    30.985945    29750.497 
 2127000    301.15277   -1742.8957   -23180.437   -25071.847    1891.4101    1.1610133    30.985945    30.985945    30.985945    29750.497 
 2128000    301.71873    -1914.856   -23184.235     -25079.2    1894.9646    1.1610133    30.985945    30.985945    30.985945    29750.497 
 2129000    299.27214   -2562.0583   -23229.292   -25108.891    1879.5987    1.1610133    30.985945    30.985945    30.985945    29750.497 
 2130000    302.13764   -2430.6129   -23182.007   -25079.602    1897.5956    1.1610133    30.985945    30.985945    30.985945    29750.497 
 2131000    304.10878    -2581.424   -23078.655    -24988.63    1909.9755    1.1610133    30.985945    30.985945    30.985945    29750.497 
 2132000    305.38236   -2000.9085   -23080.468   -24998.442    1917.9743    1.1610133    30.985945    30.985945    30.985945    29750.497 
 2133000    296.36091   -2401.4923   -23175.775   -25037.089    1861.3145    1.1610133    30.985945    30.985945    30.985945    29750.497 
 2134000    309.11443   -1555.9502   -23104.057   -25045.471    1941.4138    1.1610133    30.985945    30.985945    30.985945    29750.497 
 2135000    294.82233   -2502.9234   -23256.585   -25108.237    1851.6513    1.1610133    30.985945    30.985945    30.985945    29750.497 
 2136000    298.91094   -3575.6536   -23244.566   -25121.896    1877.3301    1.1610133    30.985945    30.985945    30.985945    29750.497 
 2137000    296.37513   -1849.1237   -23286.612   -25148.016    1861.4038    1.1610133    30.985945    30.985945    30.985945    29750.497 
 2138000    311.17988   -3537.5764   -23066.882   -25021.268     1954.386    1.1610133    30.985945    30.985945    30.985945    29750.497 
 2139000    305.46841   -2513.8057   -23171.649   -25090.163    1918.5147    1.1610133    30.985945    30.985945    30.985945    29750.497 
 2140000    295.20656   -1723.7977   -23229.747   -25083.811    1854.0645    1.1610133    30.985945    30.985945    30.985945    29750.497 
 2141000    294.87666   -1920.4884   -23304.599   -25156.592    1851.9925    1.1610133    30.985945    30.985945    30.985945    29750.497 
 2142000    303.47499   -2156.9602   -23209.023   -25115.018    1905.9949    1.1610133    30.985945    30.985945    30.985945    29750.497 
 2143000    298.36233   -2447.8723   -23202.024   -25075.909    1873.8845    1.1610133    30.985945    30.985945    30.985945    29750.497 
 2144000    303.08839   -2811.6888   -23197.202   -25100.769    1903.5668    1.1610133    30.985945    30.985945    30.985945    29750.497 
 2145000    302.24039   -1989.0535   -23199.756   -25097.997    1898.2409    1.1610133    30.985945    30.985945    30.985945    29750.497 
 2146000    291.94898   -3115.5892   -23274.423   -25108.028     1833.605    1.1610133    30.985945    30.985945    30.985945    29750.497 
 2147000    292.18142   -1747.6839   -23263.574   -25098.639    1835.0649    1.1610133    30.985945    30.985945    30.985945    29750.497 
 2148000    297.61595   -2712.0219   -23181.223    -25050.42    1869.1968    1.1610133    30.985945    30.985945    30.985945    29750.497 
 2149000    302.33609   -2018.1372   -23162.801   -25061.643     1898.842    1.1610133    30.985945    30.985945    30.985945    29750.497 
 2150000    295.64087   -2345.4231   -23168.755   -25025.547    1856.7923    1.1610133    30.985945    30.985945    30.985945    29750.497 
 2151000    290.31311    -2029.516   -23245.864   -25069.195    1823.3309    1.1610133    30.985945    30.985945    30.985945    29750.497 
 2152000    293.29555   -2995.5459   -23335.608    -25177.67    1842.0623    1.1610133    30.985945    30.985945    30.985945    29750.497 
 2153000    303.90038   -3343.4555   -23343.453    -25252.12    1908.6666    1.1610133    30.985945    30.985945    30.985945    29750.497 
 2154000    294.77768   -3040.9201   -23172.387   -25023.758    1851.3709    1.1610133    30.985945    30.985945    30.985945    29750.497 
 2155000    303.93225   -2883.3342   -23218.185   -25127.052    1908.8668    1.1610133    30.985945    30.985945    30.985945    29750.497 
 2156000    297.40242   -2675.0954    -23285.58   -25153.436    1867.8558    1.1610133    30.985945    30.985945    30.985945    29750.497 
 2157000     285.4798     -2736.62    -23370.55   -25163.525     1792.975    1.1610133    30.985945    30.985945    30.985945    29750.497 
 2158000    299.60592    -2713.714   -23282.316   -25164.011     1881.695    1.1610133    30.985945    30.985945    30.985945    29750.497 
 2159000    310.63664    -2724.762   -23215.077   -25166.052    1950.9742    1.1610133    30.985945    30.985945    30.985945    29750.497 
 2160000    299.61258   -2694.3126   -23240.728   -25122.465    1881.7368    1.1610133    30.985945    30.985945    30.985945    29750.497 
 2161000    295.56854   -2783.2608   -23276.737   -25133.075     1856.338    1.1610133    30.985945    30.985945    30.985945    29750.497 
 2162000    289.58086   -2415.9252   -23396.225   -25214.957    1818.7319    1.1610133    30.985945    30.985945    30.985945    29750.497 
 2163000    299.22832   -2537.1456   -23302.659   -25181.983    1879.3234    1.1610133    30.985945    30.985945    30.985945    29750.497 
 2164000    284.56044   -2811.6822   -23264.259    -25051.46    1787.2008    1.1610133    30.985945    30.985945    30.985945    29750.497 
 2165000    298.66794   -2886.9844   -23244.041   -25119.845    1875.8039    1.1610133    30.985945    30.985945    30.985945    29750.497 
 2166000    300.17683    -2350.946   -23147.632   -25032.912    1885.2806    1.1610133    30.985945    30.985945    30.985945    29750.497 
 2167000    301.56519   -1713.2114   -23037.639   -24931.639    1894.0003    1.1610133    30.985945    30.985945    30.985945    29750.497 
 2168000    298.20082   -3150.3374   -23165.792   -25038.662    1872.8701    1.1610133    30.985945    30.985945    30.985945    29750.497 
 2169000    300.69404   -2757.1901    -23166.74   -25055.269     1888.529    1.1610133    30.985945    30.985945    30.985945    29750.497 
 2170000    297.77516   -2328.7107   -23156.545   -25026.741    1870.1968    1.1610133    30.985945    30.985945    30.985945    29750.497 
 2171000    302.92138   -3545.0879   -23267.186   -25169.704    1902.5179    1.1610133    30.985945    30.985945    30.985945    29750.497 
 2172000     304.9837   -2650.3673   -23160.038   -25075.509    1915.4705    1.1610133    30.985945    30.985945    30.985945    29750.497 
 2173000     296.2793   -2479.7301   -23236.527   -25097.329    1860.8019    1.1610133    30.985945    30.985945    30.985945    29750.497 
 2174000    289.99452   -2943.3948   -23273.899   -25095.229      1821.33    1.1610133    30.985945    30.985945    30.985945    29750.497 
 2175000    288.20076   -1623.8396   -23275.699   -25085.763    1810.0641    1.1610133    30.985945    30.985945    30.985945    29750.497 
 2176000    301.32988   -2592.8696   -23217.651   -25110.174    1892.5225    1.1610133    30.985945    30.985945    30.985945    29750.497 
 2177000    305.04363   -2389.5705   -23159.827   -25075.674    1915.8469    1.1610133    30.985945    30.985945    30.985945    29750.497 
 2178000    306.06616   -1857.1076   -23281.932     -25204.2    1922.2689    1.1610133    30.985945    30.985945    30.985945    29750.497 
 2179000     304.6061   -1496.5047   -23158.592   -25071.691     1913.099    1.1610133    30.985945    30.985945    30.985945    29750.497 
 2180000    293.71055   -2959.8094   -23241.409   -25086.078    1844.6687    1.1610133    30.985945    30.985945    30.985945    29750.497 
 2181000    304.36009   -2534.9526   -23152.163   -25063.717    1911.5539    1.1610133    30.985945    30.985945    30.985945    29750.497 
 2182000     297.4104   -1418.7935   -23261.473   -25129.379    1867.9059    1.1610133    30.985945    30.985945    30.985945    29750.497 
 2183000     288.9657   -1500.2541   -23175.647   -24990.515    1814.8684    1.1610133    30.985945    30.985945    30.985945    29750.497 
 2184000    292.32638   -2354.5743   -23220.337   -25056.313    1835.9754    1.1610133    30.985945    30.985945    30.985945    29750.497 
 2185000    296.46706    -2649.131   -23137.451   -24999.433    1861.9812    1.1610133    30.985945    30.985945    30.985945    29750.497 
 2186000    312.30989   -1501.5253   -22964.929   -24926.413    1961.4831    1.1610133    30.985945    30.985945    30.985945    29750.497 
 2187000    303.52205   -2231.6195   -23187.062   -25093.353    1906.2905    1.1610133    30.985945    30.985945    30.985945    29750.497 
 2188000     292.5852   -1887.9987   -23174.078   -25011.679    1837.6009    1.1610133    30.985945    30.985945    30.985945    29750.497 
 2189000    302.28406   -2747.5495   -23129.624   -25028.139    1898.5152    1.1610133    30.985945    30.985945    30.985945    29750.497 
 2190000    295.30521   -2497.2759   -23182.311   -25036.995    1854.6841    1.1610133    30.985945    30.985945    30.985945    29750.497 
 2191000    292.99228   -2744.9024   -23134.701   -24974.858    1840.1576    1.1610133    30.985945    30.985945    30.985945    29750.497 
 2192000    305.77591   -2794.6401    -23134.08   -25054.526     1920.446    1.1610133    30.985945    30.985945    30.985945    29750.497 
 2193000    295.74698   -2396.0892   -23104.008   -24961.466    1857.4587    1.1610133    30.985945    30.985945    30.985945    29750.497 
 2194000    298.49117   -2424.6288   -23181.975   -25056.668    1874.6937    1.1610133    30.985945    30.985945    30.985945    29750.497 
 2195000     298.6803   -1419.2589     -23183.4   -25059.282    1875.8816    1.1610133    30.985945    30.985945    30.985945    29750.497 
 2196000    301.79977   -2660.8748   -23068.174   -24963.648    1895.4736    1.1610133    30.985945    30.985945    30.985945    29750.497 
 2197000    297.88613   -2373.3192   -23153.088   -25023.981    1870.8937    1.1610133    30.985945    30.985945    30.985945    29750.497 
 2198000    300.12356   -2411.1313   -23135.839   -25020.785     1884.946    1.1610133    30.985945    30.985945    30.985945    29750.497 
 2199000    304.60162    -2177.586   -23068.444   -24981.515    1913.0708    1.1610133    30.985945    30.985945    30.985945    29750.497 
 2200000    297.97235    -2759.183   -23206.876   -25078.312    1871.4353    1.1610133    30.985945    30.985945    30.985945    29750.497 
 2201000    299.23398   -2796.5843   -23176.827   -25056.186     1879.359    1.1610133    30.985945    30.985945    30.985945    29750.497 
 2202000    302.03173   -2166.8546   -23185.542   -25082.472    1896.9304    1.1610133    30.985945    30.985945    30.985945    29750.497 
 2203000    297.00815   -1080.4046   -23266.046   -25131.426    1865.3795    1.1610133    30.985945    30.985945    30.985945    29750.497 
 2204000    304.96519    -2451.757   -23148.135   -25063.489    1915.3543    1.1610133    30.985945    30.985945    30.985945    29750.497 
 2205000    298.77952   -1912.5865   -23289.362   -25165.867    1876.5047    1.1610133    30.985945    30.985945    30.985945    29750.497 
 2206000    295.86651   -2425.5722     -23173.7   -25031.909    1858.2094    1.1610133    30.985945    30.985945    30.985945    29750.497 
 2207000    302.10184     -1664.21   -23177.474   -25074.845    1897.3708    1.1610133    30.985945    30.985945    30.985945    29750.497 
 2208000     302.9148   -3159.7124   -23192.752   -25095.228    1902.4766    1.1610133    30.985945    30.985945    30.985945    29750.497 
 2209000    295.80166   -1925.7826   -23165.639   -25023.441    1857.8021    1.1610133    30.985945    30.985945    30.985945    29750.497 
 2210000     300.0163   -2276.0297   -23163.399   -25047.671    1884.2724    1.1610133    30.985945    30.985945    30.985945    29750.497 
 2211000     293.2743   -1950.1323   -23238.904   -25080.833    1841.9289    1.1610133    30.985945    30.985945    30.985945    29750.497 
 2212000      296.942   -2461.9856   -23264.071   -25129.035     1864.964    1.1610133    30.985945    30.985945    30.985945    29750.497 
 2213000    306.75216   -1161.2333   -23077.734   -25004.312    1926.5774    1.1610133    30.985945    30.985945    30.985945    29750.497 
 2214000    305.36386   -2489.0564   -23190.636   -25108.494    1917.8581    1.1610133    30.985945    30.985945    30.985945    29750.497 
 2215000    300.72935   -2411.5335   -23134.481   -25023.232    1888.7508    1.1610133    30.985945    30.985945    30.985945    29750.497 
 2216000    303.09932   -1946.8759    -23165.14   -25068.776    1903.6355    1.1610133    30.985945    30.985945    30.985945    29750.497 
 2217000    302.95337   -2380.8107   -23076.226   -24978.945    1902.7189    1.1610133    30.985945    30.985945    30.985945    29750.497 
 2218000    298.43829   -2680.8271   -23137.359    -25011.72    1874.3616    1.1610133    30.985945    30.985945    30.985945    29750.497 
 2219000    296.07955   -1120.9255   -23153.941   -25013.488    1859.5474    1.1610133    30.985945    30.985945    30.985945    29750.497 
 2220000    295.94938   -1487.7588   -23095.788   -24954.518    1858.7298    1.1610133    30.985945    30.985945    30.985945    29750.497 
 2221000    304.13965   -2095.9261    -23187.07   -25097.239    1910.1694    1.1610133    30.985945    30.985945    30.985945    29750.497 
 2222000    300.80702   -2604.6145   -23175.158   -25064.397    1889.2386    1.1610133    30.985945    30.985945    30.985945    29750.497 
 2223000    292.94125   -2436.3381   -23216.748   -25056.585    1839.8371    1.1610133    30.985945    30.985945    30.985945    29750.497 
 2224000    294.90599   -2556.4495    -23064.26   -24916.437    1852.1768    1.1610133    30.985945    30.985945    30.985945    29750.497 
 2225000    297.74152   -2553.9275   -23165.772   -25035.757    1869.9855    1.1610133    30.985945    30.985945    30.985945    29750.497 
 2226000     300.1855   -4213.8067   -23207.386   -25092.721    1885.3351    1.1610133    30.985945    30.985945    30.985945    29750.497 
 2227000    299.75744   -2157.0961   -23305.081   -25187.728    1882.6466    1.1610133    30.985945    30.985945    30.985945    29750.497 
 2228000    300.65342   -2561.5918   -23136.019   -25024.293    1888.2739    1.1610133    30.985945    30.985945    30.985945    29750.497 
 2229000    297.92957   -2120.7574   -23124.214   -24995.381    1871.1666    1.1610133    30.985945    30.985945    30.985945    29750.497 
 2230000    291.05244     -2068.91    -23239.42   -25067.394    1827.9743    1.1610133    30.985945    30.985945    30.985945    29750.497 
 2231000    301.32267   -2368.6644   -23183.764   -25076.241    1892.4772    1.1610133    30.985945    30.985945    30.985945    29750.497 
 2232000    294.46136    -2669.577    -23180.28   -25029.665    1849.3842    1.1610133    30.985945    30.985945    30.985945    29750.497 
 2233000    297.30265   -3244.9135   -23254.034   -25121.263    1867.2291    1.1610133    30.985945    30.985945    30.985945    29750.497 
 2234000     298.7368    -2117.094   -23078.705   -24954.941    1876.2364    1.1610133    30.985945    30.985945    30.985945    29750.497 
 2235000    306.58567    -2764.553   -23127.012   -25052.544    1925.5318    1.1610133    30.985945    30.985945    30.985945    29750.497 
 2236000    295.16114   -2991.4605   -23241.944   -25095.723    1853.7793    1.1610133    30.985945    30.985945    30.985945    29750.497 
 2237000    304.84622   -2278.2159   -23297.374   -25211.981     1914.607    1.1610133    30.985945    30.985945    30.985945    29750.497 
 2238000    305.09004    -2600.886   -23218.568   -25134.707    1916.1384    1.1610133    30.985945    30.985945    30.985945    29750.497 
 2239000     290.8471   -2915.5455   -23336.321   -25163.005    1826.6846    1.1610133    30.985945    30.985945    30.985945    29750.497 
 2240000    304.23168   -2607.4422   -23306.247   -25216.995    1910.7474    1.1610133    30.985945    30.985945    30.985945    29750.497 
 2241000    297.25565    -2637.444   -23243.758   -25110.692     1866.934    1.1610133    30.985945    30.985945    30.985945    29750.497 
 2242000    290.40122   -2297.6854   -23245.401   -25069.285    1823.8842    1.1610133    30.985945    30.985945    30.985945    29750.497 
 2243000    288.51098   -998.84051   -23263.993   -25076.006    1812.0125    1.1610133    30.985945    30.985945    30.985945    29750.497 
 2244000    295.33705   -1832.8543   -23198.578   -25053.462    1854.8841    1.1610133    30.985945    30.985945    30.985945    29750.497 
 2245000    296.34297   -2478.4596   -23210.292   -25071.494    1861.2018    1.1610133    30.985945    30.985945    30.985945    29750.497 
 2246000    304.93323   -2481.1065   -23077.633   -24992.787    1915.1535    1.1610133    30.985945    30.985945    30.985945    29750.497 
 2247000    290.90712   -2530.1841   -23190.978    -25018.04    1827.0616    1.1610133    30.985945    30.985945    30.985945    29750.497 
 2248000    304.86092   -1953.6914   -23196.874   -25111.574    1914.6994    1.1610133    30.985945    30.985945    30.985945    29750.497 
 2249000    304.20191    -3144.897   -23201.605   -25112.165    1910.5604    1.1610133    30.985945    30.985945    30.985945    29750.497 
 2250000    306.65118   -2451.4827   -23138.668   -25064.611    1925.9432    1.1610133    30.985945    30.985945    30.985945    29750.497 
 2251000    302.69644   -2655.9239   -23160.401   -25061.506    1901.1052    1.1610133    30.985945    30.985945    30.985945    29750.497 
 2252000    310.40174   -1469.4493   -23054.687   -25004.186    1949.4988    1.1610133    30.985945    30.985945    30.985945    29750.497 
 2253000    295.48865   -620.25176   -23131.083   -24986.919    1855.8362    1.1610133    30.985945    30.985945    30.985945    29750.497 
 2254000    294.80463   -2841.1089   -23210.376   -25061.916    1851.5402    1.1610133    30.985945    30.985945    30.985945    29750.497 
 2255000    294.10699   -2266.8585   -23193.024   -25040.183    1847.1586    1.1610133    30.985945    30.985945    30.985945    29750.497 
 2256000    300.36483   -2121.7393   -23195.793   -25082.254    1886.4614    1.1610133    30.985945    30.985945    30.985945    29750.497 
 2257000     291.8683   -2345.8688   -23163.423   -24996.521    1833.0984    1.1610133    30.985945    30.985945    30.985945    29750.497 
 2258000    296.54539   -1947.1503   -23213.338   -25075.811    1862.4731    1.1610133    30.985945    30.985945    30.985945    29750.497 
 2259000    287.82394   -3076.4126   -23293.271   -25100.969    1807.6975    1.1610133    30.985945    30.985945    30.985945    29750.497 
 2260000    290.26844   -2589.4953   -23226.221   -25049.272    1823.0503    1.1610133    30.985945    30.985945    30.985945    29750.497 
 2261000    301.87783   -3138.1449   -23138.366    -25034.33    1895.9639    1.1610133    30.985945    30.985945    30.985945    29750.497 
 2262000    296.51569   -2442.8699   -23198.654   -25060.941    1862.2866    1.1610133    30.985945    30.985945    30.985945    29750.497 
 2263000    301.54498   -2833.4342   -23115.297    -25009.17    1893.8734    1.1610133    30.985945    30.985945    30.985945    29750.497 
 2264000    298.43477   -1932.5472   -23293.846   -25168.186    1874.3395    1.1610133    30.985945    30.985945    30.985945    29750.497 
 2265000    290.33057   -2162.2315   -23262.533   -25085.974    1823.4405    1.1610133    30.985945    30.985945    30.985945    29750.497 
 2266000    301.24126    -2895.957   -23169.044    -25061.01    1891.9659    1.1610133    30.985945    30.985945    30.985945    29750.497 
 2267000    290.76319   -1491.1963    -23233.26   -25059.418    1826.1576    1.1610133    30.985945    30.985945    30.985945    29750.497 
 2268000    302.37807   -2391.4586   -23217.427   -25116.532    1899.1056    1.1610133    30.985945    30.985945    30.985945    29750.497 
 2269000      294.792   -2127.3758   -23207.137   -25058.598    1851.4608    1.1610133    30.985945    30.985945    30.985945    29750.497 
 2270000    295.73802   -2190.2887   -23174.567   -25031.969    1857.4024    1.1610133    30.985945    30.985945    30.985945    29750.497 
 2271000    297.33045   -2187.3182   -23158.752   -25026.156    1867.4038    1.1610133    30.985945    30.985945    30.985945    29750.497 
 2272000    302.77505   -1564.5429   -23173.985   -25075.584    1901.5989    1.1610133    30.985945    30.985945    30.985945    29750.497 
 2273000    292.78643    -1795.556   -23238.888   -25077.753    1838.8647    1.1610133    30.985945    30.985945    30.985945    29750.497 
 2274000    289.80065   -2099.5654   -23239.447   -25059.559    1820.1123    1.1610133    30.985945    30.985945    30.985945    29750.497 
 2275000    299.02568    -2219.293   -23130.065   -25008.116    1878.0508    1.1610133    30.985945    30.985945    30.985945    29750.497 
 2276000    296.15734    -2517.635   -23214.632   -25074.668     1860.036    1.1610133    30.985945    30.985945    30.985945    29750.497 
 2277000     306.7635   -1812.7114   -23250.838   -25177.487    1926.6486    1.1610133    30.985945    30.985945    30.985945    29750.497 
 2278000    301.51398   -3618.6447   -23180.956   -25074.635    1893.6787    1.1610133    30.985945    30.985945    30.985945    29750.497 
 2279000    301.75462   -1634.9129    -23162.81       -25058      1895.19    1.1610133    30.985945    30.985945    30.985945    29750.497 
 2280000    286.33623   -2472.2699   -23230.816    -25029.17    1798.3538    1.1610133    30.985945    30.985945    30.985945    29750.497 
 2281000    301.16107   -1520.7266   -23085.241   -24976.703    1891.4622    1.1610133    30.985945    30.985945    30.985945    29750.497 
 2282000    294.16136   -2092.2776   -23137.406   -24984.907    1847.5001    1.1610133    30.985945    30.985945    30.985945    29750.497 
 2283000    287.97538   -2280.4602   -23180.499   -24989.148    1808.6486    1.1610133    30.985945    30.985945    30.985945    29750.497 
 2284000     301.4578   -2020.1284   -23177.639   -25070.964    1893.3258    1.1610133    30.985945    30.985945    30.985945    29750.497 
 2285000    303.01586    -1742.699    -23230.94   -25134.051    1903.1113    1.1610133    30.985945    30.985945    30.985945    29750.497 
 2286000     299.6231   -2388.7006    -23255.52   -25137.323    1881.8029    1.1610133    30.985945    30.985945    30.985945    29750.497 
 2287000    299.13833   -2026.1402   -23207.692   -25086.451    1878.7582    1.1610133    30.985945    30.985945    30.985945    29750.497 
 2288000    304.19011   -1884.6904   -23176.724   -25087.211    1910.4863    1.1610133    30.985945    30.985945    30.985945    29750.497 
 2289000    293.36221   -2263.0891   -23148.381   -24990.862     1842.481    1.1610133    30.985945    30.985945    30.985945    29750.497 
 2290000    300.44244   -2718.0383   -23185.153   -25072.101    1886.9488    1.1610133    30.985945    30.985945    30.985945    29750.497 
 2291000    302.38795   -1589.7375   -23203.266   -25102.433    1899.1677    1.1610133    30.985945    30.985945    30.985945    29750.497 
 2292000    293.99642   -2286.6762   -23225.888   -25072.352    1846.4641    1.1610133    30.985945    30.985945    30.985945    29750.497 
 2293000    294.68725   -1808.9169    -23206.53   -25057.333     1850.803    1.1610133    30.985945    30.985945    30.985945    29750.497 
 2294000    303.71135   -2079.9417   -23211.792   -25119.271    1907.4794    1.1610133    30.985945    30.985945    30.985945    29750.497 
 2295000    294.80895   -2469.5413   -23186.345   -25037.913    1851.5673    1.1610133    30.985945    30.985945    30.985945    29750.497 
 2296000    296.88715   -2336.5695   -23230.755   -25095.375    1864.6196    1.1610133    30.985945    30.985945    30.985945    29750.497 
 2297000     301.7609   -2335.1252   -23289.893   -25185.123    1895.2295    1.1610133    30.985945    30.985945    30.985945    29750.497 
 2298000    282.12299   -2288.1896   -23262.274   -25034.166    1771.8923    1.1610133    30.985945    30.985945    30.985945    29750.497 
 2299000    310.22583   -2340.8261   -23074.307   -25022.701    1948.3941    1.1610133    30.985945    30.985945    30.985945    29750.497 
 2300000    298.55911   -2503.3979   -23130.958   -25006.078    1875.1204    1.1610133    30.985945    30.985945    30.985945    29750.497 
 2301000    296.35861   -3106.2748   -23263.506   -25124.806       1861.3    1.1610133    30.985945    30.985945    30.985945    29750.497 
 2302000    296.86467   -2031.9321   -23280.873   -25145.352    1864.4784    1.1610133    30.985945    30.985945    30.985945    29750.497 
 2303000    287.38029    -2243.395   -23268.652   -25073.563    1804.9111    1.1610133    30.985945    30.985945    30.985945    29750.497 
 2304000      295.025   -2722.4723   -23278.903   -25131.827    1852.9242    1.1610133    30.985945    30.985945    30.985945    29750.497 
 2305000    301.22985   -1318.3528   -23220.001   -25111.895    1891.8942    1.1610133    30.985945    30.985945    30.985945    29750.497 
 2306000    290.22273   -1837.6692   -23310.502   -25133.265    1822.7633    1.1610133    30.985945    30.985945    30.985945    29750.497 
 2307000    302.30439   -2724.5108   -23176.108   -25074.751    1898.6429    1.1610133    30.985945    30.985945    30.985945    29750.497 
 2308000    306.89473   -2269.0419   -23187.087    -25114.56    1927.4729    1.1610133    30.985945    30.985945    30.985945    29750.497 
 2309000    292.31623   -3111.8745   -23260.407   -25096.318    1835.9116    1.1610133    30.985945    30.985945    30.985945    29750.497 
 2310000    296.20002    -2800.231   -23187.011   -25047.315     1860.304    1.1610133    30.985945    30.985945    30.985945    29750.497 
 2311000    292.53867   -2800.6603   -23224.088   -25061.397    1837.3086    1.1610133    30.985945    30.985945    30.985945    29750.497 
 2312000    299.49876   -3079.9919   -23310.216   -25191.238     1881.022    1.1610133    30.985945    30.985945    30.985945    29750.497 
 2313000    297.89391   -2163.7456   -23163.588   -25034.531    1870.9426    1.1610133    30.985945    30.985945    30.985945    29750.497 
 2314000     297.5694   -3475.4722   -23208.061   -25076.965    1868.9045    1.1610133    30.985945    30.985945    30.985945    29750.497 
 2315000    289.77076     -2079.14   -23217.899   -25037.823    1819.9246    1.1610133    30.985945    30.985945    30.985945    29750.497 
 2316000    294.74239   -2339.8061   -23202.237   -25053.387    1851.1493    1.1610133    30.985945    30.985945    30.985945    29750.497 
 2317000    299.30284   -2932.5101   -23263.753   -25143.544    1879.7915    1.1610133    30.985945    30.985945    30.985945    29750.497 
 2318000     295.2594   -2520.4743   -23195.459   -25049.855    1854.3964    1.1610133    30.985945    30.985945    30.985945    29750.497 
 2319000    288.83264   -2186.4516   -23294.811   -25108.844    1814.0327    1.1610133    30.985945    30.985945    30.985945    29750.497 
 2320000    296.52303   -2262.7849    -23191.03   -25053.363    1862.3327    1.1610133    30.985945    30.985945    30.985945    29750.497 
 2321000    300.51433   -1725.8577    -23238.14    -25125.54    1887.4003    1.1610133    30.985945    30.985945    30.985945    29750.497 
 2322000    291.96699   -2273.6474    -23267.31   -25101.028    1833.7182    1.1610133    30.985945    30.985945    30.985945    29750.497 
 2323000    304.20197   -2281.6665   -23150.215   -25060.776    1910.5608    1.1610133    30.985945    30.985945    30.985945    29750.497 
 2324000    296.00224   -2360.3967   -23182.585   -25041.647    1859.0618    1.1610133    30.985945    30.985945    30.985945    29750.497 
 2325000    299.41066   -1412.8697    -23126.34   -25006.809    1880.4687    1.1610133    30.985945    30.985945    30.985945    29750.497 
 2326000    304.46359   -2969.5361   -23161.951   -25074.155    1912.2039    1.1610133    30.985945    30.985945    30.985945    29750.497 
 2327000    309.53828    -1800.332   -23150.741   -25094.817    1944.0759    1.1610133    30.985945    30.985945    30.985945    29750.497 
 2328000    292.90514   -2834.6937   -23142.302   -24981.912    1839.6103    1.1610133    30.985945    30.985945    30.985945    29750.497 
 2329000    294.38089   -2812.7426    -23238.51   -25087.389    1848.8788    1.1610133    30.985945    30.985945    30.985945    29750.497 
 2330000    295.87955   -1999.3475   -23182.953   -25041.244    1858.2913    1.1610133    30.985945    30.985945    30.985945    29750.497 
 2331000    304.54683   -2233.1756   -23217.797   -25130.524    1912.7267    1.1610133    30.985945    30.985945    30.985945    29750.497 
 2332000    294.13442   -1824.4831   -23249.441   -25096.771    1847.3309    1.1610133    30.985945    30.985945    30.985945    29750.497 
 2333000    300.51106   -1538.3145   -23165.198   -25052.577    1887.3798    1.1610133    30.985945    30.985945    30.985945    29750.497 
 2334000    296.18373   -702.36383   -23129.028    -24989.23    1860.2017    1.1610133    30.985945    30.985945    30.985945    29750.497 
 2335000     301.2742   -2094.0307   -23207.421   -25099.594    1892.1727    1.1610133    30.985945    30.985945    30.985945    29750.497 
 2336000    300.71104   -1414.8737   -23122.325   -25010.961    1888.6357    1.1610133    30.985945    30.985945    30.985945    29750.497 
 2337000    294.42675   -2839.4348    -23186.62   -25035.787    1849.1669    1.1610133    30.985945    30.985945    30.985945    29750.497 
 2338000    303.22419   -2984.6269   -23136.313   -25040.733    1904.4198    1.1610133    30.985945    30.985945    30.985945    29750.497 
 2339000    296.28465   -3020.7279   -23209.306   -25070.142    1860.8355    1.1610133    30.985945    30.985945    30.985945    29750.497 
 2340000    295.39283   -2033.6854   -23193.965   -25049.199    1855.2344    1.1610133    30.985945    30.985945    30.985945    29750.497 
 2341000    305.29583   -2703.4212   -23146.044   -25063.475    1917.4308    1.1610133    30.985945    30.985945    30.985945    29750.497 
 2342000    300.30054   -2419.6399    -23169.66   -25055.718    1886.0576    1.1610133    30.985945    30.985945    30.985945    29750.497 
 2343000     302.4797   -2894.9507   -23099.586    -24999.33    1899.7439    1.1610133    30.985945    30.985945    30.985945    29750.497 
 2344000    300.58349   -2072.5838   -23148.088   -25035.923    1887.8347    1.1610133    30.985945    30.985945    30.985945    29750.497 
 2345000    302.39468   -2797.5405     -23151.3    -25050.51      1899.21    1.1610133    30.985945    30.985945    30.985945    29750.497 
 2346000    295.36244   -2887.7196   -23167.647   -25022.691    1855.0436    1.1610133    30.985945    30.985945    30.985945    29750.497 
 2347000    300.00432   -2763.9417   -23162.736   -25046.933    1884.1971    1.1610133    30.985945    30.985945    30.985945    29750.497 
 2348000    299.25024   -2593.0913   -23160.299   -25039.761    1879.4611    1.1610133    30.985945    30.985945    30.985945    29750.497 
 2349000    293.00886   -2116.2805   -23273.352   -25113.614    1840.2617    1.1610133    30.985945    30.985945    30.985945    29750.497 
 2350000    298.18868   -3136.9858   -23190.443   -25063.237    1872.7939    1.1610133    30.985945    30.985945    30.985945    29750.497 
 2351000    313.31031   -1635.4562   -23141.778   -25109.545    1967.7663    1.1610133    30.985945    30.985945    30.985945    29750.497 
 2352000    304.95675   -2097.3651   -23052.107   -24967.408    1915.3012    1.1610133    30.985945    30.985945    30.985945    29750.497 
 2353000    294.62942   -2226.1944   -23219.508   -25069.948    1850.4397    1.1610133    30.985945    30.985945    30.985945    29750.497 
 2354000    299.42201   -2110.1075   -23128.484   -25009.024    1880.5399    1.1610133    30.985945    30.985945    30.985945    29750.497 
 2355000    301.53117    -2841.096   -23166.855   -25060.641    1893.7866    1.1610133    30.985945    30.985945    30.985945    29750.497 
 2356000    297.95741   -1671.6339   -23118.599    -24989.94    1871.3414    1.1610133    30.985945    30.985945    30.985945    29750.497 
 2357000    299.65247   -2256.2937   -23247.566   -25129.553    1881.9873    1.1610133    30.985945    30.985945    30.985945    29750.497 
 2358000    288.78379   -2866.9556   -23236.046   -25049.772    1813.7259    1.1610133    30.985945    30.985945    30.985945    29750.497 
 2359000    296.81783   -2419.6809   -23177.578   -25041.762    1864.1842    1.1610133    30.985945    30.985945    30.985945    29750.497 
 2360000    294.16882   -870.13257   -23188.936   -25036.483    1847.5469    1.1610133    30.985945    30.985945    30.985945    29750.497 
 2361000    297.38343   -1653.7057   -23256.083   -25123.819    1867.7365    1.1610133    30.985945    30.985945    30.985945    29750.497 
 2362000    298.93137   -3417.4474   -23269.461   -25146.919    1877.4584    1.1610133    30.985945    30.985945    30.985945    29750.497 
 2363000    304.20378   -1443.8989   -23138.702   -25049.274    1910.5722    1.1610133    30.985945    30.985945    30.985945    29750.497 
 2364000    302.86602   -2563.8788   -23229.462   -25131.632    1902.1703    1.1610133    30.985945    30.985945    30.985945    29750.497 
 2365000    302.27513   -1427.1553   -23229.517   -25127.977    1898.4591    1.1610133    30.985945    30.985945    30.985945    29750.497 
 2366000    293.57479   -1556.5714   -23265.684     -25109.5    1843.8161    1.1610133    30.985945    30.985945    30.985945    29750.497 
 2367000    297.83187   -1758.7354   -23210.323   -25080.876    1870.5529    1.1610133    30.985945    30.985945    30.985945    29750.497 
 2368000    292.34449   -1834.9607   -23160.837   -24996.926    1836.0891    1.1610133    30.985945    30.985945    30.985945    29750.497 
 2369000    301.82922   -2446.9347   -23191.434   -25087.093    1895.6586    1.1610133    30.985945    30.985945    30.985945    29750.497 
 2370000    296.49166   -2044.3693   -23085.782   -24947.918    1862.1357    1.1610133    30.985945    30.985945    30.985945    29750.497 
 2371000    302.16012   -2356.1208   -23203.943    -25101.68    1897.7368    1.1610133    30.985945    30.985945    30.985945    29750.497 
 2372000    292.03708   -1709.9436   -23214.077   -25048.235    1834.1584    1.1610133    30.985945    30.985945    30.985945    29750.497 
 2373000     300.4542    -2926.552   -23140.828    -25027.85    1887.0227    1.1610133    30.985945    30.985945    30.985945    29750.497 
 2374000    302.83565   -2571.1759   -23143.899   -25045.878    1901.9795    1.1610133    30.985945    30.985945    30.985945    29750.497 
 2375000    299.55614   -1937.2619   -23176.424   -25057.806    1881.3823    1.1610133    30.985945    30.985945    30.985945    29750.497 
 2376000    296.86717   -2567.7534   -23148.733   -25013.227    1864.4941    1.1610133    30.985945    30.985945    30.985945    29750.497 
 2377000    296.53752   -2290.2296   -23252.013   -25114.437    1862.4237    1.1610133    30.985945    30.985945    30.985945    29750.497 
 2378000    300.45586   -1842.0688   -23219.255   -25106.288    1887.0331    1.1610133    30.985945    30.985945    30.985945    29750.497 
 2379000    291.79115   -2553.6052   -23256.729   -25089.343    1832.6138    1.1610133    30.985945    30.985945    30.985945    29750.497 
 2380000    286.64352   -2890.1879   -23296.666    -25096.95    1800.2837    1.1610133    30.985945    30.985945    30.985945    29750.497 
 2381000    298.31773   -2607.6148   -23143.904   -25017.509    1873.6044    1.1610133    30.985945    30.985945    30.985945    29750.497 
 2382000    297.86862   -2216.9082   -23171.576   -25042.359    1870.7838    1.1610133    30.985945    30.985945    30.985945    29750.497 
 2383000    290.65839   -1862.0503   -23170.536   -24996.036    1825.4994    1.1610133    30.985945    30.985945    30.985945    29750.497 
 2384000     296.5875    -1520.842   -23086.467   -24949.205    1862.7376    1.1610133    30.985945    30.985945    30.985945    29750.497 
 2385000    292.65588   -1714.0836   -23088.382   -24926.427    1838.0448    1.1610133    30.985945    30.985945    30.985945    29750.497 
 2386000    288.93014   -2580.6203   -23073.706   -24888.351     1814.645    1.1610133    30.985945    30.985945    30.985945    29750.497 
 2387000    297.07425   -2456.5627    -23083.01   -24948.805    1865.7947    1.1610133    30.985945    30.985945    30.985945    29750.497 
 2388000    302.07942   -2385.0964   -23019.716   -24916.946      1897.23    1.1610133    30.985945    30.985945    30.985945    29750.497 
 2389000    297.59871   -1967.6035    -23202.53   -25071.619    1869.0886    1.1610133    30.985945    30.985945    30.985945    29750.497 
 2390000    297.24083   -2300.8167   -23190.297   -25057.138    1866.8409    1.1610133    30.985945    30.985945    30.985945    29750.497 
 2391000    293.75154   -3001.1693   -23287.805   -25132.731    1844.9262    1.1610133    30.985945    30.985945    30.985945    29750.497 
 2392000    299.41996   -2556.4536   -23245.237   -25125.764     1880.527    1.1610133    30.985945    30.985945    30.985945    29750.497 
 2393000    301.21077   -2872.2919   -23218.133   -25109.908    1891.7743    1.1610133    30.985945    30.985945    30.985945    29750.497 
 2394000    295.64021   -2675.5305   -23227.419   -25084.207    1856.7881    1.1610133    30.985945    30.985945    30.985945    29750.497 
 2395000    300.49408     -2370.47   -23235.407    -25122.68    1887.2731    1.1610133    30.985945    30.985945    30.985945    29750.497 
 2396000     297.8418   -1616.4638   -23187.274   -25057.889    1870.6153    1.1610133    30.985945    30.985945    30.985945    29750.497 
 2397000     300.5925   -2765.0934   -23138.302   -25026.193    1887.8913    1.1610133    30.985945    30.985945    30.985945    29750.497 
 2398000    292.42219    -2405.597   -23213.585   -25050.162    1836.5771    1.1610133    30.985945    30.985945    30.985945    29750.497 
 2399000    305.09564   -2597.3339   -23224.553   -25140.727    1916.1736    1.1610133    30.985945    30.985945    30.985945    29750.497 
 2400000    298.28518   -2659.4562   -23203.223   -25076.623       1873.4    1.1610133    30.985945    30.985945    30.985945    29750.497 
 2401000     304.3307   -2961.0226   -23166.478   -25077.847    1911.3693    1.1610133    30.985945    30.985945    30.985945    29750.497 
 2402000     308.2086   -1638.0832   -23081.578   -25017.303    1935.7247    1.1610133    30.985945    30.985945    30.985945    29750.497 
 2403000    295.46679    -2153.847   -23281.762   -25137.461    1855.6989    1.1610133    30.985945    30.985945    30.985945    29750.497 
 2404000    293.55166   -2148.1137   -23212.902   -25056.573    1843.6708    1.1610133    30.985945    30.985945    30.985945    29750.497 
 2405000    296.22888   -2906.0077   -23217.839   -25078.324    1860.4853    1.1610133    30.985945    30.985945    30.985945    29750.497 
 2406000    303.37498   -2435.0791   -23173.672   -25079.039    1905.3668    1.1610133    30.985945    30.985945    30.985945    29750.497 
 2407000     300.1609   -3526.4703   -23179.893   -25065.073    1885.1806    1.1610133    30.985945    30.985945    30.985945    29750.497 
 2408000      298.839   -2981.0038   -23187.296   -25064.174    1876.8783    1.1610133    30.985945    30.985945    30.985945    29750.497 
 2409000    299.87529   -2640.5783   -23230.166   -25113.553    1883.3868    1.1610133    30.985945    30.985945    30.985945    29750.497 
 2410000    298.44809    -2366.073   -23234.915   -25109.338    1874.4231    1.1610133    30.985945    30.985945    30.985945    29750.497 
 2411000    299.19484   -1952.2972   -23155.424   -25034.537    1879.1132    1.1610133    30.985945    30.985945    30.985945    29750.497 
 2412000    297.89509   -2622.3493   -23246.445   -25117.395      1870.95    1.1610133    30.985945    30.985945    30.985945    29750.497 
 2413000    301.96212   -2763.0593   -23222.704   -25119.197    1896.4933    1.1610133    30.985945    30.985945    30.985945    29750.497 
 2414000    302.69366    -3404.091   -23261.038   -25162.125    1901.0877    1.1610133    30.985945    30.985945    30.985945    29750.497 
 2415000    293.37282   -3179.9231   -23326.737   -25169.285    1842.5476    1.1610133    30.985945    30.985945    30.985945    29750.497 
 2416000    294.10092   -2347.9458   -23200.714   -25047.835    1847.1204    1.1610133    30.985945    30.985945    30.985945    29750.497 
 2417000    294.79358   -2532.2491   -23265.146   -25116.617    1851.4708    1.1610133    30.985945    30.985945    30.985945    29750.497 
 2418000    296.92479   -2665.1195   -23243.653   -25108.509     1864.856    1.1610133    30.985945    30.985945    30.985945    29750.497 
 2419000    303.53992   -1735.4516   -23217.827    -25124.23    1906.4027    1.1610133    30.985945    30.985945    30.985945    29750.497 
 2420000    298.67215   -2678.3596   -23193.631   -25069.461    1875.8304    1.1610133    30.985945    30.985945    30.985945    29750.497 
 2421000    296.07578   -2281.5669   -23296.454   -25155.978    1859.5237    1.1610133    30.985945    30.985945    30.985945    29750.497 
 2422000    293.48626   -3310.2699   -23323.393   -25166.654    1843.2601    1.1610133    30.985945    30.985945    30.985945    29750.497 
 2423000     306.2501   -1681.9125   -23110.109   -25033.533    1923.4242    1.1610133    30.985945    30.985945    30.985945    29750.497 
 2424000    296.33791   -2975.7054   -23244.815   -25105.985      1861.17    1.1610133    30.985945    30.985945    30.985945    29750.497 
 2425000    301.65099   -2744.7806    -23190.07   -25084.609    1894.5392    1.1610133    30.985945    30.985945    30.985945    29750.497 
 2426000    292.98581   -2909.8371   -23152.948   -24993.065     1840.117    1.1610133    30.985945    30.985945    30.985945    29750.497 
 2427000    307.45615   -2068.5129    -23183.26   -25114.259    1930.9989    1.1610133    30.985945    30.985945    30.985945    29750.497 
 2428000    301.19515   -1022.0619   -23121.481   -25013.158    1891.6762    1.1610133    30.985945    30.985945    30.985945    29750.497 
 2429000    301.79097   -2190.9973   -23141.111   -25036.529    1895.4183    1.1610133    30.985945    30.985945    30.985945    29750.497 
 2430000    299.81131   -2595.2201   -23231.438   -25114.423     1882.985    1.1610133    30.985945    30.985945    30.985945    29750.497 
 2431000    296.26336   -1275.6924   -23298.778   -25159.479    1860.7018    1.1610133    30.985945    30.985945    30.985945    29750.497 
 2432000    294.59941    -2192.205   -23233.434   -25083.685    1850.2513    1.1610133    30.985945    30.985945    30.985945    29750.497 
 2433000    294.12991   -2959.5211   -23240.249   -25087.552    1847.3025    1.1610133    30.985945    30.985945    30.985945    29750.497 
 2434000    303.66701   -2392.7867   -23215.395   -25122.596    1907.2009    1.1610133    30.985945    30.985945    30.985945    29750.497 
 2435000     297.4755   -1906.2789   -23208.174   -25076.489    1868.3148    1.1610133    30.985945    30.985945    30.985945    29750.497 
 2436000    300.25459   -1745.1018   -23222.222   -25107.991     1885.769    1.1610133    30.985945    30.985945    30.985945    29750.497 
 2437000    290.26622    -3026.426   -23282.953    -25105.99    1823.0364    1.1610133    30.985945    30.985945    30.985945    29750.497 
 2438000    298.22332   -2337.6857    -23243.06   -25116.071    1873.0114    1.1610133    30.985945    30.985945    30.985945    29750.497 
 2439000    311.68921   -333.96424   -23096.316   -25053.901    1957.5849    1.1610133    30.985945    30.985945    30.985945    29750.497 
 2440000    297.86145   -1811.3866   -23176.081    -25046.82    1870.7387    1.1610133    30.985945    30.985945    30.985945    29750.497 
 2441000     295.8357   -1368.8499   -23230.093   -25088.109    1858.0159    1.1610133    30.985945    30.985945    30.985945    29750.497 
 2442000    298.94472   -2192.6827     -23202.9   -25080.442    1877.5423    1.1610133    30.985945    30.985945    30.985945    29750.497 
 2443000    304.72165    -2954.369   -23122.274   -25036.099    1913.8247    1.1610133    30.985945    30.985945    30.985945    29750.497 
 2444000    299.32177     -2829.49   -23231.839   -25111.749    1879.9104    1.1610133    30.985945    30.985945    30.985945    29750.497 
 2445000    285.56942   -2833.1746   -23282.568   -25076.106    1793.5378    1.1610133    30.985945    30.985945    30.985945    29750.497 
 2446000    291.07603   -2596.0578   -23238.395   -25066.518    1828.1225    1.1610133    30.985945    30.985945    30.985945    29750.497 
 2447000    300.66157   -3159.9084   -23229.171   -25117.496    1888.3251    1.1610133    30.985945    30.985945    30.985945    29750.497 
 2448000    303.03876   -3551.4175   -23177.825    -25081.08    1903.2552    1.1610133    30.985945    30.985945    30.985945    29750.497 
 2449000    292.64017   -2555.4498   -23285.265   -25123.211    1837.9461    1.1610133    30.985945    30.985945    30.985945    29750.497 
 2450000    290.88224   -2330.6822   -23228.608   -25055.513    1826.9053    1.1610133    30.985945    30.985945    30.985945    29750.497 
 2451000    299.23455   -1939.8364   -23137.821   -25017.183    1879.3625    1.1610133    30.985945    30.985945    30.985945    29750.497 
 2452000    292.24098   -2173.4935   -23211.124   -25046.563     1835.439    1.1610133    30.985945    30.985945    30.985945    29750.497 
 2453000    303.67712   -2044.2801    -23185.56   -25092.824    1907.2644    1.1610133    30.985945    30.985945    30.985945    29750.497 
 2454000     294.2809   -2419.1364   -23265.226   -25113.476    1848.2508    1.1610133    30.985945    30.985945    30.985945    29750.497 
 2455000    292.81008   -2139.7813   -23251.112   -25090.125    1839.0133    1.1610133    30.985945    30.985945    30.985945    29750.497 
 2456000    300.93665   -2722.2806   -23240.312   -25130.365    1890.0527    1.1610133    30.985945    30.985945    30.985945    29750.497 
 2457000    290.82326   -2017.7325   -23277.471   -25104.005    1826.5349    1.1610133    30.985945    30.985945    30.985945    29750.497 
 2458000    292.87725   -2106.6635   -23304.013   -25143.448    1839.4351    1.1610133    30.985945    30.985945    30.985945    29750.497 
 2459000    293.34928   -3249.8252   -23302.158   -25144.558    1842.3998    1.1610133    30.985945    30.985945    30.985945    29750.497 
 2460000    301.58178   -2954.3923    -23182.13   -25076.234    1894.1045    1.1610133    30.985945    30.985945    30.985945    29750.497 
 2461000    300.31826   -2998.5299   -23214.067   -25100.236    1886.1689    1.1610133    30.985945    30.985945    30.985945    29750.497 
 2462000    300.17088   -2889.1483   -23199.769   -25085.012    1885.2433    1.1610133    30.985945    30.985945    30.985945    29750.497 
 2463000    294.21133   -3142.5411   -23366.446    -25214.26    1847.8139    1.1610133    30.985945    30.985945    30.985945    29750.497 
 2464000    299.03403   -1320.9082   -23126.045   -25004.148    1878.1032    1.1610133    30.985945    30.985945    30.985945    29750.497 
 2465000    294.06285   -700.37777   -23206.565   -25053.447    1846.8814    1.1610133    30.985945    30.985945    30.985945    29750.497 
 2466000     308.7705   -1850.4637   -23133.095   -25072.349    1939.2538    1.1610133    30.985945    30.985945    30.985945    29750.497 
 2467000    297.96879   -2673.0084   -23320.217    -25191.63    1871.4129    1.1610133    30.985945    30.985945    30.985945    29750.497 
 2468000    304.65471   -2201.6214    -23195.18   -25108.584    1913.4043    1.1610133    30.985945    30.985945    30.985945    29750.497 
 2469000    298.87493   -2581.0652   -23262.296     -25139.4    1877.1039    1.1610133    30.985945    30.985945    30.985945    29750.497 
 2470000    309.50885   -2714.5209   -23141.701   -25085.593     1943.891    1.1610133    30.985945    30.985945    30.985945    29750.497 
 2471000    297.81435   -2065.8855   -23185.483   -25055.926    1870.4429    1.1610133    30.985945    30.985945    30.985945    29750.497 
 2472000    298.50203   -2579.4655   -23236.993   -25111.754    1874.7619    1.1610133    30.985945    30.985945    30.985945    29750.497 
 2473000    287.49665   -2351.4736   -23210.397   -25016.039    1805.6419    1.1610133    30.985945    30.985945    30.985945    29750.497 
 2474000    302.63245   -1654.8934   -23222.707    -25123.41    1900.7033    1.1610133    30.985945    30.985945    30.985945    29750.497 
 2475000    295.73586   -2539.5411    -23237.92   -25095.308    1857.3888    1.1610133    30.985945    30.985945    30.985945    29750.497 
 2476000    298.28761   -2059.4903   -23255.338   -25128.753    1873.4153    1.1610133    30.985945    30.985945    30.985945    29750.497 
 2477000     300.0369   -2126.6953   -23238.249   -25122.651    1884.4018    1.1610133    30.985945    30.985945    30.985945    29750.497 
 2478000    305.82128   -1681.8112   -23213.288   -25134.019     1920.731    1.1610133    30.985945    30.985945    30.985945    29750.497 
 2479000    300.76303   -2723.3196   -23227.608    -25116.57    1888.9623    1.1610133    30.985945    30.985945    30.985945    29750.497 
 2480000    304.07467   -1154.5818   -23239.683   -25149.444    1909.7613    1.1610133    30.985945    30.985945    30.985945    29750.497 
 2481000    296.40202    -1835.111   -23218.147    -25079.72    1861.5726    1.1610133    30.985945    30.985945    30.985945    29750.497 
 2482000    296.96476   -2468.3406   -23247.824   -25112.931     1865.107    1.1610133    30.985945    30.985945    30.985945    29750.497 
 2483000    303.17634   -2050.0304   -23121.866   -25025.986    1904.1192    1.1610133    30.985945    30.985945    30.985945    29750.497 
 2484000    298.12084   -2347.1118   -23229.294   -25101.662    1872.3678    1.1610133    30.985945    30.985945    30.985945    29750.497 
 2485000    303.18545   -2677.8031   -23214.128   -25118.305    1904.1765    1.1610133    30.985945    30.985945    30.985945    29750.497 
 2486000     289.6897   -2813.4387   -23272.403   -25091.819    1819.4155    1.1610133    30.985945    30.985945    30.985945    29750.497 
 2487000    282.94524   -2737.5763   -23292.097   -25069.154    1777.0565    1.1610133    30.985945    30.985945    30.985945    29750.497 
 2488000    301.40629    -2926.224   -23147.424   -25040.426    1893.0024    1.1610133    30.985945    30.985945    30.985945    29750.497 
 2489000    302.11301   -1765.9683     -23248.1   -25145.541    1897.4409    1.1610133    30.985945    30.985945    30.985945    29750.497 
 2490000    302.63139   -2155.6602   -23180.058   -25080.755    1900.6966    1.1610133    30.985945    30.985945    30.985945    29750.497 
 2491000    296.32543   -2915.9627   -23177.276   -25038.367    1861.0916    1.1610133    30.985945    30.985945    30.985945    29750.497 
 2492000    307.73676   -2878.1468    -23088.38   -25021.141    1932.7613    1.1610133    30.985945    30.985945    30.985945    29750.497 
 2493000      295.394    -3061.248   -23224.104   -25079.346    1855.2417    1.1610133    30.985945    30.985945    30.985945    29750.497 
 2494000    291.02316    -3179.117   -23179.459   -25007.249    1827.7904    1.1610133    30.985945    30.985945    30.985945    29750.497 
 2495000    290.28645   -1811.8469   -23299.616   -25122.779    1823.1634    1.1610133    30.985945    30.985945    30.985945    29750.497 
 2496000    308.26935   -2538.3401   -23144.046   -25080.152    1936.1062    1.1610133    30.985945    30.985945    30.985945    29750.497 
 2497000    296.57094   -3369.5517   -23147.607    -25010.24    1862.6336    1.1610133    30.985945    30.985945    30.985945    29750.497 
 2498000    302.36297   -2437.8459   -23220.069    -25119.08    1899.0108    1.1610133    30.985945    30.985945    30.985945    29750.497 
 2499000    300.57724   -3059.0364    -23246.59   -25134.386    1887.7955    1.1610133    30.985945    30.985945    30.985945    29750.497 
 2500000    298.03065   -2811.7234   -23279.377   -25151.179    1871.8014    1.1610133    30.985945    30.985945    30.985945    29750.497 
 2501000    296.87873   -2713.8173   -23225.776   -25090.343    1864.5667    1.1610133    30.985945    30.985945    30.985945    29750.497 
 2502000    302.69015   -3264.2038    -23261.19   -25162.256    1901.0657    1.1610133    30.985945    30.985945    30.985945    29750.497 
 2503000    290.30508   -2329.6786   -23269.123   -25092.403    1823.2804    1.1610133    30.985945    30.985945    30.985945    29750.497 
 2504000    302.98274   -1994.5108   -23276.058   -25178.961    1902.9033    1.1610133    30.985945    30.985945    30.985945    29750.497 
 2505000    300.56469   -2516.3365   -23186.505   -25074.222    1887.7166    1.1610133    30.985945    30.985945    30.985945    29750.497 
 2506000    289.77488   -2560.7153   -23247.116   -25067.066    1819.9505    1.1610133    30.985945    30.985945    30.985945    29750.497 
 2507000    304.00778   -3406.1861   -23184.152   -25093.493    1909.3412    1.1610133    30.985945    30.985945    30.985945    29750.497 
 2508000    303.51416   -1947.1035   -23236.131   -25142.372    1906.2409    1.1610133    30.985945    30.985945    30.985945    29750.497 
 2509000    297.35716   -2005.4643     -23256.4   -25123.972    1867.5715    1.1610133    30.985945    30.985945    30.985945    29750.497 
 2510000    298.08594   -2124.3595   -23217.114   -25089.263    1872.1487    1.1610133    30.985945    30.985945    30.985945    29750.497 
 2511000    300.09381   -2614.5683   -23207.962   -25092.722    1884.7592    1.1610133    30.985945    30.985945    30.985945    29750.497 
 2512000    303.81959   -3247.9555   -23143.635   -25051.794    1908.1592    1.1610133    30.985945    30.985945    30.985945    29750.497 
 2513000    292.59015   -3213.0294   -23166.202   -25003.834     1837.632    1.1610133    30.985945    30.985945    30.985945    29750.497 
 2514000    303.48656   -2422.8852   -23240.368   -25146.436    1906.0676    1.1610133    30.985945    30.985945    30.985945    29750.497 
 2515000    309.52037   -2477.9347   -23143.467    -25087.43    1943.9633    1.1610133    30.985945    30.985945    30.985945    29750.497 
 2516000    306.68453   -3046.4151   -23129.677    -25055.83    1926.1527    1.1610133    30.985945    30.985945    30.985945    29750.497 
 2517000    287.21704    -2827.245   -23186.077   -24989.963    1803.8858    1.1610133    30.985945    30.985945    30.985945    29750.497 
 2518000    293.08724   -1673.1969   -23192.376    -25033.13     1840.754    1.1610133    30.985945    30.985945    30.985945    29750.497 
 2519000    298.26123   -2738.7586   -23220.483   -25093.732    1873.2495    1.1610133    30.985945    30.985945    30.985945    29750.497 
 2520000    301.94446   -3252.3496   -23147.618       -25044    1896.3824    1.1610133    30.985945    30.985945    30.985945    29750.497 
 2521000    303.20528     -2735.14   -23206.645   -25110.946     1904.301    1.1610133    30.985945    30.985945    30.985945    29750.497 
 2522000     293.0659   -2113.0163   -23161.513   -25002.133      1840.62    1.1610133    30.985945    30.985945    30.985945    29750.497 
 2523000    293.26756    -1857.595   -23231.891   -25073.778    1841.8865    1.1610133    30.985945    30.985945    30.985945    29750.497 
 2524000    297.27933   -2920.7287   -23185.567    -25052.65    1867.0827    1.1610133    30.985945    30.985945    30.985945    29750.497 
 2525000    295.71355    -2422.639   -23251.691    -25108.94    1857.2487    1.1610133    30.985945    30.985945    30.985945    29750.497 
 2526000    295.24196   -2628.4809   -23240.061   -25094.348    1854.2869    1.1610133    30.985945    30.985945    30.985945    29750.497 
 2527000    301.88572    -3252.191   -23159.564   -25055.577    1896.0134    1.1610133    30.985945    30.985945    30.985945    29750.497 
 2528000    300.38062   -2455.2286   -23075.934   -24962.495    1886.5605    1.1610133    30.985945    30.985945    30.985945    29750.497 
 2529000    293.71481   -3083.2598   -23186.085   -25030.781    1844.6955    1.1610133    30.985945    30.985945    30.985945    29750.497 
 2530000    300.59792   -1655.3813   -23147.414   -25035.339    1887.9253    1.1610133    30.985945    30.985945    30.985945    29750.497 
 2531000     297.1595   -1559.5853   -23235.066   -25101.396    1866.3301    1.1610133    30.985945    30.985945    30.985945    29750.497 
 2532000    294.71577    -2441.535   -23141.311   -24992.293    1850.9821    1.1610133    30.985945    30.985945    30.985945    29750.497 
 2533000    306.82615   -3250.2978    -23239.26   -25166.302    1927.0421    1.1610133    30.985945    30.985945    30.985945    29750.497 
 2534000     296.0234   -3076.4488     -23289.1   -25148.295    1859.1947    1.1610133    30.985945    30.985945    30.985945    29750.497 
 2535000    295.09998   -2189.7404   -23282.922   -25136.318    1853.3952    1.1610133    30.985945    30.985945    30.985945    29750.497 
 2536000    298.11686   -1922.4287   -23179.289   -25051.632    1872.3429    1.1610133    30.985945    30.985945    30.985945    29750.497 
 2537000    307.25999   -852.96923   -23105.815   -25035.582    1929.7669    1.1610133    30.985945    30.985945    30.985945    29750.497 
 2538000    299.95426    -2624.547   -23215.781   -25099.664    1883.8828    1.1610133    30.985945    30.985945    30.985945    29750.497 
 2539000    296.57321   -2607.7089   -23274.064   -25136.712    1862.6479    1.1610133    30.985945    30.985945    30.985945    29750.497 
 2540000    296.55705    -2210.331   -23233.064   -25095.611    1862.5463    1.1610133    30.985945    30.985945    30.985945    29750.497 
 2541000    303.04929   -2538.9313   -23204.553   -25107.875    1903.3213    1.1610133    30.985945    30.985945    30.985945    29750.497 
 2542000    294.15737   -2498.3425     -23312.7   -25160.175     1847.475    1.1610133    30.985945    30.985945    30.985945    29750.497 
 2543000    294.23807   -2633.2005   -23267.263   -25115.245    1847.9818    1.1610133    30.985945    30.985945    30.985945    29750.497 
 2544000     304.3475   -2680.9474   -23150.522   -25061.997    1911.4748    1.1610133    30.985945    30.985945    30.985945    29750.497 
 2545000    294.27096   -2739.6298   -23303.189   -25151.378    1848.1884    1.1610133    30.985945    30.985945    30.985945    29750.497 
 2546000    299.69417   -3342.0254   -23255.181    -25137.43    1882.2493    1.1610133    30.985945    30.985945    30.985945    29750.497 
 2547000    291.17097   -1546.3871   -23238.388   -25067.107    1828.7187    1.1610133    30.985945    30.985945    30.985945    29750.497 
 2548000     300.4762   -2557.8335   -23223.846   -25111.007    1887.1608    1.1610133    30.985945    30.985945    30.985945    29750.497 
 2549000    298.14698   -2175.6846   -23197.854   -25070.386     1872.532    1.1610133    30.985945    30.985945    30.985945    29750.497 
 2550000     296.8037   -2390.6507   -23272.431   -25136.527    1864.0955    1.1610133    30.985945    30.985945    30.985945    29750.497 
 2551000    299.59708   -2111.5973   -23234.518   -25116.157    1881.6395    1.1610133    30.985945    30.985945    30.985945    29750.497 
 2552000    293.89633     -2475.48    -23299.23   -25145.066    1845.8355    1.1610133    30.985945    30.985945    30.985945    29750.497 
 2553000    297.49622   -2624.8622   -23301.186   -25169.631    1868.4449    1.1610133    30.985945    30.985945    30.985945    29750.497 
 2554000    297.50219   -3368.8341   -23204.708   -25073.191    1868.4824    1.1610133    30.985945    30.985945    30.985945    29750.497 
 2555000    306.56261   -3116.6051   -23107.523    -25032.91    1925.3869    1.1610133    30.985945    30.985945    30.985945    29750.497 
 2556000    307.26632   -2334.3146   -23163.835   -25093.642    1929.8066    1.1610133    30.985945    30.985945    30.985945    29750.497 
 2557000    297.79599   -2068.0203   -23250.765   -25121.092    1870.3276    1.1610133    30.985945    30.985945    30.985945    29750.497 
 2558000    291.64137   -2346.9966   -23273.419   -25105.092    1831.6731    1.1610133    30.985945    30.985945    30.985945    29750.497 
 2559000    300.65796   -1672.4393    -23212.39   -25100.693    1888.3024    1.1610133    30.985945    30.985945    30.985945    29750.497 
 2560000    301.04377    -1614.412   -23202.943   -25093.668    1890.7255    1.1610133    30.985945    30.985945    30.985945    29750.497 
 2561000    300.18395   -2203.7905   -23295.291   -25180.616    1885.3253    1.1610133    30.985945    30.985945    30.985945    29750.497 
 2562000    286.75188   -2924.5767   -23283.625   -25084.589    1800.9643    1.1610133    30.985945    30.985945    30.985945    29750.497 
 2563000    297.93071   -2676.5001   -23212.841   -25084.014    1871.1737    1.1610133    30.985945    30.985945    30.985945    29750.497 
 2564000     308.3235   -2375.3281   -23172.621   -25109.067    1936.4463    1.1610133    30.985945    30.985945    30.985945    29750.497 
 2565000    298.15527   -1831.6851   -23225.873   -25098.457    1872.5841    1.1610133    30.985945    30.985945    30.985945    29750.497 
 2566000    293.34904   -1283.9761   -23234.439   -25076.837    1842.3982    1.1610133    30.985945    30.985945    30.985945    29750.497 
 2567000    297.08269   -3315.9086   -23206.125   -25071.973    1865.8477    1.1610133    30.985945    30.985945    30.985945    29750.497 
 2568000    294.98421   -2068.6409    -23227.91   -25080.578     1852.668    1.1610133    30.985945    30.985945    30.985945    29750.497 
 2569000    294.93843   -2891.2404   -23229.908   -25082.288    1852.3805    1.1610133    30.985945    30.985945    30.985945    29750.497 
 2570000    300.19082    -2835.594   -23184.417   -25069.785    1885.3685    1.1610133    30.985945    30.985945    30.985945    29750.497 
 2571000    292.23943   -2357.6291   -23276.282   -25111.711    1835.4292    1.1610133    30.985945    30.985945    30.985945    29750.497 
 2572000    290.85571      -2780.7   -23261.334   -25088.073    1826.7387    1.1610133    30.985945    30.985945    30.985945    29750.497 
 2573000    297.31839   -2350.8809   -23240.248   -25107.576     1867.328    1.1610133    30.985945    30.985945    30.985945    29750.497 
 2574000    297.66836   -3386.7688   -23207.193   -25076.719     1869.526    1.1610133    30.985945    30.985945    30.985945    29750.497 
 2575000    309.42845   -2544.8845   -23000.059   -24943.445     1943.386    1.1610133    30.985945    30.985945    30.985945    29750.497 
 2576000    298.78045    -2266.718   -23200.081   -25076.591    1876.5106    1.1610133    30.985945    30.985945    30.985945    29750.497 
 2577000    294.50344   -2607.6356   -23291.655   -25141.303    1849.6485    1.1610133    30.985945    30.985945    30.985945    29750.497 
 2578000     296.3942   -2335.1178   -23255.654   -25117.178    1861.5236    1.1610133    30.985945    30.985945    30.985945    29750.497 
 2579000    306.39882   -3325.4501   -23310.659   -25235.018    1924.3582    1.1610133    30.985945    30.985945    30.985945    29750.497 
 2580000    303.84206   -2756.0831   -23290.583   -25198.883    1908.3003    1.1610133    30.985945    30.985945    30.985945    29750.497 
 2581000    305.28119   -2593.1642   -23220.056   -25137.395    1917.3389    1.1610133    30.985945    30.985945    30.985945    29750.497 
 2582000      297.484    -2555.353   -23187.641   -25056.009    1868.3681    1.1610133    30.985945    30.985945    30.985945    29750.497 
 2583000    302.78816   -2090.2157   -23188.131   -25089.813    1901.6813    1.1610133    30.985945    30.985945    30.985945    29750.497 
 2584000    295.87466   -2703.3199    -23212.08    -25070.34    1858.2606    1.1610133    30.985945    30.985945    30.985945    29750.497 
 2585000    298.46507   -2415.1024    -23247.62    -25122.15    1874.5298    1.1610133    30.985945    30.985945    30.985945    29750.497 
 2586000    299.17051   -2520.2995   -23253.555   -25132.515    1878.9603    1.1610133    30.985945    30.985945    30.985945    29750.497 
 2587000    300.34316   -1936.0437   -23149.263   -25035.588    1886.3253    1.1610133    30.985945    30.985945    30.985945    29750.497 
 2588000    299.76768    -2355.148   -23194.295   -25077.006    1882.7109    1.1610133    30.985945    30.985945    30.985945    29750.497 
 2589000    298.18414   -2334.7484   -23248.044    -25120.81    1872.7654    1.1610133    30.985945    30.985945    30.985945    29750.497 
 2590000    300.90642   -1936.7747   -23118.308   -25008.171    1889.8629    1.1610133    30.985945    30.985945    30.985945    29750.497 
 2591000    295.36001   -2072.6002   -23254.226   -25109.255    1855.0283    1.1610133    30.985945    30.985945    30.985945    29750.497 
 2592000    299.51778   -2078.0036   -23121.918   -25003.059    1881.1414    1.1610133    30.985945    30.985945    30.985945    29750.497 
 2593000    295.99904   -3128.3237   -23209.273   -25068.315    1859.0418    1.1610133    30.985945    30.985945    30.985945    29750.497 
 2594000    289.35971   -2167.2619   -23189.947    -25007.29     1817.343    1.1610133    30.985945    30.985945    30.985945    29750.497 
 2595000    297.21675    -2555.783   -23192.741    -25059.43    1866.6896    1.1610133    30.985945    30.985945    30.985945    29750.497 
 2596000    301.61212   -2046.4077   -23232.112   -25126.407     1894.295    1.1610133    30.985945    30.985945    30.985945    29750.497 
 2597000    297.67292   -2400.6811   -23183.888   -25053.443    1869.5547    1.1610133    30.985945    30.985945    30.985945    29750.497 
 2598000    296.73351   -2256.6178   -23283.521   -25147.175    1863.6546    1.1610133    30.985945    30.985945    30.985945    29750.497 
 2599000    293.39355   -2431.3904   -23228.782    -25071.46    1842.6778    1.1610133    30.985945    30.985945    30.985945    29750.497 
 2600000    301.07308    -2314.263    -23187.85   -25078.759    1890.9096    1.1610133    30.985945    30.985945    30.985945    29750.497 
 2601000    290.73847   -1110.4081   -23256.053   -25082.055    1826.0023    1.1610133    30.985945    30.985945    30.985945    29750.497 
 2602000    301.54396   -2174.9882   -23103.545   -24997.412     1893.867    1.1610133    30.985945    30.985945    30.985945    29750.497 
 2603000    305.48176   -1882.4123   -23094.042    -25012.64    1918.5986    1.1610133    30.985945    30.985945    30.985945    29750.497 
 2604000    304.80118   -2174.2383   -23213.882   -25128.206    1914.3242    1.1610133    30.985945    30.985945    30.985945    29750.497 
 2605000    295.00972   -3578.1596   -23248.438   -25101.266    1852.8282    1.1610133    30.985945    30.985945    30.985945    29750.497 
 2606000    297.35914   -2738.6713   -23194.548   -25062.131    1867.5839    1.1610133    30.985945    30.985945    30.985945    29750.497 
 2607000    298.46675   -2794.6049   -23279.642   -25154.182    1874.5404    1.1610133    30.985945    30.985945    30.985945    29750.497 
 2608000    294.78734   -2459.2742   -23246.139    -25097.57    1851.4316    1.1610133    30.985945    30.985945    30.985945    29750.497 
 2609000    298.20681   -1891.9424   -23245.405   -25118.313    1872.9078    1.1610133    30.985945    30.985945    30.985945    29750.497 
 2610000    298.05042   -2405.0886   -23290.737   -25162.663    1871.9255    1.1610133    30.985945    30.985945    30.985945    29750.497 
 2611000    294.83368   -2299.1006   -23289.512   -25141.235    1851.7226    1.1610133    30.985945    30.985945    30.985945    29750.497 
 2612000    297.66848    -2420.167   -23169.074   -25038.601    1869.5268    1.1610133    30.985945    30.985945    30.985945    29750.497 
 2613000     298.0168   -1867.0969   -23172.514   -25044.229    1871.7144    1.1610133    30.985945    30.985945    30.985945    29750.497 
 2614000    299.99497   -2391.2281   -23100.931   -24985.069    1884.1385    1.1610133    30.985945    30.985945    30.985945    29750.497 
 2615000    288.21559     -2370.66   -23235.968   -25046.125    1810.1572    1.1610133    30.985945    30.985945    30.985945    29750.497 
 2616000     306.0479   -2053.5945   -23223.656   -25145.811    1922.1543    1.1610133    30.985945    30.985945    30.985945    29750.497 
 2617000    308.36058   -2004.8405   -23170.212   -25106.891    1936.6792    1.1610133    30.985945    30.985945    30.985945    29750.497 
 2618000    302.08463   -2494.7962   -23144.206   -25041.468    1897.2627    1.1610133    30.985945    30.985945    30.985945    29750.497 
 2619000     295.1358   -2131.1118    -23253.74    -25107.36    1853.6201    1.1610133    30.985945    30.985945    30.985945    29750.497 
 2620000    300.67283   -2996.9835   -23234.921   -25123.317    1888.3958    1.1610133    30.985945    30.985945    30.985945    29750.497 
 2621000    307.97384   -2198.0093   -23090.495   -25024.745    1934.2503    1.1610133    30.985945    30.985945    30.985945    29750.497 
 2622000    292.29711     -2530.16   -23282.637   -25118.428    1835.7915    1.1610133    30.985945    30.985945    30.985945    29750.497 
 2623000    305.71827   -2554.2396   -23185.806    -25105.89     1920.084    1.1610133    30.985945    30.985945    30.985945    29750.497 
 2624000    293.57954    -3450.294   -23279.392   -25123.238    1843.8459    1.1610133    30.985945    30.985945    30.985945    29750.497 
 2625000    299.49061   -2354.0022   -23246.209    -25127.18    1880.9708    1.1610133    30.985945    30.985945    30.985945    29750.497 
 2626000     302.1695   -2090.2502   -23190.358   -25088.153    1897.7957    1.1610133    30.985945    30.985945    30.985945    29750.497 
 2627000    298.24321     -1985.73   -23223.111   -25096.248    1873.1364    1.1610133    30.985945    30.985945    30.985945    29750.497 
 2628000    289.22443   -2244.2502   -23295.273   -25111.766    1816.4933    1.1610133    30.985945    30.985945    30.985945    29750.497 
 2629000    297.76141    -2224.983   -23215.456   -25085.566    1870.1104    1.1610133    30.985945    30.985945    30.985945    29750.497 
 2630000    301.31347   -2459.3109   -23169.825   -25062.244    1892.4194    1.1610133    30.985945    30.985945    30.985945    29750.497 
 2631000    302.56037   -2755.3928   -23151.301   -25051.552    1900.2506    1.1610133    30.985945    30.985945    30.985945    29750.497 
 2632000    301.40187   -2728.6778   -23133.493   -25026.467    1892.9746    1.1610133    30.985945    30.985945    30.985945    29750.497 
 2633000    297.38386   -1417.0039   -23275.003   -25142.743    1867.7392    1.1610133    30.985945    30.985945    30.985945    29750.497 
 2634000    305.24732   -2467.6331   -23194.432   -25111.558    1917.1262    1.1610133    30.985945    30.985945    30.985945    29750.497 
 2635000    306.46203    -2122.151   -23147.324   -25072.079    1924.7552    1.1610133    30.985945    30.985945    30.985945    29750.497 
 2636000    295.83395   -2519.7213   -23203.502   -25061.507    1858.0049    1.1610133    30.985945    30.985945    30.985945    29750.497 
 2637000    298.78269   -3231.1543   -23165.149   -25041.673    1876.5246    1.1610133    30.985945    30.985945    30.985945    29750.497 
 2638000    302.08253   -3185.4263   -23150.345   -25047.594    1897.2495    1.1610133    30.985945    30.985945    30.985945    29750.497 
 2639000    293.37114   -2397.7068   -23239.982   -25082.519     1842.537    1.1610133    30.985945    30.985945    30.985945    29750.497 
 2640000    304.06158   -2060.6384   -23075.784   -24985.463    1909.6791    1.1610133    30.985945    30.985945    30.985945    29750.497 
 2641000    295.92168   -3248.8823   -23233.489   -25092.045    1858.5559    1.1610133    30.985945    30.985945    30.985945    29750.497 
 2642000    309.46751   -3818.3269   -23127.266   -25070.897    1943.6313    1.1610133    30.985945    30.985945    30.985945    29750.497 
 2643000    302.33158   -2552.6286   -23192.766   -25091.579    1898.8137    1.1610133    30.985945    30.985945    30.985945    29750.497 
 2644000    292.91946   -2892.9286   -23239.709    -25079.41    1839.7002    1.1610133    30.985945    30.985945    30.985945    29750.497 
 2645000    298.37652   -1740.8277   -23198.819   -25072.793    1873.9737    1.1610133    30.985945    30.985945    30.985945    29750.497 
 2646000    295.45626   -2766.7887   -23181.468   -25037.101    1855.6328    1.1610133    30.985945    30.985945    30.985945    29750.497 
 2647000    294.49633   -1815.1168   -23197.312   -25046.916    1849.6039    1.1610133    30.985945    30.985945    30.985945    29750.497 
 2648000    299.81253   -1981.7228   -23231.853   -25114.846    1882.9926    1.1610133    30.985945    30.985945    30.985945    29750.497 
 2649000    296.41125   -2703.7638   -23336.529   -25198.159    1861.6306    1.1610133    30.985945    30.985945    30.985945    29750.497 
 2650000    298.57953   -2329.5337   -23323.137   -25198.385    1875.2487    1.1610133    30.985945    30.985945    30.985945    29750.497 
 2651000    302.70334   -2151.7504   -23232.231    -25133.38    1901.1485    1.1610133    30.985945    30.985945    30.985945    29750.497 
 2652000     306.2845   -3239.1356   -23231.214   -25154.854    1923.6403    1.1610133    30.985945    30.985945    30.985945    29750.497 
 2653000    296.83813   -2451.3703   -23268.953   -25133.264    1864.3117    1.1610133    30.985945    30.985945    30.985945    29750.497 
 2654000    305.00202   -1471.2088    -23182.76   -25098.346    1915.5856    1.1610133    30.985945    30.985945    30.985945    29750.497 
 2655000    304.77521   -2053.5635   -23157.013   -25071.174    1914.1611    1.1610133    30.985945    30.985945    30.985945    29750.497 
 2656000    304.09753   -3064.1026   -23198.201   -25108.106    1909.9048    1.1610133    30.985945    30.985945    30.985945    29750.497 
 2657000    292.50182    -2870.589   -23273.264   -25110.341    1837.0772    1.1610133    30.985945    30.985945    30.985945    29750.497 
 2658000    299.41426   -2432.2673   -23189.786   -25070.278    1880.4912    1.1610133    30.985945    30.985945    30.985945    29750.497 
 2659000    295.87915   -2205.1977   -23171.387   -25029.676    1858.2888    1.1610133    30.985945    30.985945    30.985945    29750.497 
 2660000    302.24701    -2081.089    -23161.11   -25059.393    1898.2826    1.1610133    30.985945    30.985945    30.985945    29750.497 
 2661000    301.15764    -2334.464   -23273.347   -25164.788    1891.4407    1.1610133    30.985945    30.985945    30.985945    29750.497 
 2662000    301.04646   -2462.8386   -23189.186   -25079.929    1890.7424    1.1610133    30.985945    30.985945    30.985945    29750.497 
 2663000    295.99519   -2633.5127    -23237.51   -25096.527    1859.0176    1.1610133    30.985945    30.985945    30.985945    29750.497 
 2664000    298.71057   -2790.9029   -23170.869    -25046.94    1876.0717    1.1610133    30.985945    30.985945    30.985945    29750.497 
 2665000    298.28078   -2315.2016   -23138.788    -25012.16    1873.3724    1.1610133    30.985945    30.985945    30.985945    29750.497 
 2666000    301.21252   -1747.2498   -23142.303   -25034.088    1891.7853    1.1610133    30.985945    30.985945    30.985945    29750.497 
 2667000      303.107   -2002.1112   -23161.971   -25065.654    1903.6837    1.1610133    30.985945    30.985945    30.985945    29750.497 
 2668000    293.95384    -2228.978    -23154.53   -25000.727    1846.1967    1.1610133    30.985945    30.985945    30.985945    29750.497 
 2669000    297.20599   -1901.8295    -23123.29   -24989.912    1866.6221    1.1610133    30.985945    30.985945    30.985945    29750.497 
 2670000    302.88235    -3739.922   -23253.521   -25155.793    1902.2728    1.1610133    30.985945    30.985945    30.985945    29750.497 
 2671000    299.97808   -2252.6328   -23239.259   -25123.292    1884.0323    1.1610133    30.985945    30.985945    30.985945    29750.497 
 2672000    299.26297   -2624.0965     -23304.4   -25183.942    1879.5411    1.1610133    30.985945    30.985945    30.985945    29750.497 
 2673000    304.85027   -2718.7766   -23235.825   -25150.457    1914.6325    1.1610133    30.985945    30.985945    30.985945    29750.497 
 2674000    291.28281   -2351.3536   -23217.951   -25047.372    1829.4212    1.1610133    30.985945    30.985945    30.985945    29750.497 
 2675000    301.07541   -1956.0231    -23170.95   -25061.875    1890.9242    1.1610133    30.985945    30.985945    30.985945    29750.497 
 2676000    297.55635   -2483.5475   -23242.957   -25111.779    1868.8225    1.1610133    30.985945    30.985945    30.985945    29750.497 
 2677000    295.41032   -2721.7342   -23335.843   -25191.187    1855.3442    1.1610133    30.985945    30.985945    30.985945    29750.497 
 2678000     304.6556   -2959.7654   -23199.585   -25112.995    1913.4099    1.1610133    30.985945    30.985945    30.985945    29750.497 
 2679000    296.78677   -3543.1212   -23251.595   -25115.584    1863.9891    1.1610133    30.985945    30.985945    30.985945    29750.497 
 2680000    293.66612    -2979.858   -23208.688   -25053.078    1844.3897    1.1610133    30.985945    30.985945    30.985945    29750.497 
 2681000    299.22235   -3199.3735   -23128.783   -25008.068     1879.286    1.1610133    30.985945    30.985945    30.985945    29750.497 
 2682000    296.12104   -2430.1998    -23209.86   -25069.668     1859.808    1.1610133    30.985945    30.985945    30.985945    29750.497 
 2683000    296.95904   -2332.6172    -23239.59   -25104.661    1865.0711    1.1610133    30.985945    30.985945    30.985945    29750.497 
 2684000    299.32876   -2510.9514   -23232.193   -25112.147    1879.9542    1.1610133    30.985945    30.985945    30.985945    29750.497 
 2685000    305.61723   -1998.0182   -23187.998   -25107.448    1919.4494    1.1610133    30.985945    30.985945    30.985945    29750.497 
 2686000     301.0256   -2215.2689   -23208.947   -25099.558    1890.6114    1.1610133    30.985945    30.985945    30.985945    29750.497 
 2687000    288.82637   -2182.2593   -23243.518   -25057.512    1813.9933    1.1610133    30.985945    30.985945    30.985945    29750.497 
 2688000     301.3777   -2157.6007   -23173.673   -25066.496    1892.8227    1.1610133    30.985945    30.985945    30.985945    29750.497 
 2689000    301.77893     -3244.25   -23127.987    -25023.33    1895.3427    1.1610133    30.985945    30.985945    30.985945    29750.497 
 2690000    296.15459   -2185.4861   -23219.865   -25079.883    1860.0187    1.1610133    30.985945    30.985945    30.985945    29750.497 
 2691000    310.85353   -2059.8236   -23215.135   -25167.472    1952.3363    1.1610133    30.985945    30.985945    30.985945    29750.497 
 2692000    294.47936    -2366.132    -23327.15   -25176.647    1849.4973    1.1610133    30.985945    30.985945    30.985945    29750.497 
 2693000    299.02178   -2561.6017   -23252.821   -25130.847    1878.0263    1.1610133    30.985945    30.985945    30.985945    29750.497 
 2694000     295.1537   -2405.5036   -23267.997    -25121.73    1853.7325    1.1610133    30.985945    30.985945    30.985945    29750.497 
 2695000    294.86205   -3422.9371   -23267.055   -25118.956    1851.9008    1.1610133    30.985945    30.985945    30.985945    29750.497 
 2696000    300.28299   -1738.7965   -23201.341   -25087.288    1885.9473    1.1610133    30.985945    30.985945    30.985945    29750.497 
 2697000    292.48318   -3006.9616   -23206.619    -25043.58    1836.9602    1.1610133    30.985945    30.985945    30.985945    29750.497 
 2698000    303.20544   -3936.8521   -23165.932   -25070.234     1904.302    1.1610133    30.985945    30.985945    30.985945    29750.497 
 2699000    304.92424   -1813.9816   -23118.008   -25033.105    1915.0971    1.1610133    30.985945    30.985945    30.985945    29750.497 
 2700000    296.87053   -2771.6167   -23243.624   -25108.139    1864.5152    1.1610133    30.985945    30.985945    30.985945    29750.497 
 2701000    301.23819   -1165.7936   -23207.971   -25099.918    1891.9466    1.1610133    30.985945    30.985945    30.985945    29750.497 
 2702000    290.65672   -2026.9908    -23225.98   -25051.469    1825.4889    1.1610133    30.985945    30.985945    30.985945    29750.497 
 2703000    293.69148   -2104.7044   -23170.198   -25014.747    1844.5489    1.1610133    30.985945    30.985945    30.985945    29750.497 
 2704000    300.64777   -1977.3434   -23182.889   -25071.128    1888.2384    1.1610133    30.985945    30.985945    30.985945    29750.497 
 2705000    298.03316   -2479.2738   -23136.402   -25008.219    1871.8172    1.1610133    30.985945    30.985945    30.985945    29750.497 
 2706000    303.66198   -2443.3102   -23227.994   -25135.163    1907.1693    1.1610133    30.985945    30.985945    30.985945    29750.497 
 2707000    306.79435   -2771.2642   -23143.755   -25070.597    1926.8424    1.1610133    30.985945    30.985945    30.985945    29750.497 
 2708000    286.00025   -2751.6067   -23210.562   -25006.806    1796.2437    1.1610133    30.985945    30.985945    30.985945    29750.497 
 2709000    300.64533   -1886.6635   -23238.513   -25126.736    1888.2231    1.1610133    30.985945    30.985945    30.985945    29750.497 
 2710000     288.7682   -2195.7154   -23314.232    -25127.86     1813.628    1.1610133    30.985945    30.985945    30.985945    29750.497 
 2711000    300.00678   -2550.2904     -23247.2   -25131.413    1884.2126    1.1610133    30.985945    30.985945    30.985945    29750.497 
 2712000     293.2174   -2334.4287   -23305.781   -25147.353    1841.5715    1.1610133    30.985945    30.985945    30.985945    29750.497 
 2713000    295.30751   -1873.7685   -23187.423   -25042.121    1854.6985    1.1610133    30.985945    30.985945    30.985945    29750.497 
 2714000     293.4129   -2885.0134   -23206.127   -25048.926    1842.7993    1.1610133    30.985945    30.985945    30.985945    29750.497 
 2715000    298.71608   -3317.2374   -23219.318   -25095.424    1876.1063    1.1610133    30.985945    30.985945    30.985945    29750.497 
 2716000    301.15233   -2108.8741   -23188.652   -25080.059    1891.4073    1.1610133    30.985945    30.985945    30.985945    29750.497 
 2717000    296.39876   -2732.3284   -23172.198   -25033.751    1861.5522    1.1610133    30.985945    30.985945    30.985945    29750.497 
 2718000    289.42417   -1811.7905   -23175.592   -24993.339    1817.7478    1.1610133    30.985945    30.985945    30.985945    29750.497 
 2719000    296.34521   -2400.9852   -23187.063   -25048.279    1861.2159    1.1610133    30.985945    30.985945    30.985945    29750.497 
 2720000    298.53955   -2254.4481   -23139.649   -25014.647    1874.9976    1.1610133    30.985945    30.985945    30.985945    29750.497 
 2721000    303.15882    -1826.605   -23146.349   -25050.359    1904.0092    1.1610133    30.985945    30.985945    30.985945    29750.497 
 2722000    305.53611   -2430.1707   -23153.654   -25072.594      1918.94    1.1610133    30.985945    30.985945    30.985945    29750.497 
 2723000    300.85958   -1469.6692   -23172.421    -25061.99    1889.5687    1.1610133    30.985945    30.985945    30.985945    29750.497 
 2724000    300.61976   -1511.3546   -23154.295   -25042.358    1888.0625    1.1610133    30.985945    30.985945    30.985945    29750.497 
 2725000     298.3247   -2802.3369   -23230.438   -25104.086    1873.6482    1.1610133    30.985945    30.985945    30.985945    29750.497 
 2726000    295.09434   -3475.8024   -23240.512   -25093.872    1853.3597    1.1610133    30.985945    30.985945    30.985945    29750.497 
 2727000    295.50382   -2567.8414    -23213.26   -25069.192    1855.9315    1.1610133    30.985945    30.985945    30.985945    29750.497 
 2728000    296.97462    -2504.142   -23180.443   -25045.612    1865.1689    1.1610133    30.985945    30.985945    30.985945    29750.497 
 2729000    296.62033   -4197.0691   -23251.629   -25114.573    1862.9438    1.1610133    30.985945    30.985945    30.985945    29750.497 
 2730000    305.51058   -1901.3458   -23107.959   -25026.738    1918.7796    1.1610133    30.985945    30.985945    30.985945    29750.497 
 2731000    297.86706   -2463.3605   -23249.762   -25120.536     1870.774    1.1610133    30.985945    30.985945    30.985945    29750.497 
 2732000    298.18065   -3245.1253   -23213.391   -25086.134    1872.7435    1.1610133    30.985945    30.985945    30.985945    29750.497 
 2733000     289.1165   -2563.9816   -23206.551   -25022.367    1815.8155    1.1610133    30.985945    30.985945    30.985945    29750.497 
 2734000    302.42686   -2455.3483   -23101.319   -25000.731    1899.4121    1.1610133    30.985945    30.985945    30.985945    29750.497 
 2735000     301.7422   -1945.7665    -23147.47   -25042.582     1895.112    1.1610133    30.985945    30.985945    30.985945    29750.497 
 2736000    300.24271   -2580.1426   -23277.126   -25162.821    1885.6944    1.1610133    30.985945    30.985945    30.985945    29750.497 
 2737000    291.22858   -2896.9281   -23309.382   -25138.463    1829.0805    1.1610133    30.985945    30.985945    30.985945    29750.497 
 2738000    297.04965   -2489.4089   -23248.394   -25114.034    1865.6401    1.1610133    30.985945    30.985945    30.985945    29750.497 
 2739000    299.50717   -2547.8773    -23235.25   -25116.325    1881.0748    1.1610133    30.985945    30.985945    30.985945    29750.497 
 2740000    289.63625   -1734.6161   -23265.039   -25084.119    1819.0798    1.1610133    30.985945    30.985945    30.985945    29750.497 
 2741000    300.48248   -2476.2419   -23219.125   -25106.325    1887.2003    1.1610133    30.985945    30.985945    30.985945    29750.497 
 2742000     295.5061   -1920.6103   -23236.535   -25092.481    1855.9458    1.1610133    30.985945    30.985945    30.985945    29750.497 
 2743000    302.11099   -2324.9919   -23174.447   -25071.876    1897.4282    1.1610133    30.985945    30.985945    30.985945    29750.497 
 2744000    306.18439   -1738.1258   -23109.458    -25032.47    1923.0115    1.1610133    30.985945    30.985945    30.985945    29750.497 
 2745000    291.89944   -2021.1531   -23272.917   -25106.211    1833.2939    1.1610133    30.985945    30.985945    30.985945    29750.497 
 2746000    295.95961   -1566.9258   -23080.494   -24939.288    1858.7941    1.1610133    30.985945    30.985945    30.985945    29750.497 
 2747000    300.86481     -2427.27   -23216.186   -25105.787    1889.6015    1.1610133    30.985945    30.985945    30.985945    29750.497 
 2748000    299.95367   -2008.1766   -23193.945   -25077.824     1883.879    1.1610133    30.985945    30.985945    30.985945    29750.497 
 2749000    305.28512   -2633.2909   -23170.473   -25087.837    1917.3636    1.1610133    30.985945    30.985945    30.985945    29750.497 
 2750000    294.73238   -2216.9509   -23289.684   -25140.771    1851.0864    1.1610133    30.985945    30.985945    30.985945    29750.497 
 2751000    300.79802      -1894.4   -23167.089   -25056.271    1889.1821    1.1610133    30.985945    30.985945    30.985945    29750.497 
 2752000    292.55845   -2919.5658   -23277.561   -25114.994    1837.4329    1.1610133    30.985945    30.985945    30.985945    29750.497 
 2753000    307.73352   -2314.9758   -23097.767   -25030.508    1932.7409    1.1610133    30.985945    30.985945    30.985945    29750.497 
 2754000    293.65698   -3204.2028   -23264.751   -25109.083    1844.3323    1.1610133    30.985945    30.985945    30.985945    29750.497 
 2755000    295.47818   -3123.4772   -23285.411   -25141.181    1855.7704    1.1610133    30.985945    30.985945    30.985945    29750.497 
 2756000    292.05757   -2520.9894   -23259.916   -25094.203    1834.2871    1.1610133    30.985945    30.985945    30.985945    29750.497 
 2757000      299.974   -2765.8273   -23195.138   -25079.145    1884.0067    1.1610133    30.985945    30.985945    30.985945    29750.497 
 2758000    295.43794    -1035.777   -23212.696   -25068.214    1855.5177    1.1610133    30.985945    30.985945    30.985945    29750.497 
 2759000    295.58534   -2423.0666   -23190.147    -25046.59    1856.4435    1.1610133    30.985945    30.985945    30.985945    29750.497 
 2760000    301.82443   -2477.5024     -23184.6   -25080.229    1895.6285    1.1610133    30.985945    30.985945    30.985945    29750.497 
 2761000    299.62513   -2058.4168   -23203.509   -25085.325    1881.8157    1.1610133    30.985945    30.985945    30.985945    29750.497 
 2762000    288.80555   -2495.2281   -23169.324   -24983.187    1813.8626    1.1610133    30.985945    30.985945    30.985945    29750.497 
 2763000     310.8017   -2800.1566   -23093.523   -25045.534    1952.0108    1.1610133    30.985945    30.985945    30.985945    29750.497 
 2764000    309.25259   -2746.9031   -23074.733   -25017.015    1942.2815    1.1610133    30.985945    30.985945    30.985945    29750.497 
 2765000    287.26257    -3271.201    -23207.08   -25011.251    1804.1717    1.1610133    30.985945    30.985945    30.985945    29750.497 
 2766000       295.46    -2900.819   -23269.623   -25125.279    1855.6562    1.1610133    30.985945    30.985945    30.985945    29750.497 
 2767000    299.87697   -2739.8066   -23247.841   -25131.239    1883.3973    1.1610133    30.985945    30.985945    30.985945    29750.497 
 2768000    297.28353   -2805.3929   -23219.615   -25086.724     1867.109    1.1610133    30.985945    30.985945    30.985945    29750.497 
 2769000    296.27094    -2401.608   -23219.924   -25080.673    1860.7494    1.1610133    30.985945    30.985945    30.985945    29750.497 
 2770000    296.14317   -1647.0768   -23237.082   -25097.029    1859.9469    1.1610133    30.985945    30.985945    30.985945    29750.497 
 2771000    298.62805   -2154.4647   -23138.909   -25014.462    1875.5534    1.1610133    30.985945    30.985945    30.985945    29750.497 
 2772000    304.36869   -2138.8405   -23198.373   -25109.981    1911.6079    1.1610133    30.985945    30.985945    30.985945    29750.497 
 2773000    298.31609    -3028.648   -23228.672   -25102.266    1873.5941    1.1610133    30.985945    30.985945    30.985945    29750.497 
 2774000    299.48572   -2623.0972   -23275.208   -25156.148    1880.9401    1.1610133    30.985945    30.985945    30.985945    29750.497 
 2775000    297.60059   -2305.5161   -23230.267   -25099.368    1869.1004    1.1610133    30.985945    30.985945    30.985945    29750.497 
 2776000    295.01291   -2737.3309   -23254.277   -25107.126    1852.8483    1.1610133    30.985945    30.985945    30.985945    29750.497 
 2777000    301.92269   -2224.5883   -23142.365   -25038.611    1896.2456    1.1610133    30.985945    30.985945    30.985945    29750.497 
 2778000    299.23773   -2572.4928   -23193.594   -25072.977    1879.3826    1.1610133    30.985945    30.985945    30.985945    29750.497 
 2779000    300.62605   -1865.1329   -23247.745   -25135.847     1888.102    1.1610133    30.985945    30.985945    30.985945    29750.497 
 2780000     291.9989   -2531.1036     -23239.9   -25073.819    1833.9186    1.1610133    30.985945    30.985945    30.985945    29750.497 
 2781000     297.0064   -2054.1016   -23239.684   -25105.053    1865.3685    1.1610133    30.985945    30.985945    30.985945    29750.497 
 2782000    300.05977   -2851.4968   -23232.185   -25116.731    1884.5454    1.1610133    30.985945    30.985945    30.985945    29750.497 
 2783000    296.64028   -2628.1968   -23174.316   -25037.385    1863.0691    1.1610133    30.985945    30.985945    30.985945    29750.497 
 2784000    297.62383   -3063.4689   -23200.272   -25069.518    1869.2463    1.1610133    30.985945    30.985945    30.985945    29750.497 
 2785000     293.9155    -1750.617   -23173.564    -25019.52    1845.9559    1.1610133    30.985945    30.985945    30.985945    29750.497 
 2786000    292.15884   -1490.2712   -23254.968   -25089.891    1834.9231    1.1610133    30.985945    30.985945    30.985945    29750.497 
 2787000    294.71566     -3164.39   -23191.476   -25042.457    1850.9814    1.1610133    30.985945    30.985945    30.985945    29750.497 
 2788000    302.23311   -1987.6432   -23134.072   -25032.267    1898.1953    1.1610133    30.985945    30.985945    30.985945    29750.497 
 2789000    295.38329   -2802.7284   -23188.082   -25043.256    1855.1745    1.1610133    30.985945    30.985945    30.985945    29750.497 
 2790000    298.73554   -1952.1509   -23217.603   -25093.831    1876.2285    1.1610133    30.985945    30.985945    30.985945    29750.497 
 2791000    307.94221    -2175.117   -23139.786   -25073.838    1934.0516    1.1610133    30.985945    30.985945    30.985945    29750.497 
 2792000    294.86605   -2554.2879   -23199.923   -25051.849    1851.9259    1.1610133    30.985945    30.985945    30.985945    29750.497 
 2793000    295.46117   -1745.7689    -23229.37   -25085.034    1855.6636    1.1610133    30.985945    30.985945    30.985945    29750.497 
 2794000     287.6559   -2117.4116   -23203.481   -25010.124    1806.6421    1.1610133    30.985945    30.985945    30.985945    29750.497 
 2795000    296.65618   -1836.8456   -23251.445   -25114.614    1863.1689    1.1610133    30.985945    30.985945    30.985945    29750.497 
 2796000    298.31271   -2051.1124   -23178.447    -25052.02    1873.5729    1.1610133    30.985945    30.985945    30.985945    29750.497 
 2797000    301.30021    -2466.467   -23210.624    -25102.96    1892.3361    1.1610133    30.985945    30.985945    30.985945    29750.497 
 2798000    301.18786   -2057.8035   -23243.781   -25135.411    1891.6305    1.1610133    30.985945    30.985945    30.985945    29750.497 
 2799000    296.93778   -1922.3892   -23123.691   -24988.628    1864.9375    1.1610133    30.985945    30.985945    30.985945    29750.497 
 2800000    298.89084   -2461.8422   -23174.405   -25051.609    1877.2039    1.1610133    30.985945    30.985945    30.985945    29750.497 
 2801000    298.83626   -1967.3948   -23236.706   -25113.567    1876.8611    1.1610133    30.985945    30.985945    30.985945    29750.497 
 2802000    297.97917   -2215.9681   -23227.503   -25098.981    1871.4781    1.1610133    30.985945    30.985945    30.985945    29750.497 
 2803000    294.83351   -2143.7699   -23223.312   -25075.033    1851.7216    1.1610133    30.985945    30.985945    30.985945    29750.497 
 2804000    302.51522   -1792.7378   -23222.636   -25122.603     1899.967    1.1610133    30.985945    30.985945    30.985945    29750.497 
 2805000    294.64384   -3295.4652   -23227.656   -25078.186    1850.5303    1.1610133    30.985945    30.985945    30.985945    29750.497 
 2806000    290.51836   -1860.9014    -23270.01    -25094.63      1824.62    1.1610133    30.985945    30.985945    30.985945    29750.497 
 2807000    298.81668   -2209.4271   -23223.784   -25100.522    1876.7381    1.1610133    30.985945    30.985945    30.985945    29750.497 
 2808000    300.46766   -1038.3752   -23203.493     -25090.6    1887.1072    1.1610133    30.985945    30.985945    30.985945    29750.497 
 2809000    299.72903   -1573.3905   -23153.774   -25036.243    1882.4682    1.1610133    30.985945    30.985945    30.985945    29750.497 
 2810000    301.46384   -2564.5466   -23145.684   -25039.048    1893.3638    1.1610133    30.985945    30.985945    30.985945    29750.497 
 2811000    291.87431   -3234.6675   -23357.449   -25190.586    1833.1361    1.1610133    30.985945    30.985945    30.985945    29750.497 
 2812000    294.59219   -2908.8307   -23289.292   -25139.498    1850.2059    1.1610133    30.985945    30.985945    30.985945    29750.497 
 2813000    299.52186   -1949.7765   -23143.265   -25024.432    1881.1671    1.1610133    30.985945    30.985945    30.985945    29750.497 
 2814000    293.90026   -2043.7198   -23168.148   -25014.009    1845.8602    1.1610133    30.985945    30.985945    30.985945    29750.497 
 2815000    306.80173   -1848.3096   -23118.205   -25045.093    1926.8888    1.1610133    30.985945    30.985945    30.985945    29750.497 
 2816000    297.59952   -2427.1554   -23201.573   -25070.667    1869.0937    1.1610133    30.985945    30.985945    30.985945    29750.497 
 2817000    288.31044   -2127.3236    -23219.62   -25030.373     1810.753    1.1610133    30.985945    30.985945    30.985945    29750.497 
 2818000    290.83646    -1675.764   -23247.166   -25073.784    1826.6178    1.1610133    30.985945    30.985945    30.985945    29750.497 
 2819000    302.94381   -2430.3554   -23208.747   -25111.405    1902.6588    1.1610133    30.985945    30.985945    30.985945    29750.497 
 2820000    286.78221   -2128.6488    -23253.41   -25054.565    1801.1548    1.1610133    30.985945    30.985945    30.985945    29750.497 
 2821000    298.96245   -1871.5717   -23155.193   -25032.847    1877.6537    1.1610133    30.985945    30.985945    30.985945    29750.497 
 2822000    302.81557   -1873.7422   -23197.114   -25098.968    1901.8534    1.1610133    30.985945    30.985945    30.985945    29750.497 
 2823000    308.08809   -2183.6671    -23190.17   -25125.137    1934.9678    1.1610133    30.985945    30.985945    30.985945    29750.497 
 2824000    298.20497   -2126.2614   -23162.557   -25035.453    1872.8962    1.1610133    30.985945    30.985945    30.985945    29750.497 
 2825000    290.90749    -2100.513    -23303.86   -25130.924    1827.0639    1.1610133    30.985945    30.985945    30.985945    29750.497 
 2826000    297.34588   -1794.2344   -23214.511   -25082.012    1867.5007    1.1610133    30.985945    30.985945    30.985945    29750.497 
 2827000    305.18435   -1848.3845    -23193.15   -25109.881    1916.7307    1.1610133    30.985945    30.985945    30.985945    29750.497 
 2828000    288.85757   -2121.9344   -23247.639   -25061.829    1814.1892    1.1610133    30.985945    30.985945    30.985945    29750.497 
 2829000     290.9961   -3642.5789   -23302.736   -25130.356    1827.6205    1.1610133    30.985945    30.985945    30.985945    29750.497 
 2830000    303.86628   -3032.1214   -23195.435   -25103.888    1908.4525    1.1610133    30.985945    30.985945    30.985945    29750.497 
 2831000    299.30254   -1582.0331   -23246.932   -25126.721    1879.7896    1.1610133    30.985945    30.985945    30.985945    29750.497 
 2832000    299.45961   -1966.6809   -23272.513   -25153.289    1880.7761    1.1610133    30.985945    30.985945    30.985945    29750.497 
 2833000    306.16239   -1851.1096   -23137.663   -25060.537    1922.8733    1.1610133    30.985945    30.985945    30.985945    29750.497 
 2834000    307.02234   -1932.3392   -23060.258   -24988.533    1928.2743    1.1610133    30.985945    30.985945    30.985945    29750.497 
 2835000    301.68957   -2559.8283   -23154.218       -25049    1894.7815    1.1610133    30.985945    30.985945    30.985945    29750.497 
 2836000    300.30346   -2133.7065   -23168.659   -25054.735     1886.076    1.1610133    30.985945    30.985945    30.985945    29750.497 
 2837000    302.70916   -1841.9099   -23164.091   -25065.276    1901.1851    1.1610133    30.985945    30.985945    30.985945    29750.497 
 2838000    296.10902   -2726.8379   -23157.799   -25017.532    1859.7325    1.1610133    30.985945    30.985945    30.985945    29750.497 
 2839000     301.5745   -2406.1828   -23217.737   -25111.796    1894.0588    1.1610133    30.985945    30.985945    30.985945    29750.497 
 2840000    294.35807   -2719.5478   -23185.531   -25034.267    1848.7355    1.1610133    30.985945    30.985945    30.985945    29750.497 
 2841000    307.14069   -2967.8934   -23152.813    -25081.83    1929.0176    1.1610133    30.985945    30.985945    30.985945    29750.497 
 2842000    291.29722   -2820.6872   -23154.088   -24983.599    1829.5116    1.1610133    30.985945    30.985945    30.985945    29750.497 
 2843000    297.57124   -2090.7379   -23211.703   -25080.619     1868.916    1.1610133    30.985945    30.985945    30.985945    29750.497 
 2844000    302.18085   -2812.9023   -23185.514   -25083.381     1897.867    1.1610133    30.985945    30.985945    30.985945    29750.497 
 2845000    295.43552   -2178.6335   -23210.162   -25065.665    1855.5025    1.1610133    30.985945    30.985945    30.985945    29750.497 
 2846000     305.0824   -2528.0667   -23200.308   -25116.399    1916.0904    1.1610133    30.985945    30.985945    30.985945    29750.497 
 2847000    297.14358    -2812.367   -23206.732   -25072.962    1866.2301    1.1610133    30.985945    30.985945    30.985945    29750.497 
 2848000    299.34606   -2681.2173   -23257.264   -25137.327    1880.0629    1.1610133    30.985945    30.985945    30.985945    29750.497 
 2849000     296.8256   -3178.3379   -23197.745   -25061.978     1864.233    1.1610133    30.985945    30.985945    30.985945    29750.497 
 2850000    304.65282   -1914.3461   -23162.891   -25076.283    1913.3924    1.1610133    30.985945    30.985945    30.985945    29750.497 
 2851000    292.53683   -2428.9715   -23290.662   -25127.959    1837.2971    1.1610133    30.985945    30.985945    30.985945    29750.497 
 2852000    291.95173   -1983.4576   -23298.345   -25131.968    1833.6223    1.1610133    30.985945    30.985945    30.985945    29750.497 
 2853000    293.06192   -2650.9416   -23226.056   -25066.651     1840.595    1.1610133    30.985945    30.985945    30.985945    29750.497 
 2854000    294.93298   -3261.9863   -23241.946   -25094.293    1852.3463    1.1610133    30.985945    30.985945    30.985945    29750.497 
 2855000    296.67947   -2493.7822   -23271.423   -25134.738    1863.3152    1.1610133    30.985945    30.985945    30.985945    29750.497 
 2856000    294.19514   -3042.1612   -23251.838    -25099.55    1847.7122    1.1610133    30.985945    30.985945    30.985945    29750.497 
 2857000    302.03581   -2402.8143    -23157.03   -25053.986    1896.9561    1.1610133    30.985945    30.985945    30.985945    29750.497 
 2858000    295.50555   -2105.5376   -23339.494   -25195.436    1855.9424    1.1610133    30.985945    30.985945    30.985945    29750.497 
 2859000     298.2578   -2654.9116   -23225.754   -25098.982     1873.228    1.1610133    30.985945    30.985945    30.985945    29750.497 
 2860000    297.58376   -1970.7805    -23285.47   -25154.465    1868.9947    1.1610133    30.985945    30.985945    30.985945    29750.497 
 2861000    291.37923   -2004.4856   -23249.553   -25079.579    1830.0267    1.1610133    30.985945    30.985945    30.985945    29750.497 
 2862000    297.13778   -1953.1883   -23291.825   -25158.019    1866.1937    1.1610133    30.985945    30.985945    30.985945    29750.497 
 2863000    302.34664   -2043.3908   -23095.352    -24994.26    1898.9083    1.1610133    30.985945    30.985945    30.985945    29750.497 
 2864000    299.06077   -2624.0785   -23207.467   -25085.738    1878.2711    1.1610133    30.985945    30.985945    30.985945    29750.497 
 2865000     299.6994   -1674.6056   -23199.587    -25081.87    1882.2821    1.1610133    30.985945    30.985945    30.985945    29750.497 
 2866000    295.96958   -1438.6878   -23188.145   -25047.001    1858.8567    1.1610133    30.985945    30.985945    30.985945    29750.497 
 2867000    303.06686   -1709.8043   -23125.202   -25028.634    1903.4317    1.1610133    30.985945    30.985945    30.985945    29750.497 
 2868000    296.59162   -2101.5769    -23165.63   -25028.393    1862.7635    1.1610133    30.985945    30.985945    30.985945    29750.497 
 2869000    301.18444   -2541.5424   -23125.749   -25017.358     1891.609    1.1610133    30.985945    30.985945    30.985945    29750.497 
 2870000    292.89169   -2362.5017   -23164.179   -25003.705    1839.5258    1.1610133    30.985945    30.985945    30.985945    29750.497 
 2871000       299.81    -3705.521   -23241.645   -25124.622    1882.9767    1.1610133    30.985945    30.985945    30.985945    29750.497 
 2872000    285.88444   -2630.2244   -23264.448   -25059.965    1795.5163    1.1610133    30.985945    30.985945    30.985945    29750.497 
 2873000     299.6664    -2042.176   -23172.542   -25054.617    1882.0748    1.1610133    30.985945    30.985945    30.985945    29750.497 
 2874000    293.97717    -2895.054   -23217.353   -25063.696    1846.3433    1.1610133    30.985945    30.985945    30.985945    29750.497 
 2875000    293.26438   -3236.4718   -23275.302   -25117.169    1841.8665    1.1610133    30.985945    30.985945    30.985945    29750.497 
 2876000    312.44748   -2940.6493   -23172.924   -25135.271    1962.3473    1.1610133    30.985945    30.985945    30.985945    29750.497 
 2877000    301.47511   -1885.1475   -23223.873   -25117.308    1893.4346    1.1610133    30.985945    30.985945    30.985945    29750.497 
 2878000    298.67531   -2792.0358   -23216.218   -25092.068    1875.8502    1.1610133    30.985945    30.985945    30.985945    29750.497 
 2879000    292.73012   -2278.6308   -23235.781   -25074.292    1838.5111    1.1610133    30.985945    30.985945    30.985945    29750.497 
 2880000    298.89038   -2683.2072   -23178.585   -25055.786     1877.201    1.1610133    30.985945    30.985945    30.985945    29750.497 
 2881000    301.33823   -1288.3385   -23113.919   -25006.494    1892.5749    1.1610133    30.985945    30.985945    30.985945    29750.497 
 2882000    292.19872   -2513.1617   -23222.856    -25058.03    1835.1736    1.1610133    30.985945    30.985945    30.985945    29750.497 
 2883000    295.21769   -2264.5113   -23202.688   -25056.822    1854.1344    1.1610133    30.985945    30.985945    30.985945    29750.497 
 2884000    304.74375   -740.57918   -23134.967    -25048.93    1913.9635    1.1610133    30.985945    30.985945    30.985945    29750.497 
 2885000    296.55429   -3403.7971   -23155.081    -25017.61     1862.529    1.1610133    30.985945    30.985945    30.985945    29750.497 
 2886000    298.59588   -3010.2493   -23174.051   -25049.402    1875.3513    1.1610133    30.985945    30.985945    30.985945    29750.497 
 2887000    306.72227   -1897.0242   -23119.002   -25045.392    1926.3897    1.1610133    30.985945    30.985945    30.985945    29750.497 
 2888000    293.31404   -3492.8605   -23198.429   -25040.607    1842.1784    1.1610133    30.985945    30.985945    30.985945    29750.497 
 2889000    296.84776     -1532.14   -23169.292   -25033.664    1864.3722    1.1610133    30.985945    30.985945    30.985945    29750.497 
 2890000    297.68539   -1667.3398   -23139.263   -25008.896     1869.633    1.1610133    30.985945    30.985945    30.985945    29750.497 
 2891000    313.27029   -2732.5046   -23081.505    -25049.02     1967.515    1.1610133    30.985945    30.985945    30.985945    29750.497 
 2892000    304.77187   -2656.2339   -23093.268   -25007.408    1914.1401    1.1610133    30.985945    30.985945    30.985945    29750.497 
 2893000    303.02723   -1579.8016   -23161.549   -25064.732    1903.1828    1.1610133    30.985945    30.985945    30.985945    29750.497 
 2894000    305.66308   -2502.0627   -23061.709   -24981.446    1919.7374    1.1610133    30.985945    30.985945    30.985945    29750.497 
 2895000    298.77518   -1506.8315   -23193.787   -25070.264    1876.4775    1.1610133    30.985945    30.985945    30.985945    29750.497 
 2896000    299.51919   -2912.1691     -23198.7    -25079.85    1881.1503    1.1610133    30.985945    30.985945    30.985945    29750.497 
 2897000    294.81079   -1986.9842   -23229.721     -25081.3    1851.5788    1.1610133    30.985945    30.985945    30.985945    29750.497 
 2898000    296.89328   -1745.5812   -23248.371   -25113.029    1864.6581    1.1610133    30.985945    30.985945    30.985945    29750.497 
 2899000    299.98347   -2691.3924   -23203.277   -25087.343    1884.0662    1.1610133    30.985945    30.985945    30.985945    29750.497 
 2900000    293.73042   -1915.9177   -23253.446    -25098.24    1844.7935    1.1610133    30.985945    30.985945    30.985945    29750.497 
 2901000    298.59936   -1823.3098   -23212.676    -25088.05    1875.3732    1.1610133    30.985945    30.985945    30.985945    29750.497 
 2902000    298.80973   -3250.0402    -23155.08   -25031.774    1876.6945    1.1610133    30.985945    30.985945    30.985945    29750.497 
 2903000    305.48593   -3081.5268    -23152.35   -25070.975    1918.6248    1.1610133    30.985945    30.985945    30.985945    29750.497 
 2904000    293.61083   -2510.8707   -23304.595   -25148.637    1844.0424    1.1610133    30.985945    30.985945    30.985945    29750.497 
 2905000    296.36295   -2454.5785   -23201.396   -25062.724    1861.3273    1.1610133    30.985945    30.985945    30.985945    29750.497 
 2906000    294.46582   -2582.6511   -23272.282   -25121.695    1849.4122    1.1610133    30.985945    30.985945    30.985945    29750.497 
 2907000    296.07159   -2103.6933   -23230.605   -25090.103    1859.4974    1.1610133    30.985945    30.985945    30.985945    29750.497 
 2908000    301.60917   -2889.7109    -23133.62   -25027.897    1894.2765    1.1610133    30.985945    30.985945    30.985945    29750.497 
 2909000    299.32099   -2657.2305   -23179.607   -25059.512    1879.9054    1.1610133    30.985945    30.985945    30.985945    29750.497 
 2910000    307.08864   -2696.6503   -23217.251   -25145.942    1928.6907    1.1610133    30.985945    30.985945    30.985945    29750.497 
 2911000    301.02414   -2020.6576   -23151.103   -25041.705    1890.6022    1.1610133    30.985945    30.985945    30.985945    29750.497 
 2912000    292.29311   -2102.0513   -23203.705   -25039.471    1835.7664    1.1610133    30.985945    30.985945    30.985945    29750.497 
 2913000    308.80471   -3054.2498   -23118.101   -25057.569    1939.4686    1.1610133    30.985945    30.985945    30.985945    29750.497 
 2914000    297.51477   -2549.3019   -23250.737   -25119.299    1868.5614    1.1610133    30.985945    30.985945    30.985945    29750.497 
 2915000    291.43972   -2113.1741   -23292.154   -25122.561    1830.4066    1.1610133    30.985945    30.985945    30.985945    29750.497 
 2916000    306.75443   -1558.1646   -23194.694   -25121.286    1926.5917    1.1610133    30.985945    30.985945    30.985945    29750.497 
 2917000    296.68989   -2078.2218   -23250.559    -25113.94    1863.3807    1.1610133    30.985945    30.985945    30.985945    29750.497 
 2918000    309.29334   -1753.5119   -23073.617   -25016.154    1942.5375    1.1610133    30.985945    30.985945    30.985945    29750.497 
 2919000    300.72353   -2088.6842   -23188.963   -25077.678    1888.7142    1.1610133    30.985945    30.985945    30.985945    29750.497 
 2920000    304.39765   -2183.0216   -23167.573   -25079.363    1911.7898    1.1610133    30.985945    30.985945    30.985945    29750.497 
 2921000    295.27551   -2851.5881     -23220.7   -25075.198    1854.4976    1.1610133    30.985945    30.985945    30.985945    29750.497 
 2922000    304.99876   -2248.1771   -23140.537   -25056.102    1915.5651    1.1610133    30.985945    30.985945    30.985945    29750.497 
 2923000    298.13771   -3053.7905    -23209.27   -25081.744    1872.4738    1.1610133    30.985945    30.985945    30.985945    29750.497 
 2924000    298.33432   -2094.5263   -23226.951    -25100.66    1873.7086    1.1610133    30.985945    30.985945    30.985945    29750.497 
 2925000    303.13414   -2413.8206   -23269.819   -25173.673    1903.8542    1.1610133    30.985945    30.985945    30.985945    29750.497 
 2926000    289.82452   -3038.0557   -23273.163   -25093.425    1820.2622    1.1610133    30.985945    30.985945    30.985945    29750.497 
 2927000    299.08265   -2590.5125   -23276.314   -25154.723    1878.4086    1.1610133    30.985945    30.985945    30.985945    29750.497 
 2928000    298.46875   -2148.0646   -23333.812   -25208.365    1874.5529    1.1610133    30.985945    30.985945    30.985945    29750.497 
 2929000    293.56731   -2342.3257   -23254.048   -25097.817    1843.7691    1.1610133    30.985945    30.985945    30.985945    29750.497 
 2930000    298.82711   -1913.9103   -23228.322   -25105.125    1876.8036    1.1610133    30.985945    30.985945    30.985945    29750.497 
 2931000    300.50231   -2028.5646   -23151.576   -25038.901    1887.3248    1.1610133    30.985945    30.985945    30.985945    29750.497 
 2932000    300.32133     -2060.16   -23223.795   -25109.983    1886.1882    1.1610133    30.985945    30.985945    30.985945    29750.497 
 2933000    299.43861   -2006.1667   -23259.679   -25140.323    1880.6442    1.1610133    30.985945    30.985945    30.985945    29750.497 
 2934000    309.42628   -2244.2886   -23117.528     -25060.9    1943.3724    1.1610133    30.985945    30.985945    30.985945    29750.497 
 2935000    289.11563   -3219.1478   -23308.233   -25124.043      1815.81    1.1610133    30.985945    30.985945    30.985945    29750.497 
 2936000    293.28005   -1834.8766   -23244.699   -25086.664    1841.9649    1.1610133    30.985945    30.985945    30.985945    29750.497 
 2937000    298.67234   -1960.3587   -23226.791   -25102.622    1875.8315    1.1610133    30.985945    30.985945    30.985945    29750.497 
 2938000    306.74364   -2759.2762   -23144.066   -25070.589    1926.5239    1.1610133    30.985945    30.985945    30.985945    29750.497 
 2939000    297.74042   -2075.1869   -23269.366   -25139.344    1869.9786    1.1610133    30.985945    30.985945    30.985945    29750.497 
 2940000    295.37243   -2656.6199   -23278.892   -25133.998    1855.1063    1.1610133    30.985945    30.985945    30.985945    29750.497 
 2941000    297.16364    -2927.766   -23286.431   -25152.787    1866.3561    1.1610133    30.985945    30.985945    30.985945    29750.497 
 2942000    302.35215   -2360.0878   -23238.028   -25136.971    1898.9429    1.1610133    30.985945    30.985945    30.985945    29750.497 
 2943000    293.24799   -1532.3433    -23299.59   -25141.354    1841.7636    1.1610133    30.985945    30.985945    30.985945    29750.497 
 2944000    295.69371   -1902.9212   -23236.887   -25094.011    1857.1241    1.1610133    30.985945    30.985945    30.985945    29750.497 
 2945000    305.19758    -2085.306   -23120.856    -25037.67    1916.8138    1.1610133    30.985945    30.985945    30.985945    29750.497 
 2946000    297.28807   -3404.2199   -23187.276   -25054.414    1867.1376    1.1610133    30.985945    30.985945    30.985945    29750.497 
 2947000    301.95528   -2613.4303   -23167.775   -25064.225    1896.4503    1.1610133    30.985945    30.985945    30.985945    29750.497 
 2948000    295.78178   -2948.2169   -23187.374   -25045.051    1857.6772    1.1610133    30.985945    30.985945    30.985945    29750.497 
 2949000    299.56699   -3060.3304   -23222.746   -25104.197    1881.4505    1.1610133    30.985945    30.985945    30.985945    29750.497 
 2950000    292.49031   -2442.2708   -23237.603   -25074.608    1837.0049    1.1610133    30.985945    30.985945    30.985945    29750.497 
 2951000    301.68204   -1151.8189   -23208.288   -25103.022    1894.7342    1.1610133    30.985945    30.985945    30.985945    29750.497 
 2952000    293.78037   -2058.5392    -23249.76   -25094.867    1845.1072    1.1610133    30.985945    30.985945    30.985945    29750.497 
 2953000    289.38369   -2051.6101   -23225.145   -25042.638    1817.4936    1.1610133    30.985945    30.985945    30.985945    29750.497 
 2954000    307.66106   -2123.6701   -23166.802   -25099.088    1932.2858    1.1610133    30.985945    30.985945    30.985945    29750.497 
 2955000    306.22889   -3030.4351   -23180.963   -25104.254     1923.291    1.1610133    30.985945    30.985945    30.985945    29750.497 
 2956000    307.50082   -2009.5943    -23067.04   -24998.319    1931.2794    1.1610133    30.985945    30.985945    30.985945    29750.497 
 2957000    301.48653   -3298.9746   -23151.542   -25045.048    1893.5063    1.1610133    30.985945    30.985945    30.985945    29750.497 
 2958000    294.08154   -2176.9217   -23179.695   -25026.694    1846.9988    1.1610133    30.985945    30.985945    30.985945    29750.497 
 2959000    299.37819   -2547.1466   -23191.037   -25071.301    1880.2647    1.1610133    30.985945    30.985945    30.985945    29750.497 
 2960000    305.23076   -1669.8903   -23148.807   -25065.829    1917.0222    1.1610133    30.985945    30.985945    30.985945    29750.497 
 2961000     300.0238   -2034.7726   -23178.177   -25062.496    1884.3195    1.1610133    30.985945    30.985945    30.985945    29750.497 
 2962000    304.32791   -1330.2978   -23161.435   -25072.787    1911.3517    1.1610133    30.985945    30.985945    30.985945    29750.497 
 2963000    309.80751   -1651.2568   -23108.257   -25054.024    1945.7668    1.1610133    30.985945    30.985945    30.985945    29750.497 
 2964000    296.43756   -1576.8402   -23265.259   -25127.055    1861.7959    1.1610133    30.985945    30.985945    30.985945    29750.497 
 2965000    311.71159   -2206.7384   -23153.307   -25111.033    1957.7255    1.1610133    30.985945    30.985945    30.985945    29750.497 
 2966000    288.92189   -2746.3168   -23301.794   -25116.387    1814.5932    1.1610133    30.985945    30.985945    30.985945    29750.497 
 2967000    296.58844   -2300.1594   -23203.793   -25066.536    1862.7435    1.1610133    30.985945    30.985945    30.985945    29750.497 
 2968000    296.39977   -2744.2286   -23146.212   -25007.771    1861.5585    1.1610133    30.985945    30.985945    30.985945    29750.497 
 2969000    295.88363   -2861.4073   -23315.183     -25173.5    1858.3169    1.1610133    30.985945    30.985945    30.985945    29750.497 
 2970000    299.89506    -3528.051   -23187.827   -25071.338    1883.5109    1.1610133    30.985945    30.985945    30.985945    29750.497 
 2971000    296.45744   -2681.9271   -23209.535   -25071.456    1861.9207    1.1610133    30.985945    30.985945    30.985945    29750.497 
 2972000    290.76333   -3374.4457   -23336.524   -25162.683    1826.1585    1.1610133    30.985945    30.985945    30.985945    29750.497 
 2973000    298.01172   -3022.5055   -23230.587   -25102.269    1871.6825    1.1610133    30.985945    30.985945    30.985945    29750.497 
 2974000    300.42955   -3163.0577   -23253.763   -25140.631    1886.8678    1.1610133    30.985945    30.985945    30.985945    29750.497 
 2975000    315.33537    -2827.533   -23103.828   -25084.313    1980.4849    1.1610133    30.985945    30.985945    30.985945    29750.497 
 2976000    301.86013   -1305.4832   -23174.602   -25070.455    1895.8527    1.1610133    30.985945    30.985945    30.985945    29750.497 
 2977000    302.49622   -2965.2469   -23144.193    -25044.04    1899.8477    1.1610133    30.985945    30.985945    30.985945    29750.497 
 2978000     305.7925   -3187.6544   -23172.083   -25092.633    1920.5502    1.1610133    30.985945    30.985945    30.985945    29750.497 
 2979000    296.10584   -2434.5366   -23168.423   -25028.136    1859.7125    1.1610133    30.985945    30.985945    30.985945    29750.497 
 2980000    296.70785   -2960.8096   -23162.849   -25026.342    1863.4935    1.1610133    30.985945    30.985945    30.985945    29750.497 
 2981000    301.90293   -1959.1776   -23128.982   -25025.104    1896.1215    1.1610133    30.985945    30.985945    30.985945    29750.497 
 2982000    302.64697   -1898.9891     -23150.9   -25051.695    1900.7945    1.1610133    30.985945    30.985945    30.985945    29750.497 
 2983000    295.00253   -3257.9565   -23156.356   -25009.139    1852.7831    1.1610133    30.985945    30.985945    30.985945    29750.497 
 2984000    301.03954   -1228.3149   -23130.295   -25020.994     1890.699    1.1610133    30.985945    30.985945    30.985945    29750.497 
 2985000    293.83846   -1919.4034   -23174.992   -25020.464    1845.4721    1.1610133    30.985945    30.985945    30.985945    29750.497 
 2986000    299.46979   -1982.3327   -23102.391   -24983.231      1880.84    1.1610133    30.985945    30.985945    30.985945    29750.497 
 2987000    298.54565     -1783.02   -23078.197   -24953.233    1875.0359    1.1610133    30.985945    30.985945    30.985945    29750.497 
 2988000     297.9294   -2376.6337   -23130.811   -25001.977    1871.1655    1.1610133    30.985945    30.985945    30.985945    29750.497 
 2989000    302.35003   -2572.7491   -23093.698   -24992.628    1898.9295    1.1610133    30.985945    30.985945    30.985945    29750.497 
 2990000    296.75569   -2105.4713   -23136.063   -24999.857    1863.7939    1.1610133    30.985945    30.985945    30.985945    29750.497 
 2991000     303.4648   -1216.7965   -23179.698   -25085.629     1905.931    1.1610133    30.985945    30.985945    30.985945    29750.497 
 2992000    313.38351   -2287.6551   -23039.619   -25007.845     1968.226    1.1610133    30.985945    30.985945    30.985945    29750.497 
 2993000    298.07453   -3018.0138   -23080.487   -24952.564     1872.077    1.1610133    30.985945    30.985945    30.985945    29750.497 
 2994000    295.92334   -3211.6222   -23147.786   -25006.353    1858.5663    1.1610133    30.985945    30.985945    30.985945    29750.497 
 2995000    298.55842   -2589.6478   -23159.915   -25035.031    1875.1161    1.1610133    30.985945    30.985945    30.985945    29750.497 
 2996000    295.66959   -1859.4095   -23173.884   -25030.857    1856.9726    1.1610133    30.985945    30.985945    30.985945    29750.497 
 2997000    300.70385    -2640.115   -23133.732   -25022.322    1888.5906    1.1610133    30.985945    30.985945    30.985945    29750.497 
 2998000       297.44   -1833.8501   -23251.773   -25119.865    1868.0918    1.1610133    30.985945    30.985945    30.985945    29750.497 
 2999000    298.71512   -2679.4236   -23237.184   -25113.284    1876.1002    1.1610133    30.985945    30.985945    30.985945    29750.497 
 3000000    299.22077    -2852.838   -23174.246   -25053.522     1879.276    1.1610133    30.985945    30.985945    30.985945    29750.497 
 3001000    292.18392   -2491.0503   -23262.636   -25097.717    1835.0806    1.1610133    30.985945    30.985945    30.985945    29750.497 
 3002000    294.81457   -1913.1069   -23215.049   -25066.652    1851.6026    1.1610133    30.985945    30.985945    30.985945    29750.497 
 3003000    295.77419   -1561.2241   -23257.834   -25115.463    1857.6296    1.1610133    30.985945    30.985945    30.985945    29750.497 
 3004000    301.11024   -2198.9309    -23205.57   -25096.713     1891.143    1.1610133    30.985945    30.985945    30.985945    29750.497 
 3005000    300.39266   -2595.3478   -23198.503   -25085.139    1886.6361    1.1610133    30.985945    30.985945    30.985945    29750.497 
 3006000    300.89653   -2464.9864   -23209.694   -25099.495    1889.8007    1.1610133    30.985945    30.985945    30.985945    29750.497 
 3007000    303.96708   -2393.9434   -23186.102   -25095.188    1909.0856    1.1610133    30.985945    30.985945    30.985945    29750.497 
 3008000    299.76415   -3012.1509   -23223.453   -25106.142    1882.6888    1.1610133    30.985945    30.985945    30.985945    29750.497 
 3009000    307.95012    -2970.896   -23141.705   -25075.807    1934.1013    1.1610133    30.985945    30.985945    30.985945    29750.497 
 3010000    300.12487   -2858.8891   -23190.151   -25075.105    1884.9543    1.1610133    30.985945    30.985945    30.985945    29750.497 
 3011000    303.46801   -2514.1491   -23156.159    -25062.11    1905.9511    1.1610133    30.985945    30.985945    30.985945    29750.497 
 3012000    303.64893   -2746.5929   -23140.382   -25047.469    1907.0874    1.1610133    30.985945    30.985945    30.985945    29750.497 
 3013000     297.3924    -2816.196   -23263.386   -25131.179    1867.7928    1.1610133    30.985945    30.985945    30.985945    29750.497 
 3014000    294.27931   -3251.1149   -23260.826   -25109.067    1848.2408    1.1610133    30.985945    30.985945    30.985945    29750.497 
 3015000    295.61224    -1617.482   -23323.866   -25180.478    1856.6124    1.1610133    30.985945    30.985945    30.985945    29750.497 
 3016000    290.71117   -1892.1015   -23253.106   -25078.937    1825.8309    1.1610133    30.985945    30.985945    30.985945    29750.497 
 3017000    297.46997   -1964.9445   -23336.955   -25205.235      1868.28    1.1610133    30.985945    30.985945    30.985945    29750.497 
 3018000     296.6449   -3109.6621   -23291.069   -25154.167    1863.0981    1.1610133    30.985945    30.985945    30.985945    29750.497 
 3019000    304.32082   -2118.8313   -23217.216   -25128.523    1911.3072    1.1610133    30.985945    30.985945    30.985945    29750.497 
 3020000    302.16989    -2196.492   -23262.486   -25160.284    1897.7982    1.1610133    30.985945    30.985945    30.985945    29750.497 
 3021000      299.348   -1753.3977   -23287.775    -25167.85    1880.0751    1.1610133    30.985945    30.985945    30.985945    29750.497 
 3022000     299.1021   -1810.7519   -23251.792   -25130.323    1878.5307    1.1610133    30.985945    30.985945    30.985945    29750.497 
 3023000    302.00077   -2192.8674    -23235.35   -25132.086     1896.736    1.1610133    30.985945    30.985945    30.985945    29750.497 
 3024000    302.32071   -2758.5038   -23295.393   -25194.138    1898.7454    1.1610133    30.985945    30.985945    30.985945    29750.497 
 3025000    305.59972   -1421.9822   -23141.468   -25060.808    1919.3394    1.1610133    30.985945    30.985945    30.985945    29750.497 
 3026000    295.57945   -3006.3258   -23180.793   -25037.199    1856.4065    1.1610133    30.985945    30.985945    30.985945    29750.497 
 3027000    299.84277   -1783.8918   -23253.122   -25136.304    1883.1825    1.1610133    30.985945    30.985945    30.985945    29750.497 
 3028000    296.77316   -2744.6957   -23174.019   -25037.923    1863.9037    1.1610133    30.985945    30.985945    30.985945    29750.497 
 3029000    299.64011   -3151.7008   -23144.413   -25026.323    1881.9097    1.1610133    30.985945    30.985945    30.985945    29750.497 
 3030000    296.00767    -2745.562   -23252.224    -25111.32    1859.0959    1.1610133    30.985945    30.985945    30.985945    29750.497 
 3031000    300.33653    -2392.217   -23197.938   -25084.221    1886.2836    1.1610133    30.985945    30.985945    30.985945    29750.497 
 3032000    299.74256   -2261.2178   -23273.993   -25156.546    1882.5532    1.1610133    30.985945    30.985945    30.985945    29750.497 
 3033000    307.07642   -2214.2448   -23122.425   -25051.039    1928.6139    1.1610133    30.985945    30.985945    30.985945    29750.497 
 3034000    286.35762   -2576.5391   -23358.766   -25157.254    1798.4881    1.1610133    30.985945    30.985945    30.985945    29750.497 
 3035000    295.71826   -3477.1281   -23300.169   -25157.448    1857.2783    1.1610133    30.985945    30.985945    30.985945    29750.497 
 3036000    295.06125   -2749.5968   -23232.563   -25085.715    1853.1519    1.1610133    30.985945    30.985945    30.985945    29750.497 
 3037000    304.23276   -2130.1654   -23238.901   -25149.655    1910.7542    1.1610133    30.985945    30.985945    30.985945    29750.497 
 3038000    300.39131    -2622.286   -23247.701   -25134.328    1886.6277    1.1610133    30.985945    30.985945    30.985945    29750.497 
 3039000    311.01725    -2215.249   -23165.973   -25119.338    1953.3646    1.1610133    30.985945    30.985945    30.985945    29750.497 
 3040000    302.12827    -2370.172   -23210.921   -25108.458    1897.5368    1.1610133    30.985945    30.985945    30.985945    29750.497 
 3041000    299.88377   -2294.8567   -23140.685   -25024.125      1883.44    1.1610133    30.985945    30.985945    30.985945    29750.497 
 3042000    298.79968    -2510.546    -23138.91   -25015.541    1876.6314    1.1610133    30.985945    30.985945    30.985945    29750.497 
 3043000    304.86081   -1843.7158   -23159.502     -25074.2    1914.6987    1.1610133    30.985945    30.985945    30.985945    29750.497 
 3044000    303.95907   -2377.7212   -23169.437   -25078.472    1909.0352    1.1610133    30.985945    30.985945    30.985945    29750.497 
 3045000    296.67492   -1981.9209   -23135.339   -24998.626    1863.2866    1.1610133    30.985945    30.985945    30.985945    29750.497 
 3046000    306.77733   -1938.6617   -23145.719   -25072.455    1926.7355    1.1610133    30.985945    30.985945    30.985945    29750.497 
 3047000    299.58105   -2772.5963   -23185.531   -25067.069    1881.5388    1.1610133    30.985945    30.985945    30.985945    29750.497 
 3048000    303.01679   -2415.0393   -23167.784   -25070.901    1903.1172    1.1610133    30.985945    30.985945    30.985945    29750.497 
 3049000     294.9249    -2305.941   -23231.372   -25083.667    1852.2955    1.1610133    30.985945    30.985945    30.985945    29750.497 
 3050000    308.73057   -1801.5206   -23221.902   -25160.905    1939.0029    1.1610133    30.985945    30.985945    30.985945    29750.497 
 3051000    297.30808   -2089.5691     -23213.3   -25080.563    1867.2633    1.1610133    30.985945    30.985945    30.985945    29750.497 
 3052000    307.01827   -2303.4082   -23096.337   -25024.586    1928.2487    1.1610133    30.985945    30.985945    30.985945    29750.497 
 3053000    293.67154   -2671.5678   -23262.328   -25106.752    1844.4237    1.1610133    30.985945    30.985945    30.985945    29750.497 
 3054000    296.74929   -1879.9617   -23238.388   -25102.142    1863.7537    1.1610133    30.985945    30.985945    30.985945    29750.497 
 3055000    296.53941   -2763.8295   -23240.583   -25103.019    1862.4356    1.1610133    30.985945    30.985945    30.985945    29750.497 
 3056000    304.89772   -2719.8057   -23188.467   -25103.397    1914.9305    1.1610133    30.985945    30.985945    30.985945    29750.497 
 3057000    303.09994   -1677.0923   -23195.341    -25098.98    1903.6394    1.1610133    30.985945    30.985945    30.985945    29750.497 
 3058000    297.59281   -2291.5156    -23246.77   -25115.821    1869.0515    1.1610133    30.985945    30.985945    30.985945    29750.497 
 3059000    293.07029   -1500.6995    -23256.66   -25097.307    1840.6476    1.1610133    30.985945    30.985945    30.985945    29750.497 
 3060000    304.76251   -1899.6327   -23144.571   -25058.653    1914.0813    1.1610133    30.985945    30.985945    30.985945    29750.497 
 3061000    302.13978   -2228.2306   -23203.541    -25101.15    1897.6091    1.1610133    30.985945    30.985945    30.985945    29750.497 
 3062000    308.41621   -2018.1373   -23153.464   -25090.492    1937.0286    1.1610133    30.985945    30.985945    30.985945    29750.497 
 3063000     297.7575   -2386.1147   -23183.183   -25053.269    1870.0858    1.1610133    30.985945    30.985945    30.985945    29750.497 
 3064000    297.03843   -2780.0801   -23104.522   -24970.092    1865.5697    1.1610133    30.985945    30.985945    30.985945    29750.497 
 3065000    301.30152   -1701.8486   -23184.379   -25076.723    1892.3443    1.1610133    30.985945    30.985945    30.985945    29750.497 
 3066000    299.11268   -2314.4393   -23171.579   -25050.176    1878.5972    1.1610133    30.985945    30.985945    30.985945    29750.497 
 3067000    308.58371   -1916.4201   -23037.555   -24975.636    1938.0806    1.1610133    30.985945    30.985945    30.985945    29750.497 
 3068000    294.82664   -2663.7619   -23217.239   -25068.917    1851.6784    1.1610133    30.985945    30.985945    30.985945    29750.497 
 3069000    303.42226   -2471.9529   -23247.666   -25153.329    1905.6638    1.1610133    30.985945    30.985945    30.985945    29750.497 
 3070000    292.23867   -2721.3222   -23239.846   -25075.271    1835.4245    1.1610133    30.985945    30.985945    30.985945    29750.497 
 3071000    300.84375    -1855.959   -23186.268   -25075.737    1889.4692    1.1610133    30.985945    30.985945    30.985945    29750.497 
 3072000    293.35803   -1182.0567   -23179.715    -25022.17    1842.4547    1.1610133    30.985945    30.985945    30.985945    29750.497 
 3073000    310.05174   -2653.9603   -23137.229    -25084.53    1947.3007    1.1610133    30.985945    30.985945    30.985945    29750.497 
 3074000    297.05253   -2242.8393   -23113.067   -24978.725    1865.6582    1.1610133    30.985945    30.985945    30.985945    29750.497 
 3075000    311.05329   -2588.2853   -23079.765   -25033.356     1953.591    1.1610133    30.985945    30.985945    30.985945    29750.497 
 3076000    295.44053   -2781.9499   -23191.955   -25047.489     1855.534    1.1610133    30.985945    30.985945    30.985945    29750.497 
 3077000     298.5663   -2097.7496   -23176.172   -25051.338    1875.1656    1.1610133    30.985945    30.985945    30.985945    29750.497 
 3078000    303.73638   -2597.1751   -23219.639   -25127.275    1907.6366    1.1610133    30.985945    30.985945    30.985945    29750.497 
 3079000    294.23884   -2690.2932   -23176.944    -25024.93    1847.9867    1.1610133    30.985945    30.985945    30.985945    29750.497 
 3080000     302.7537   -3549.2441   -23163.295    -25064.76    1901.4648    1.1610133    30.985945    30.985945    30.985945    29750.497 
 3081000      295.941   -3206.1465   -23128.791   -24987.468    1858.6772    1.1610133    30.985945    30.985945    30.985945    29750.497 
 3082000    301.19285   -2614.1329   -23182.959   -25074.621    1891.6618    1.1610133    30.985945    30.985945    30.985945    29750.497 
 3083000    301.50114   -2264.3128   -23145.405   -25039.003    1893.5981    1.1610133    30.985945    30.985945    30.985945    29750.497 
 3084000    295.04458   -1946.1883   -23309.636   -25162.683    1853.0472    1.1610133    30.985945    30.985945    30.985945    29750.497 
 3085000     296.3686   -2380.6115   -23233.339   -25094.702    1861.3628    1.1610133    30.985945    30.985945    30.985945    29750.497 
 3086000    301.62749   -1792.4996   -23165.649   -25060.041    1894.3916    1.1610133    30.985945    30.985945    30.985945    29750.497 
 3087000    300.84929   -2710.1423   -23273.845   -25163.349    1889.5041    1.1610133    30.985945    30.985945    30.985945    29750.497 
 3088000    295.18362   -3099.8035   -23260.178   -25114.099    1853.9204    1.1610133    30.985945    30.985945    30.985945    29750.497 
 3089000    307.66167   -2784.0362   -23111.163   -25043.453    1932.2897    1.1610133    30.985945    30.985945    30.985945    29750.497 
 3090000    302.76346    -2733.044   -23123.132   -25024.658    1901.5261    1.1610133    30.985945    30.985945    30.985945    29750.497 
 3091000    307.08777   -2432.0673   -23110.062   -25038.747    1928.6852    1.1610133    30.985945    30.985945    30.985945    29750.497 
 3092000    296.31553   -3034.1613   -23224.017   -25085.046    1861.0295    1.1610133    30.985945    30.985945    30.985945    29750.497 
 3093000    288.52155   -3387.0847    -23272.88   -25084.959    1812.0789    1.1610133    30.985945    30.985945    30.985945    29750.497 
 3094000    298.47955   -1714.0673   -23233.511   -25108.132    1874.6208    1.1610133    30.985945    30.985945    30.985945    29750.497 
 3095000    305.14524   -1950.0549   -23231.741   -25148.226    1916.4851    1.1610133    30.985945    30.985945    30.985945    29750.497 
 3096000    297.18467   -2418.0412   -23218.098   -25084.586    1866.4881    1.1610133    30.985945    30.985945    30.985945    29750.497 
 3097000    297.17848   -2803.5238   -23134.801    -25001.25    1866.4493    1.1610133    30.985945    30.985945    30.985945    29750.497 
 3098000    303.28604   -2278.1135   -23125.742    -25030.55    1904.8082    1.1610133    30.985945    30.985945    30.985945    29750.497 
 3099000    293.36969   -2175.4444   -23191.771   -25034.299    1842.5279    1.1610133    30.985945    30.985945    30.985945    29750.497 
 3100000    301.55978   -2974.0373   -23188.375   -25082.341    1893.9664    1.1610133    30.985945    30.985945    30.985945    29750.497 
 3101000    303.88032   -2356.0915   -23305.513   -25214.054    1908.5406    1.1610133    30.985945    30.985945    30.985945    29750.497 
 3102000    289.05613   -3025.5074   -23353.327   -25168.763    1815.4363    1.1610133    30.985945    30.985945    30.985945    29750.497 
 3103000    299.26531   -1600.7598   -23227.391   -25106.947    1879.5558    1.1610133    30.985945    30.985945    30.985945    29750.497 
 3104000    300.00536   -2383.9754   -23130.562   -25014.766    1884.2037    1.1610133    30.985945    30.985945    30.985945    29750.497 
 3105000    312.37693   -2445.5834   -23135.284   -25097.188    1961.9041    1.1610133    30.985945    30.985945    30.985945    29750.497 
 3106000     296.1169   -1841.9237   -23294.427   -25154.209    1859.7819    1.1610133    30.985945    30.985945    30.985945    29750.497 
 3107000    296.47887   -2096.5816    -23282.04   -25144.095    1862.0553    1.1610133    30.985945    30.985945    30.985945    29750.497 
 3108000    303.36475   -1655.9042   -23199.611   -25104.914    1905.3026    1.1610133    30.985945    30.985945    30.985945    29750.497 
 3109000    301.63153   -2475.6922   -23237.109   -25131.526    1894.4169    1.1610133    30.985945    30.985945    30.985945    29750.497 
 3110000    298.12166   -2758.5749   -23257.172   -25129.545     1872.373    1.1610133    30.985945    30.985945    30.985945    29750.497 
 3111000    294.85378   -2947.4889   -23255.505   -25107.354    1851.8488    1.1610133    30.985945    30.985945    30.985945    29750.497 
 3112000    300.83668   -1844.6904   -23115.127   -25004.552    1889.4249    1.1610133    30.985945    30.985945    30.985945    29750.497 
 3113000    299.00627   -2546.3625   -23201.195   -25079.124    1877.9288    1.1610133    30.985945    30.985945    30.985945    29750.497 
 3114000     288.9492   -2525.8739   -23246.134   -25060.899    1814.7648    1.1610133    30.985945    30.985945    30.985945    29750.497 
 3115000    301.52369   -2501.3856   -23228.184   -25121.924    1893.7396    1.1610133    30.985945    30.985945    30.985945    29750.497 
 3116000    303.62797    -2514.029   -23156.108   -25063.064    1906.9557    1.1610133    30.985945    30.985945    30.985945    29750.497 
 3117000    301.14135   -1123.9828   -23224.212    -25115.55    1891.3384    1.1610133    30.985945    30.985945    30.985945    29750.497 
 3118000    294.93483   -2870.8347   -23164.992    -25017.35    1852.3579    1.1610133    30.985945    30.985945    30.985945    29750.497 
 3119000     298.1991   -1768.8305   -23179.175   -25052.034    1872.8594    1.1610133    30.985945    30.985945    30.985945    29750.497 
 3120000    302.47755    -3360.042   -23221.566   -25121.297    1899.7304    1.1610133    30.985945    30.985945    30.985945    29750.497 
 3121000    288.92458   -2814.9604   -23223.806   -25038.417    1814.6101    1.1610133    30.985945    30.985945    30.985945    29750.497 
 3122000    294.37017   -2844.9509   -23221.106   -25069.917    1848.8115    1.1610133    30.985945    30.985945    30.985945    29750.497 
 3123000    298.28142   -2323.5458   -23229.451   -25102.827    1873.3764    1.1610133    30.985945    30.985945    30.985945    29750.497 
 3124000    297.12187   -2231.9165   -23229.408   -25095.502    1866.0937    1.1610133    30.985945    30.985945    30.985945    29750.497 
 3125000    301.91344   -2718.2296   -23199.325   -25095.512    1896.1875    1.1610133    30.985945    30.985945    30.985945    29750.497 
 3126000    296.39397   -2318.7046   -23156.522   -25018.044    1861.5221    1.1610133    30.985945    30.985945    30.985945    29750.497 
 3127000    302.48312     -2550.73   -23236.695   -25136.461    1899.7654    1.1610133    30.985945    30.985945    30.985945    29750.497 
 3128000    294.21439   -1659.5293    -23284.22   -25132.053    1847.8331    1.1610133    30.985945    30.985945    30.985945    29750.497 
 3129000    289.67255   -1631.2261   -23292.325   -25111.633    1819.3078    1.1610133    30.985945    30.985945    30.985945    29750.497 
 3130000    304.53114   -1991.2744    -23172.13   -25084.758    1912.6281    1.1610133    30.985945    30.985945    30.985945    29750.497 
 3131000    293.29908   -1195.3645   -23161.335   -25003.419    1842.0845    1.1610133    30.985945    30.985945    30.985945    29750.497 
 3132000    295.70413    -2152.843   -23208.124   -25065.314    1857.1895    1.1610133    30.985945    30.985945    30.985945    29750.497 
 3133000    298.61131   -1941.3982   -23135.541    -25010.99    1875.4483    1.1610133    30.985945    30.985945    30.985945    29750.497 
 3134000    295.64869   -2725.9778   -23173.731   -25030.572    1856.8413    1.1610133    30.985945    30.985945    30.985945    29750.497 
 3135000    300.81153   -911.37451   -23154.977   -25044.244    1889.2669    1.1610133    30.985945    30.985945    30.985945    29750.497 
 3136000    293.84802    -1177.551   -23209.949   -25055.481    1845.5321    1.1610133    30.985945    30.985945    30.985945    29750.497 
 3137000     298.5689   -2973.7418   -23132.199   -25007.381    1875.1819    1.1610133    30.985945    30.985945    30.985945    29750.497 
 3138000    301.66448   -3299.4973    -23187.14   -25081.764    1894.6239    1.1610133    30.985945    30.985945    30.985945    29750.497 
 3139000    300.97253   -2952.2425   -23198.986   -25089.264    1890.2781    1.1610133    30.985945    30.985945    30.985945    29750.497 
 3140000    299.21274   -1836.6456   -23166.211   -25045.437    1879.2256    1.1610133    30.985945    30.985945    30.985945    29750.497 
 3141000    302.89894   -1783.0033   -23185.724   -25088.101     1902.377    1.1610133    30.985945    30.985945    30.985945    29750.497 
 3142000    293.13479   -1971.2583   -23155.161   -24996.214    1841.0526    1.1610133    30.985945    30.985945    30.985945    29750.497 
 3143000    290.82855   -2389.5059   -23233.759   -25060.327    1826.5682    1.1610133    30.985945    30.985945    30.985945    29750.497 
 3144000     302.5455   -2934.4415   -23181.839   -25081.996    1900.1572    1.1610133    30.985945    30.985945    30.985945    29750.497 
 3145000    300.58352   -3157.3166   -23224.232   -25112.067    1887.8349    1.1610133    30.985945    30.985945    30.985945    29750.497 
 3146000    291.76189   -3241.1597   -23243.631   -25076.061      1832.43    1.1610133    30.985945    30.985945    30.985945    29750.497 
 3147000    304.21235   -3183.2814   -23321.783   -25232.409     1910.626    1.1610133    30.985945    30.985945    30.985945    29750.497 
 3148000    295.80286   -1294.4742   -23283.121   -25140.931    1857.8096    1.1610133    30.985945    30.985945    30.985945    29750.497 
 3149000    295.48487   -2933.5744   -23267.884   -25123.696    1855.8125    1.1610133    30.985945    30.985945    30.985945    29750.497 
 3150000    297.64543   -2884.9441   -23210.668    -25080.05     1869.382    1.1610133    30.985945    30.985945    30.985945    29750.497 
 3151000    296.86844   -3061.0214   -23205.773   -25070.275     1864.502    1.1610133    30.985945    30.985945    30.985945    29750.497 
 3152000    290.39558   -2175.6704   -23220.751   -25044.599    1823.8488    1.1610133    30.985945    30.985945    30.985945    29750.497 
 3153000    302.50113   -2429.2184   -23210.493   -25110.372    1899.8786    1.1610133    30.985945    30.985945    30.985945    29750.497 
 3154000    306.47093   -2765.7701   -23122.704   -25047.515    1924.8112    1.1610133    30.985945    30.985945    30.985945    29750.497 
 3155000    290.12776   -2878.9983   -23219.992   -25042.159    1822.1668    1.1610133    30.985945    30.985945    30.985945    29750.497 
 3156000    291.02743   -1938.5554   -23277.986   -25105.803    1827.8172    1.1610133    30.985945    30.985945    30.985945    29750.497 
 3157000    297.63278   -1961.0149   -23224.484   -25093.787    1869.3026    1.1610133    30.985945    30.985945    30.985945    29750.497 
 3158000    296.89623   -2663.3444   -23330.261   -25194.937    1864.6766    1.1610133    30.985945    30.985945    30.985945    29750.497 
 3159000    303.85279   -1960.5857   -23188.283    -25096.65    1908.3678    1.1610133    30.985945    30.985945    30.985945    29750.497 
 3160000    301.44101   -3098.0499   -23226.313   -25119.533    1893.2204    1.1610133    30.985945    30.985945    30.985945    29750.497 
 3161000    304.28436   -2724.1872   -23192.771   -25103.849    1911.0782    1.1610133    30.985945    30.985945    30.985945    29750.497 
 3162000    303.63636   -2654.7793   -23114.295   -25021.304    1907.0084    1.1610133    30.985945    30.985945    30.985945    29750.497 
 3163000    299.75083   -1919.1206   -23193.472   -25076.078    1882.6051    1.1610133    30.985945    30.985945    30.985945    29750.497 
 3164000    297.50682   -2907.1708   -23164.157   -25032.669    1868.5114    1.1610133    30.985945    30.985945    30.985945    29750.497 
 3165000    301.16077   -3113.9854   -23215.135   -25106.595    1891.4603    1.1610133    30.985945    30.985945    30.985945    29750.497 
 3166000    289.88521   -2895.5349   -23301.959   -25122.602    1820.6434    1.1610133    30.985945    30.985945    30.985945    29750.497 
 3167000    303.04167   -2750.3821   -23176.106    -25079.38    1903.2735    1.1610133    30.985945    30.985945    30.985945    29750.497 
 3168000    297.51355     -3108.64   -23175.398   -25043.952    1868.5537    1.1610133    30.985945    30.985945    30.985945    29750.497 
 3169000    285.51295   -2504.0067   -23273.676    -25066.86    1793.1831    1.1610133    30.985945    30.985945    30.985945    29750.497 
 3170000    299.21887   -1076.4816   -23081.192   -24960.456    1879.2641    1.1610133    30.985945    30.985945    30.985945    29750.497 
 3171000     304.2368   -1261.4571   -23064.434   -24975.214    1910.7796    1.1610133    30.985945    30.985945    30.985945    29750.497 
 3172000    303.12897   -2084.7652   -23038.185   -24942.007    1903.8218    1.1610133    30.985945    30.985945    30.985945    29750.497 
 3173000    302.00652    -2070.311   -23174.395   -25071.167    1896.7721    1.1610133    30.985945    30.985945    30.985945    29750.497 
 3174000    304.42596   -2622.8462   -23071.856   -24983.824    1911.9675    1.1610133    30.985945    30.985945    30.985945    29750.497 
 3175000    303.48736   -2231.6005   -23086.812   -24992.884    1906.0726    1.1610133    30.985945    30.985945    30.985945    29750.497 
 3176000    303.28251   -1803.5303   -23127.238   -25032.024     1904.786    1.1610133    30.985945    30.985945    30.985945    29750.497 
 3177000    296.44453   -2183.4078   -23186.096   -25047.935    1861.8397    1.1610133    30.985945    30.985945    30.985945    29750.497 
 3178000    295.00063    -2438.582   -23168.416   -25021.187    1852.7711    1.1610133    30.985945    30.985945    30.985945    29750.497 
 3179000    302.64823   -2245.8481   -23141.188    -25041.99    1900.8024    1.1610133    30.985945    30.985945    30.985945    29750.497 
 3180000    299.22192    -2065.577   -23166.552   -25045.835    1879.2832    1.1610133    30.985945    30.985945    30.985945    29750.497 
 3181000    299.51942   -2594.0963     -23091.6   -24972.752    1881.1517    1.1610133    30.985945    30.985945    30.985945    29750.497 
 3182000    297.32149   -2309.9391   -23159.653       -25027    1867.3475    1.1610133    30.985945    30.985945    30.985945    29750.497 
 3183000    301.79067   -3146.1797   -23111.683   -25007.099    1895.4165    1.1610133    30.985945    30.985945    30.985945    29750.497 
 3184000    298.74847   -2961.0083   -23149.396   -25025.706    1876.3097    1.1610133    30.985945    30.985945    30.985945    29750.497 
 3185000    299.09479   -2682.2137   -23223.497   -25101.982    1878.4848    1.1610133    30.985945    30.985945    30.985945    29750.497 
 3186000    303.67712   -2969.5794   -23258.788   -25166.052    1907.2644    1.1610133    30.985945    30.985945    30.985945    29750.497 
 3187000      296.178   -2652.5716   -23231.282   -25091.448    1860.1657    1.1610133    30.985945    30.985945    30.985945    29750.497 
 3188000    307.72156   -2965.6651   -23107.829   -25040.495    1932.6658    1.1610133    30.985945    30.985945    30.985945    29750.497 
 3189000    308.11931   -2412.2637   -23201.339   -25136.503    1935.1639    1.1610133    30.985945    30.985945    30.985945    29750.497 
 3190000     303.6878   -1875.1369   -23221.977   -25129.308    1907.3315    1.1610133    30.985945    30.985945    30.985945    29750.497 
 3191000    299.65544   -1438.4891   -23207.208   -25089.214     1882.006    1.1610133    30.985945    30.985945    30.985945    29750.497 
 3192000    298.18041   -2694.9327   -23241.317   -25114.059     1872.742    1.1610133    30.985945    30.985945    30.985945    29750.497 
 3193000    294.62345   -1926.3346   -23202.034   -25052.437    1850.4023    1.1610133    30.985945    30.985945    30.985945    29750.497 
 3194000    298.45816   -2331.5826   -23195.044   -25069.531    1874.4864    1.1610133    30.985945    30.985945    30.985945    29750.497 
 3195000    292.84147   -1692.5216   -23233.066   -25072.276    1839.2104    1.1610133    30.985945    30.985945    30.985945    29750.497 
 3196000     296.1299   -2325.9564   -23228.443   -25088.307    1859.8636    1.1610133    30.985945    30.985945    30.985945    29750.497 
 3197000    295.26708   -1688.3546   -23190.449   -25044.894    1854.4446    1.1610133    30.985945    30.985945    30.985945    29750.497 
 3198000    296.41239   -2269.0327   -23280.271   -25141.909    1861.6378    1.1610133    30.985945    30.985945    30.985945    29750.497 
 3199000    294.13056   -1896.9389   -23253.707   -25101.014    1847.3066    1.1610133    30.985945    30.985945    30.985945    29750.497 
 3200000    289.84831   -2124.9351    -23273.82   -25094.231    1820.4117    1.1610133    30.985945    30.985945    30.985945    29750.497 
 3201000     309.0704   -2244.2333   -23224.531   -25165.668    1941.1373    1.1610133    30.985945    30.985945    30.985945    29750.497 
 3202000    296.10592   -2365.0159   -23222.777    -25082.49     1859.713    1.1610133    30.985945    30.985945    30.985945    29750.497 
 3203000    294.07564   -1844.4573   -23242.268    -25089.23    1846.9617    1.1610133    30.985945    30.985945    30.985945    29750.497 
 3204000    296.35902   -3078.1168   -23240.061   -25101.364    1861.3026    1.1610133    30.985945    30.985945    30.985945    29750.497 
 3205000    298.30384   -2835.1139   -23171.767   -25045.284    1873.5172    1.1610133    30.985945    30.985945    30.985945    29750.497 
 3206000    300.06574   -2690.6264   -23110.326   -24994.909    1884.5829    1.1610133    30.985945    30.985945    30.985945    29750.497 
 3207000     298.8037   -3449.9793   -23168.084    -25044.74    1876.6566    1.1610133    30.985945    30.985945    30.985945    29750.497 
 3208000    290.19415    -2626.146   -23279.311   -25101.895    1822.5838    1.1610133    30.985945    30.985945    30.985945    29750.497 
 3209000    299.35289   -2969.6223   -23267.682   -25147.788    1880.1058    1.1610133    30.985945    30.985945    30.985945    29750.497 
 3210000    301.25432   -2022.9998   -23094.905   -24986.953    1892.0479    1.1610133    30.985945    30.985945    30.985945    29750.497 
 3211000    295.96571   -2918.5866   -23313.429   -25172.261    1858.8324    1.1610133    30.985945    30.985945    30.985945    29750.497 
 3212000    304.19552   -1767.1716   -23187.177   -25097.697    1910.5203    1.1610133    30.985945    30.985945    30.985945    29750.497 
 3213000    296.46513   -2554.9056   -23276.816   -25138.785     1861.969    1.1610133    30.985945    30.985945    30.985945    29750.497 
 3214000    302.52839   -2098.0696   -23111.981   -25012.031    1900.0498    1.1610133    30.985945    30.985945    30.985945    29750.497 
 3215000     294.4662   -2134.8946   -23202.822   -25052.237    1849.4146    1.1610133    30.985945    30.985945    30.985945    29750.497 
 3216000    304.64234   -1651.4798   -23153.716   -25067.042    1913.3266    1.1610133    30.985945    30.985945    30.985945    29750.497 
 3217000     297.7468   -2263.1634   -23211.662    -25081.68    1870.0187    1.1610133    30.985945    30.985945    30.985945    29750.497 
 3218000    297.11302    -3088.641   -23198.728   -25064.766    1866.0382    1.1610133    30.985945    30.985945    30.985945    29750.497 
 3219000    298.61142   -3080.6756   -23204.686   -25080.135     1875.449    1.1610133    30.985945    30.985945    30.985945    29750.497 
 3220000    296.30278   -1845.7948   -23207.611    -25068.56    1860.9494    1.1610133    30.985945    30.985945    30.985945    29750.497 
 3221000    301.34719   -1508.8605   -23205.801   -25098.433    1892.6311    1.1610133    30.985945    30.985945    30.985945    29750.497 
 3222000    296.37308   -1441.7915   -23199.674   -25061.065    1861.3909    1.1610133    30.985945    30.985945    30.985945    29750.497 
 3223000    296.67216   -2556.4669   -23274.178   -25137.447    1863.2693    1.1610133    30.985945    30.985945    30.985945    29750.497 
 3224000    295.15956   -2373.5043   -23249.846   -25103.615    1853.7694    1.1610133    30.985945    30.985945    30.985945    29750.497 
 3225000     288.5303   -2527.4678   -23266.518   -25078.652    1812.1338    1.1610133    30.985945    30.985945    30.985945    29750.497 
 3226000    299.28137   -1908.0288   -23222.055   -25101.712    1879.6566    1.1610133    30.985945    30.985945    30.985945    29750.497 
 3227000    295.15816   -2478.9553   -23197.689    -25051.45    1853.7606    1.1610133    30.985945    30.985945    30.985945    29750.497 
 3228000    297.65569   -2511.0712   -23236.195   -25105.642    1869.4465    1.1610133    30.985945    30.985945    30.985945    29750.497 
 3229000     296.9453   -1774.7346   -23124.569   -24989.554    1864.9848    1.1610133    30.985945    30.985945    30.985945    29750.497 
 3230000    293.45933   -2163.0517   -23170.654   -25013.745    1843.0909    1.1610133    30.985945    30.985945    30.985945    29750.497 
 3231000    307.67893   -1841.7242   -23142.887   -25075.285    1932.3981    1.1610133    30.985945    30.985945    30.985945    29750.497 
 3232000    301.96775   -2396.1014    -23189.95   -25086.479    1896.5286    1.1610133    30.985945    30.985945    30.985945    29750.497 
 3233000     307.3476   -2930.4148   -23146.705   -25077.022    1930.3171    1.1610133    30.985945    30.985945    30.985945    29750.497 
 3234000    307.42108    -1474.918    -23176.94   -25107.719    1930.7786    1.1610133    30.985945    30.985945    30.985945    29750.497 
 3235000    303.49349   -2501.4109   -23192.006   -25098.117    1906.1111    1.1610133    30.985945    30.985945    30.985945    29750.497 
 3236000    300.95669    -2991.953   -23208.756   -25098.934    1890.1786    1.1610133    30.985945    30.985945    30.985945    29750.497 
 3237000     308.7817   -1601.4197   -23149.819   -25089.143    1939.3241    1.1610133    30.985945    30.985945    30.985945    29750.497 
 3238000    299.72374   -2235.5291   -23259.555    -25141.99     1882.435    1.1610133    30.985945    30.985945    30.985945    29750.497 
 3239000     301.3344   -1333.3402   -23224.276   -25116.827    1892.5508    1.1610133    30.985945    30.985945    30.985945    29750.497 
 3240000     298.3065   -1112.9751    -23344.72   -25218.254    1873.5339    1.1610133    30.985945    30.985945    30.985945    29750.497 
 3241000    300.74331   -2090.5404   -23147.651   -25036.489    1888.8384    1.1610133    30.985945    30.985945    30.985945    29750.497 
 3242000    305.68158   -2766.8756   -23243.219   -25163.073    1919.8536    1.1610133    30.985945    30.985945    30.985945    29750.497 
 3243000    298.34082   -2349.2113    -23227.57    -25101.32    1873.7495    1.1610133    30.985945    30.985945    30.985945    29750.497 
 3244000     295.8019   -2576.7347   -23223.763   -25081.567    1857.8036    1.1610133    30.985945    30.985945    30.985945    29750.497 
 3245000    309.30747   -2816.8513   -23213.494   -25156.121    1942.6262    1.1610133    30.985945    30.985945    30.985945    29750.497 
 3246000    293.12071   -2768.9427    -23306.58   -25147.544    1840.9642    1.1610133    30.985945    30.985945    30.985945    29750.497 
 3247000    303.74129   -2611.5869   -23249.405   -25157.072    1907.6674    1.1610133    30.985945    30.985945    30.985945    29750.497 
 3248000    302.56273   -3187.4018   -23208.166   -25108.432    1900.2654    1.1610133    30.985945    30.985945    30.985945    29750.497 
 3249000    297.69425   -2933.5809   -23286.553   -25156.241    1869.6886    1.1610133    30.985945    30.985945    30.985945    29750.497 
 3250000    293.59921    -3139.092   -23376.368   -25220.337    1843.9694    1.1610133    30.985945    30.985945    30.985945    29750.497 
 3251000    299.81216   -2253.0346   -23227.526   -25110.516    1882.9903    1.1610133    30.985945    30.985945    30.985945    29750.497 
 3252000    298.46402   -3514.5828   -23205.248   -25079.772    1874.5232    1.1610133    30.985945    30.985945    30.985945    29750.497 
 3253000    298.40739   -2342.5634   -23220.661   -25094.828    1874.1675    1.1610133    30.985945    30.985945    30.985945    29750.497 
 3254000     303.3278   -2769.3265   -23210.853   -25115.924    1905.0705    1.1610133    30.985945    30.985945    30.985945    29750.497 
 3255000    301.00915   -2327.7504   -23242.763   -25133.271    1890.5081    1.1610133    30.985945    30.985945    30.985945    29750.497 
 3256000    295.86718   -1633.3941   -23232.489   -25090.703    1858.2136    1.1610133    30.985945    30.985945    30.985945    29750.497 
 3257000    300.64346     -2258.93   -23236.262   -25124.474    1888.2113    1.1610133    30.985945    30.985945    30.985945    29750.497 
 3258000    296.21531   -2020.0157   -23292.053   -25152.453       1860.4    1.1610133    30.985945    30.985945    30.985945    29750.497 
 3259000    295.97072   -1405.0736   -23294.039   -25152.903    1858.8639    1.1610133    30.985945    30.985945    30.985945    29750.497 
 3260000    298.42085   -2521.7991   -23227.715   -25101.967    1874.2521    1.1610133    30.985945    30.985945    30.985945    29750.497 
 3261000    296.05318   -2612.4344   -23188.014   -25047.396    1859.3817    1.1610133    30.985945    30.985945    30.985945    29750.497 
 3262000    301.70973   -1532.0321   -23161.462    -25056.37    1894.9081    1.1610133    30.985945    30.985945    30.985945    29750.497 
 3263000    306.53436   -1367.6172   -23134.673   -25059.883    1925.2095    1.1610133    30.985945    30.985945    30.985945    29750.497 
 3264000    301.99158   -2407.2973   -23203.821   -25100.499    1896.6783    1.1610133    30.985945    30.985945    30.985945    29750.497 
 3265000    289.95146   -2018.4743    -23315.92    -25136.98    1821.0595    1.1610133    30.985945    30.985945    30.985945    29750.497 
 3266000    288.67689   -3032.7839   -23232.765   -25045.819    1813.0545    1.1610133    30.985945    30.985945    30.985945    29750.497 
 3267000    307.52178   -2424.9676   -23130.691   -25062.102    1931.4111    1.1610133    30.985945    30.985945    30.985945    29750.497 
 3268000    307.62671   -2520.0778    -23146.34   -25078.411    1932.0701    1.1610133    30.985945    30.985945    30.985945    29750.497 
 3269000    300.39402   -1490.1313   -23177.757   -25064.402    1886.6447    1.1610133    30.985945    30.985945    30.985945    29750.497 
 3270000    297.29849   -1814.4578   -23190.225   -25057.428     1867.203    1.1610133    30.985945    30.985945    30.985945    29750.497 
 3271000    304.96754   -2308.8955   -23100.133   -25015.502     1915.369    1.1610133    30.985945    30.985945    30.985945    29750.497 
 3272000    303.95218   -1551.4287   -23145.392   -25054.384     1908.992    1.1610133    30.985945    30.985945    30.985945    29750.497 
 3273000    297.68179   -2658.5933   -23240.711   -25110.321    1869.6103    1.1610133    30.985945    30.985945    30.985945    29750.497 
 3274000    295.92989    -2260.378   -23218.155   -25076.763    1858.6074    1.1610133    30.985945    30.985945    30.985945    29750.497 
 3275000    295.99847   -3494.8436   -23182.394   -25041.432    1859.0382    1.1610133    30.985945    30.985945    30.985945    29750.497 
 3276000    301.69155   -2021.1283   -23147.402   -25042.196    1894.7939    1.1610133    30.985945    30.985945    30.985945    29750.497 
 3277000    303.06467    -3025.699   -23218.408   -25121.826    1903.4179    1.1610133    30.985945    30.985945    30.985945    29750.497 
 3278000    292.33665   -3070.0831   -23167.648   -25003.688    1836.0399    1.1610133    30.985945    30.985945    30.985945    29750.497 
 3279000    294.47313   -2682.7896   -23191.543   -25041.001    1849.4581    1.1610133    30.985945    30.985945    30.985945    29750.497 
 3280000     294.6051   -1605.8157   -23225.427   -25075.714     1850.287    1.1610133    30.985945    30.985945    30.985945    29750.497 
 3281000    309.61528   -2658.7888   -23139.335   -25083.895    1944.5595    1.1610133    30.985945    30.985945    30.985945    29750.497 
 3282000     301.6839   -1890.9634   -23173.489   -25068.234    1894.7459    1.1610133    30.985945    30.985945    30.985945    29750.497 
 3283000    297.03263   -3308.8103   -23295.993   -25161.527    1865.5333    1.1610133    30.985945    30.985945    30.985945    29750.497 
 3284000    295.90353   -2344.8426   -23236.461   -25094.903    1858.4419    1.1610133    30.985945    30.985945    30.985945    29750.497 
 3285000    304.40049   -2764.7657   -23233.327   -25145.135    1911.8076    1.1610133    30.985945    30.985945    30.985945    29750.497 
 3286000    301.68346   -1975.9304   -23255.248   -25149.991    1894.7431    1.1610133    30.985945    30.985945    30.985945    29750.497 
 3287000    296.35451   -3024.2146   -23259.129   -25120.403    1861.2743    1.1610133    30.985945    30.985945    30.985945    29750.497 
 3288000    307.18451   -1809.4834   -23177.884   -25107.177    1929.2928    1.1610133    30.985945    30.985945    30.985945    29750.497 
 3289000    302.42765   -2366.3729   -23221.139   -25120.556     1899.417    1.1610133    30.985945    30.985945    30.985945    29750.497 
 3290000    301.05839   -2673.8968   -23080.116   -24970.933    1890.8173    1.1610133    30.985945    30.985945    30.985945    29750.497 
 3291000    306.66155    -2465.795   -23118.659   -25044.667    1926.0083    1.1610133    30.985945    30.985945    30.985945    29750.497 
 3292000    304.50947   -2739.4528   -23092.248   -25004.741    1912.4921    1.1610133    30.985945    30.985945    30.985945    29750.497 
 3293000      293.044   -2721.3416   -23283.138    -25123.62    1840.4824    1.1610133    30.985945    30.985945    30.985945    29750.497 
 3294000    309.03576   -2331.1022   -23154.774   -25095.694    1940.9197    1.1610133    30.985945    30.985945    30.985945    29750.497 
 3295000    295.16503   -2170.1692   -23211.088   -25064.891    1853.8037    1.1610133    30.985945    30.985945    30.985945    29750.497 
 3296000    295.73872   -2464.3383   -23083.769   -24941.175    1857.4068    1.1610133    30.985945    30.985945    30.985945    29750.497 
 3297000    290.66572   -1862.3384   -23262.736   -25088.282    1825.5454    1.1610133    30.985945    30.985945    30.985945    29750.497 
 3298000    297.44616   -2507.6399   -23155.741   -25023.872    1868.1305    1.1610133    30.985945    30.985945    30.985945    29750.497 
 3299000    293.36162   -2104.4811   -23276.834   -25119.311    1842.4772    1.1610133    30.985945    30.985945    30.985945    29750.497 
 3300000    300.91466   -2215.3481   -23121.971   -25011.885    1889.9146    1.1610133    30.985945    30.985945    30.985945    29750.497 
 3301000    307.35343   -2182.3206   -23136.429   -25066.783    1930.3537    1.1610133    30.985945    30.985945    30.985945    29750.497 
 3302000    311.01221   -1845.0357   -23110.115   -25063.448    1953.3329    1.1610133    30.985945    30.985945    30.985945    29750.497 
 3303000    305.62159   -1449.4604   -23103.622   -25023.099    1919.4768    1.1610133    30.985945    30.985945    30.985945    29750.497 
 3304000    302.18615   -2261.8195   -23113.226   -25011.126    1897.9003    1.1610133    30.985945    30.985945    30.985945    29750.497 
 3305000    296.87209   -1681.0157   -23090.892   -24955.417     1864.525    1.1610133    30.985945    30.985945    30.985945    29750.497 
 3306000    297.06839   -2661.5766   -23192.382    -25058.14    1865.7579    1.1610133    30.985945    30.985945    30.985945    29750.497 
 3307000    304.04736   -2095.1865   -23170.036   -25079.626    1909.5897    1.1610133    30.985945    30.985945    30.985945    29750.497 
 3308000    304.88743   -1747.6924   -23143.963   -25058.828    1914.8659    1.1610133    30.985945    30.985945    30.985945    29750.497 
 3309000    299.41894   -2882.0835   -23139.981   -25020.501    1880.5207    1.1610133    30.985945    30.985945    30.985945    29750.497 
 3310000    299.91685   -3007.9191   -23202.304   -25085.952    1883.6478    1.1610133    30.985945    30.985945    30.985945    29750.497 
 3311000    292.35925   -3133.5018   -23145.695   -24981.877    1836.1818    1.1610133    30.985945    30.985945    30.985945    29750.497 
 3312000     308.2975   -2928.9828       -23041   -24977.283     1936.283    1.1610133    30.985945    30.985945    30.985945    29750.497 
 3313000    298.36222   -1928.1053   -23230.168   -25104.052    1873.8838    1.1610133    30.985945    30.985945    30.985945    29750.497 
 3314000    305.78539   -1957.1278   -23148.769   -25069.275    1920.5056    1.1610133    30.985945    30.985945    30.985945    29750.497 
 3315000    303.60754   -1208.8533   -23187.337   -25094.165    1906.8274    1.1610133    30.985945    30.985945    30.985945    29750.497 
 3316000    302.06049   -1904.3419   -23162.161   -25059.272    1897.1111    1.1610133    30.985945    30.985945    30.985945    29750.497 
 3317000    298.40611   -1897.3176   -23179.839   -25053.998    1874.1595    1.1610133    30.985945    30.985945    30.985945    29750.497 
 3318000     309.0854   -1942.2422   -23108.907   -25050.139    1941.2315    1.1610133    30.985945    30.985945    30.985945    29750.497 
 3319000    296.60312   -1977.6823    -23113.68   -24976.516    1862.8357    1.1610133    30.985945    30.985945    30.985945    29750.497 
 3320000    305.98692   -2913.3633   -23195.101   -25116.872    1921.7713    1.1610133    30.985945    30.985945    30.985945    29750.497 
 3321000    302.42453    -1897.874   -23052.346   -24951.743    1899.3975    1.1610133    30.985945    30.985945    30.985945    29750.497 
 3322000    299.57986   -2060.7588   -23102.693   -24984.224    1881.5313    1.1610133    30.985945    30.985945    30.985945    29750.497 
 3323000    301.80001   -2188.0576   -23169.949   -25065.424    1895.4751    1.1610133    30.985945    30.985945    30.985945    29750.497 
 3324000     299.3494   -2036.6987   -23203.489   -25083.573    1880.0839    1.1610133    30.985945    30.985945    30.985945    29750.497 
 3325000    297.01692   -1665.2311   -23195.741   -25061.176    1865.4346    1.1610133    30.985945    30.985945    30.985945    29750.497 
 3326000    298.09766   -1580.8849   -23208.016   -25080.239    1872.2223    1.1610133    30.985945    30.985945    30.985945    29750.497 
 3327000    298.42229   -2113.7593   -23146.098   -25020.359    1874.2611    1.1610133    30.985945    30.985945    30.985945    29750.497 
 3328000    304.95184   -1855.7431   -23097.527   -25012.798    1915.2704    1.1610133    30.985945    30.985945    30.985945    29750.497 
 3329000    303.96316   -2582.2861   -23191.434   -25100.495    1909.0609    1.1610133    30.985945    30.985945    30.985945    29750.497 
 3330000    285.04341   -2703.5245    -23188.36   -24978.594    1790.2341    1.1610133    30.985945    30.985945    30.985945    29750.497 
 3331000    297.65985   -1928.2713   -23224.445   -25093.918    1869.4725    1.1610133    30.985945    30.985945    30.985945    29750.497 
 3332000    291.83935   -2396.6024   -23305.316   -25138.232    1832.9165    1.1610133    30.985945    30.985945    30.985945    29750.497 
 3333000    298.10935   -2774.0708   -23230.802   -25103.097    1872.2957    1.1610133    30.985945    30.985945    30.985945    29750.497 
 3334000    290.97768    -2746.941   -23260.745    -25088.25    1827.5047    1.1610133    30.985945    30.985945    30.985945    29750.497 
 3335000    297.51889   -1798.9556   -23178.897   -25047.484    1868.5872    1.1610133    30.985945    30.985945    30.985945    29750.497 
 3336000     300.9594   -2104.8186   -23289.272   -25179.467    1890.1956    1.1610133    30.985945    30.985945    30.985945    29750.497 
 3337000    304.51548   -2210.9049   -23126.513   -25039.043    1912.5298    1.1610133    30.985945    30.985945    30.985945    29750.497 
 3338000     296.3088   -3224.2576   -23203.676   -25064.663    1860.9872    1.1610133    30.985945    30.985945    30.985945    29750.497 
 3339000    302.05124   -2287.0677   -23288.322   -25185.375     1897.053    1.1610133    30.985945    30.985945    30.985945    29750.497 
 3340000    297.59162   -1940.9577   -23227.291   -25096.335    1869.0441    1.1610133    30.985945    30.985945    30.985945    29750.497 
 3341000    290.35819   -694.44258   -23251.358   -25074.972     1823.614    1.1610133    30.985945    30.985945    30.985945    29750.497 
 3342000    301.60658   -3093.6043   -23251.036   -25145.296    1894.2603    1.1610133    30.985945    30.985945    30.985945    29750.497 
 3343000    300.26374   -2402.2179   -23112.316   -24998.142    1885.8264    1.1610133    30.985945    30.985945    30.985945    29750.497 
 3344000    290.87241    -1507.498   -23206.553   -25033.397    1826.8436    1.1610133    30.985945    30.985945    30.985945    29750.497 
 3345000    299.09435   -1731.1536   -23166.641   -25045.123     1878.482    1.1610133    30.985945    30.985945    30.985945    29750.497 
 3346000    295.18291   -1441.8902   -23283.407   -25137.323     1853.916    1.1610133    30.985945    30.985945    30.985945    29750.497 
 3347000    311.64985   -2340.7008   -23181.802   -25139.139    1957.3377    1.1610133    30.985945    30.985945    30.985945    29750.497 
 3348000    297.61984   -1637.7146   -23199.543   -25068.765    1869.2213    1.1610133    30.985945    30.985945    30.985945    29750.497 
 3349000    291.29701   -2684.8154   -23215.696   -25045.206    1829.5103    1.1610133    30.985945    30.985945    30.985945    29750.497 
 3350000    303.61268   -2153.7855   -23153.993   -25060.852    1906.8597    1.1610133    30.985945    30.985945    30.985945    29750.497 
 3351000    296.69504   -2843.7545   -23174.798   -25038.211     1863.413    1.1610133    30.985945    30.985945    30.985945    29750.497 
 3352000    293.50379   -2141.0866   -23127.346   -24970.716    1843.3701    1.1610133    30.985945    30.985945    30.985945    29750.497 
 3353000    294.90807   -2330.5467   -23200.045   -25052.235    1852.1898    1.1610133    30.985945    30.985945    30.985945    29750.497 
 3354000    297.36681   -2771.1796    -23213.49   -25081.122    1867.6321    1.1610133    30.985945    30.985945    30.985945    29750.497 
 3355000    307.39142   -2009.7661   -23151.003   -25081.596    1930.5924    1.1610133    30.985945    30.985945    30.985945    29750.497 
 3356000    297.09736   -3584.4195   -23186.009   -25051.949    1865.9398    1.1610133    30.985945    30.985945    30.985945    29750.497 
 3357000    299.70941   -2827.7979   -23127.541   -25009.886     1882.345    1.1610133    30.985945    30.985945    30.985945    29750.497 
 3358000    299.78033   -2116.0426   -23164.653   -25047.443    1882.7904    1.1610133    30.985945    30.985945    30.985945    29750.497 
 3359000    298.71824   -2571.9638   -23057.908   -24934.028    1876.1199    1.1610133    30.985945    30.985945    30.985945    29750.497 
 3360000    302.10115   -2244.5286   -23123.261   -25020.627    1897.3665    1.1610133    30.985945    30.985945    30.985945    29750.497 
 3361000     293.8723   -1565.7951   -23193.258   -25038.943    1845.6846    1.1610133    30.985945    30.985945    30.985945    29750.497 
 3362000     305.7949   -2059.3623   -23142.258   -25062.823    1920.5653    1.1610133    30.985945    30.985945    30.985945    29750.497 
 3363000    294.96952   -2579.8524   -23201.895   -25054.471    1852.5758    1.1610133    30.985945    30.985945    30.985945    29750.497 
 3364000    300.92979   -1576.8587   -23157.283   -25047.293    1890.0096    1.1610133    30.985945    30.985945    30.985945    29750.497 
 3365000    293.96747   -2920.1111   -23147.055   -24993.338    1846.2823    1.1610133    30.985945    30.985945    30.985945    29750.497 
 3366000    300.60206   -3247.8542   -23076.392   -24964.343    1887.9513    1.1610133    30.985945    30.985945    30.985945    29750.497 
 3367000    295.12813   -2857.1611   -23084.661   -24938.232     1853.572    1.1610133    30.985945    30.985945    30.985945    29750.497 
 3368000    296.94366   -2965.0469   -23189.664   -25054.639    1864.9745    1.1610133    30.985945    30.985945    30.985945    29750.497 
 3369000     295.8377   -2727.9791   -23236.804   -25094.832    1858.0284    1.1610133    30.985945    30.985945    30.985945    29750.497 
 3370000    303.57561   -3019.0494   -23195.799   -25102.426    1906.6269    1.1610133    30.985945    30.985945    30.985945    29750.497 
 3371000    304.13039   -1953.6263   -23189.833   -25099.944    1910.1112    1.1610133    30.985945    30.985945    30.985945    29750.497 
 3372000    298.53588   -1715.2836   -23223.048   -25098.023    1874.9746    1.1610133    30.985945    30.985945    30.985945    29750.497 
 3373000    294.92791    -2920.956    -23258.84   -25111.154    1852.3145    1.1610133    30.985945    30.985945    30.985945    29750.497 
 3374000    296.85349   -2704.6585   -23231.441   -25095.849    1864.4082    1.1610133    30.985945    30.985945    30.985945    29750.497 
 3375000    291.47664   -2566.3041   -23276.647   -25107.285    1830.6385    1.1610133    30.985945    30.985945    30.985945    29750.497 
 3376000    306.20372   -2837.9017   -23209.995   -25133.128    1923.1329    1.1610133    30.985945    30.985945    30.985945    29750.497 
 3377000    305.20335   -2765.0402   -23182.148   -25098.998      1916.85    1.1610133    30.985945    30.985945    30.985945    29750.497 
 3378000     308.0178   -2218.8268   -23242.212   -25176.738    1934.5264    1.1610133    30.985945    30.985945    30.985945    29750.497 
 3379000    289.44703   -2728.0605   -23222.249   -25040.141    1817.8914    1.1610133    30.985945    30.985945    30.985945    29750.497 
 3380000    294.63113   -3592.4764   -23291.314   -25141.764    1850.4505    1.1610133    30.985945    30.985945    30.985945    29750.497 
 3381000    307.51895   -2603.3239   -23207.816   -25139.209    1931.3933    1.1610133    30.985945    30.985945    30.985945    29750.497 
 3382000    295.89265   -2333.9868   -23260.731   -25119.104    1858.3735    1.1610133    30.985945    30.985945    30.985945    29750.497 
 3383000    300.29129    -2010.647   -23270.181   -25156.181    1885.9995    1.1610133    30.985945    30.985945    30.985945    29750.497 
 3384000     290.4401    -2418.456   -23334.018   -25158.147    1824.1284    1.1610133    30.985945    30.985945    30.985945    29750.497 
 3385000    304.45194   -2513.7871   -23184.019   -25096.149    1912.1307    1.1610133    30.985945    30.985945    30.985945    29750.497 
 3386000    296.92495    -3356.058   -23260.185   -25125.042     1864.857    1.1610133    30.985945    30.985945    30.985945    29750.497 
 3387000    294.84903   -2017.8955   -23371.785   -25223.604     1851.819    1.1610133    30.985945    30.985945    30.985945    29750.497 
 3388000     301.3557   -1391.3815   -23161.143   -25053.828    1892.6846    1.1610133    30.985945    30.985945    30.985945    29750.497 
 3389000    299.73364   -3123.3983   -23232.844   -25115.341    1882.4972    1.1610133    30.985945    30.985945    30.985945    29750.497 
 3390000    298.54237   -2393.4077   -23225.122   -25100.137    1875.0153    1.1610133    30.985945    30.985945    30.985945    29750.497 
 3391000    293.30397   -2202.0356   -23183.137   -25025.252    1842.1152    1.1610133    30.985945    30.985945    30.985945    29750.497 
 3392000    294.80772   -2074.3179   -23234.263   -25085.822    1851.5596    1.1610133    30.985945    30.985945    30.985945    29750.497 
 3393000    298.07012   -2564.1259   -23311.847   -25183.896    1872.0493    1.1610133    30.985945    30.985945    30.985945    29750.497 
 3394000    314.33338   -1506.2889   -23110.442   -25084.634    1974.1918    1.1610133    30.985945    30.985945    30.985945    29750.497 
 3395000     299.4899   -1748.5008   -23183.287   -25064.253    1880.9663    1.1610133    30.985945    30.985945    30.985945    29750.497 
 3396000    300.22667   -3493.2501   -23233.249   -25118.842    1885.5937    1.1610133    30.985945    30.985945    30.985945    29750.497 
 3397000    304.62898   -3431.9774   -23243.263   -25156.505    1913.2426    1.1610133    30.985945    30.985945    30.985945    29750.497 
 3398000    298.50412   -2064.0336   -23276.605    -25151.38     1874.775    1.1610133    30.985945    30.985945    30.985945    29750.497 
 3399000    299.69206   -2635.9296   -23184.291   -25066.527     1882.236    1.1610133    30.985945    30.985945    30.985945    29750.497 
 3400000     302.4191   -1668.6401   -23166.546   -25065.909    1899.3633    1.1610133    30.985945    30.985945    30.985945    29750.497 
 3401000    302.63143   -2943.2549   -23219.846   -25120.543    1900.6969    1.1610133    30.985945    30.985945    30.985945    29750.497 
 3402000    287.39611   -2679.1681    -23225.24    -25030.25    1805.0104    1.1610133    30.985945    30.985945    30.985945    29750.497 
 3403000    298.08614   -2085.5248   -23269.202   -25141.352    1872.1499    1.1610133    30.985945    30.985945    30.985945    29750.497 
 3404000    303.43535   -2087.6604   -23179.761   -25085.507     1905.746    1.1610133    30.985945    30.985945    30.985945    29750.497 
 3405000    302.10105   -2218.8035   -23234.296   -25131.662    1897.3658    1.1610133    30.985945    30.985945    30.985945    29750.497 
 3406000    293.21027   -3024.2339   -23305.827   -25147.354    1841.5267    1.1610133    30.985945    30.985945    30.985945    29750.497 
 3407000    302.73714   -2308.8258   -23178.419    -25079.78    1901.3608    1.1610133    30.985945    30.985945    30.985945    29750.497 
 3408000     304.3855   -2405.6765   -23208.978   -25120.692    1911.7134    1.1610133    30.985945    30.985945    30.985945    29750.497 
 3409000    294.54841   -3351.2457   -23249.056   -25098.987     1849.931    1.1610133    30.985945    30.985945    30.985945    29750.497 
 3410000    295.71633   -2358.4182   -23234.645   -25091.911    1857.2661    1.1610133    30.985945    30.985945    30.985945    29750.497 
 3411000    300.82496   -2715.8706   -23216.596   -25105.947    1889.3513    1.1610133    30.985945    30.985945    30.985945    29750.497 
 3412000    299.50116   -2291.5171   -23282.106   -25163.143     1881.037    1.1610133    30.985945    30.985945    30.985945    29750.497 
 3413000    291.37187   -1776.4853    -23215.76   -25045.741    1829.9805    1.1610133    30.985945    30.985945    30.985945    29750.497 
 3414000    302.56589   -2609.6702   -23167.659   -25067.945    1900.2853    1.1610133    30.985945    30.985945    30.985945    29750.497 
 3415000      311.874   -2168.7509   -23103.179   -25061.924    1958.7455    1.1610133    30.985945    30.985945    30.985945    29750.497 
 3416000    308.74824   -2480.7361   -23063.189   -25002.303     1939.114    1.1610133    30.985945    30.985945    30.985945    29750.497 
 3417000    295.28147   -2584.5503   -23244.023   -25098.558     1854.535    1.1610133    30.985945    30.985945    30.985945    29750.497 
 3418000    299.26591    -3333.772   -23173.894   -25053.454    1879.5595    1.1610133    30.985945    30.985945    30.985945    29750.497 
 3419000    293.88333   -2836.9223   -23246.218   -25091.972    1845.7539    1.1610133    30.985945    30.985945    30.985945    29750.497 
 3420000    297.30894   -2540.1245    -23134.21   -25001.478    1867.2686    1.1610133    30.985945    30.985945    30.985945    29750.497 
 3421000    297.48955   -3196.1641   -23260.001   -25128.404     1868.403    1.1610133    30.985945    30.985945    30.985945    29750.497 
 3422000      302.268    -2344.327   -23247.214   -25145.629    1898.4144    1.1610133    30.985945    30.985945    30.985945    29750.497 
 3423000      312.773   -2625.9885   -23102.846   -25067.237    1964.3917    1.1610133    30.985945    30.985945    30.985945    29750.497 
 3424000    294.63616   -2709.6711   -23242.088   -25092.571    1850.4821    1.1610133    30.985945    30.985945    30.985945    29750.497 
 3425000    300.81525   -1507.8384   -23159.757   -25049.047    1889.2902    1.1610133    30.985945    30.985945    30.985945    29750.497 
 3426000    303.13106      -2483.6   -23157.797   -25061.631    1903.8349    1.1610133    30.985945    30.985945    30.985945    29750.497 
 3427000    305.52425   -2245.3766   -23137.182   -25056.047    1918.8655    1.1610133    30.985945    30.985945    30.985945    29750.497 
 3428000    295.19347   -3090.2971   -23260.967   -25114.949    1853.9823    1.1610133    30.985945    30.985945    30.985945    29750.497 
 3429000    301.71623   -2123.2224   -23209.305   -25104.254     1894.949    1.1610133    30.985945    30.985945    30.985945    29750.497 
 3430000    301.75828   -2713.6983   -23162.217    -25057.43     1895.213    1.1610133    30.985945    30.985945    30.985945    29750.497 
 3431000    304.04224   -2476.2931   -23162.854   -25072.412    1909.5576    1.1610133    30.985945    30.985945    30.985945    29750.497 
 3432000    297.77675   -2679.8889   -23227.221   -25097.428    1870.2068    1.1610133    30.985945    30.985945    30.985945    29750.497 
 3433000    300.94046    -2321.581   -23225.906   -25115.983    1890.0766    1.1610133    30.985945    30.985945    30.985945    29750.497 
 3434000    299.29791   -2520.7984   -23229.564   -25109.324    1879.7605    1.1610133    30.985945    30.985945    30.985945    29750.497 
 3435000    300.52916   -1893.8863   -23233.223   -25120.717    1887.4934    1.1610133    30.985945    30.985945    30.985945    29750.497 
 3436000    306.15659   -1729.3756    -23148.26   -25071.097    1922.8369    1.1610133    30.985945    30.985945    30.985945    29750.497 
 3437000    301.45956   -2225.6222   -23164.905   -25058.242    1893.3369    1.1610133    30.985945    30.985945    30.985945    29750.497 
 3438000    303.40327   -3011.8865   -23227.198   -25132.742    1905.5445    1.1610133    30.985945    30.985945    30.985945    29750.497 
 3439000    295.16757   -2368.5469   -23283.657   -25137.476    1853.8196    1.1610133    30.985945    30.985945    30.985945    29750.497 
 3440000    297.38009   -2116.4529   -23278.842   -25146.557    1867.7155    1.1610133    30.985945    30.985945    30.985945    29750.497 
 3441000    297.61843   -2397.2123   -23276.614   -25145.826    1869.2124    1.1610133    30.985945    30.985945    30.985945    29750.497 
 3442000    302.15263   -2270.5933   -23229.095   -25126.785    1897.6898    1.1610133    30.985945    30.985945    30.985945    29750.497 
 3443000    299.79963   -1451.4882    -23282.86   -25165.771    1882.9116    1.1610133    30.985945    30.985945    30.985945    29750.497 
 3444000    292.23231   -2272.3713    -23332.65   -25168.035    1835.3845    1.1610133    30.985945    30.985945    30.985945    29750.497 
 3445000    303.61886   -2477.4971   -23300.826   -25207.724    1906.8985    1.1610133    30.985945    30.985945    30.985945    29750.497 
 3446000    292.07955   -2885.1445   -23329.584   -25164.009    1834.4251    1.1610133    30.985945    30.985945    30.985945    29750.497 
 3447000    298.57351   -3358.9104   -23255.254   -25130.464    1875.2109    1.1610133    30.985945    30.985945    30.985945    29750.497 
 3448000    295.56887   -3081.3226   -23234.446   -25090.786      1856.34    1.1610133    30.985945    30.985945    30.985945    29750.497 
 3449000    295.00257   -2110.7668   -23258.674   -25111.457    1852.7834    1.1610133    30.985945    30.985945    30.985945    29750.497 
 3450000    294.60767   -1846.6529   -23236.659   -25086.962    1850.3031    1.1610133    30.985945    30.985945    30.985945    29750.497 
 3451000    308.80742   -1571.7732     -23115.1   -25054.586    1939.4856    1.1610133    30.985945    30.985945    30.985945    29750.497 
 3452000    305.83159   -2175.1739   -23174.494    -25095.29    1920.7957    1.1610133    30.985945    30.985945    30.985945    29750.497 
 3453000    307.04786   -2520.4766   -23232.957   -25161.392    1928.4346    1.1610133    30.985945    30.985945    30.985945    29750.497 
 3454000    295.40927   -3478.2053   -23240.512    -25095.85    1855.3377    1.1610133    30.985945    30.985945    30.985945    29750.497 
 3455000    301.01076   -2943.2583   -23213.361    -25103.88    1890.5182    1.1610133    30.985945    30.985945    30.985945    29750.497 
 3456000    303.72998   -3109.2751   -23236.406   -25144.003    1907.5964    1.1610133    30.985945    30.985945    30.985945    29750.497 
 3457000    290.40913   -3066.9278   -23307.333   -25131.267    1823.9339    1.1610133    30.985945    30.985945    30.985945    29750.497 
 3458000    296.42953   -1388.2555   -23161.692   -25023.438    1861.7455    1.1610133    30.985945    30.985945    30.985945    29750.497 
 3459000    300.86518   -2360.9741   -23235.428   -25125.032    1889.6039    1.1610133    30.985945    30.985945    30.985945    29750.497 
 3460000     298.6706   -3314.7572   -23183.688   -25059.509    1875.8206    1.1610133    30.985945    30.985945    30.985945    29750.497 
 3461000    298.76019   -1790.7293   -23248.713   -25125.096    1876.3833    1.1610133    30.985945    30.985945    30.985945    29750.497 
 3462000    306.02938   -2372.6607    -23205.33   -25127.368     1922.038    1.1610133    30.985945    30.985945    30.985945    29750.497 
 3463000     292.0784   -2057.4941   -23278.094   -25112.512    1834.4179    1.1610133    30.985945    30.985945    30.985945    29750.497 
 3464000     304.6986   -2359.7708   -23167.698   -25081.378    1913.6799    1.1610133    30.985945    30.985945    30.985945    29750.497 
 3465000    298.95281   -2155.7843   -23139.671   -25017.264    1877.5931    1.1610133    30.985945    30.985945    30.985945    29750.497 
 3466000    297.32955   -1963.3768   -23261.122    -25128.52    1867.3981    1.1610133    30.985945    30.985945    30.985945    29750.497 
 3467000    303.39665   -2003.0628   -23186.479   -25091.982    1905.5029    1.1610133    30.985945    30.985945    30.985945    29750.497 
 3468000    301.57143   -2532.3646   -23207.711    -25101.75    1894.0395    1.1610133    30.985945    30.985945    30.985945    29750.497 
 3469000    299.75752   -2183.4377   -23191.791   -25074.438    1882.6471    1.1610133    30.985945    30.985945    30.985945    29750.497 
 3470000    304.10171    -1833.789   -23092.327   -25002.258    1909.9311    1.1610133    30.985945    30.985945    30.985945    29750.497 
 3471000     297.0212   -1939.3692   -23305.916   -25171.378    1865.4615    1.1610133    30.985945    30.985945    30.985945    29750.497 
 3472000    294.35275    -2101.836   -23234.589   -25083.291    1848.7021    1.1610133    30.985945    30.985945    30.985945    29750.497 
 3473000    292.81031   -1698.4803   -23211.504   -25050.518    1839.0147    1.1610133    30.985945    30.985945    30.985945    29750.497 
 3474000    302.17387   -2469.5518   -23238.683   -25136.506    1897.8232    1.1610133    30.985945    30.985945    30.985945    29750.497 
 3475000    293.02841   -2063.1673   -23296.705   -25137.089    1840.3845    1.1610133    30.985945    30.985945    30.985945    29750.497 
 3476000    296.56322   -1860.3158   -23172.807   -25035.392    1862.5851    1.1610133    30.985945    30.985945    30.985945    29750.497 
 3477000    302.29683   -2002.9463   -23216.559   -25115.154    1898.5954    1.1610133    30.985945    30.985945    30.985945    29750.497 
 3478000    295.06279   -1557.3697   -23268.406   -25121.568    1853.1616    1.1610133    30.985945    30.985945    30.985945    29750.497 
 3479000    291.93423   -2265.7143   -23307.184   -25140.697    1833.5124    1.1610133    30.985945    30.985945    30.985945    29750.497 
 3480000    307.22992   -1666.2371   -23118.179   -25047.757     1929.578    1.1610133    30.985945    30.985945    30.985945    29750.497 
 3481000    303.23385   -2602.2639   -23184.567   -25089.048    1904.4804    1.1610133    30.985945    30.985945    30.985945    29750.497 
 3482000     304.4786    -1992.782   -23198.871   -25111.169    1912.2982    1.1610133    30.985945    30.985945    30.985945    29750.497 
 3483000    299.39829   -1659.6172   -23228.849    -25109.24     1880.391    1.1610133    30.985945    30.985945    30.985945    29750.497 
 3484000    298.39009   -1945.2831   -23215.226   -25089.285    1874.0589    1.1610133    30.985945    30.985945    30.985945    29750.497 
 3485000    297.49785   -1760.4338   -23173.729   -25042.184    1868.4551    1.1610133    30.985945    30.985945    30.985945    29750.497 
 3486000    284.91787   -1800.2795   -23277.842   -25067.287    1789.4457    1.1610133    30.985945    30.985945    30.985945    29750.497 
 3487000    298.46794    -2092.667    -23215.49   -25090.038    1874.5478    1.1610133    30.985945    30.985945    30.985945    29750.497 
 3488000     307.1472   -1888.2092   -23090.608   -25019.667    1929.0585    1.1610133    30.985945    30.985945    30.985945    29750.497 
 3489000    296.99971   -2963.6447   -23195.555   -25060.882    1865.3265    1.1610133    30.985945    30.985945    30.985945    29750.497 
 3490000    295.10317   -2716.2352   -23221.509   -25074.925    1853.4152    1.1610133    30.985945    30.985945    30.985945    29750.497 
 3491000    298.83921   -3136.5682   -23195.983   -25072.863    1876.8796    1.1610133    30.985945    30.985945    30.985945    29750.497 
 3492000    304.23501   -1815.3778   -23164.866   -25075.635    1910.7683    1.1610133    30.985945    30.985945    30.985945    29750.497 
 3493000    295.45944   -3031.5646   -23280.269   -25135.921    1855.6528    1.1610133    30.985945    30.985945    30.985945    29750.497 
 3494000    294.90069   -3671.6766   -23169.102   -25021.246    1852.1434    1.1610133    30.985945    30.985945    30.985945    29750.497 
 3495000    298.14255   -2649.3599   -23247.453   -25119.957    1872.5042    1.1610133    30.985945    30.985945    30.985945    29750.497 
 3496000    294.45846   -2508.2966    -23219.16   -25068.526     1849.366    1.1610133    30.985945    30.985945    30.985945    29750.497 
 3497000    301.64532   -2672.1188    -23198.49   -25092.993    1894.5035    1.1610133    30.985945    30.985945    30.985945    29750.497 
 3498000       304.05   -2880.3632   -23213.379   -25122.986    1909.6063    1.1610133    30.985945    30.985945    30.985945    29750.497 
 3499000    295.58319   -2389.6569   -23222.689   -25079.119      1856.43    1.1610133    30.985945    30.985945    30.985945    29750.497 
 3500000    299.91412   -1816.0131    -23178.93   -25062.561    1883.6307    1.1610133    30.985945    30.985945    30.985945    29750.497 
 3501000    306.11111   -3436.4548   -23099.928   -25022.479    1922.5512    1.1610133    30.985945    30.985945    30.985945    29750.497 
 3502000    296.77435    -2658.797   -23275.764   -25139.675    1863.9111    1.1610133    30.985945    30.985945    30.985945    29750.497 
 3503000    298.73264   -3017.1291   -23343.234   -25219.444    1876.2103    1.1610133    30.985945    30.985945    30.985945    29750.497 
 3504000    301.96477   -1858.1801   -23198.461   -25094.971    1896.5099    1.1610133    30.985945    30.985945    30.985945    29750.497 
 3505000    295.83625   -2363.1348   -23262.725   -25120.744    1858.0193    1.1610133    30.985945    30.985945    30.985945    29750.497 
 3506000    298.08534   -1984.0362   -23227.562   -25099.707    1872.1449    1.1610133    30.985945    30.985945    30.985945    29750.497 
 3507000    299.93367   -3338.4071   -23226.683   -25110.436    1883.7535    1.1610133    30.985945    30.985945    30.985945    29750.497 
 3508000    293.05246   -2430.8592   -23326.449   -25166.985    1840.5355    1.1610133    30.985945    30.985945    30.985945    29750.497 
 3509000    300.41474    -2478.949   -23284.685    -25171.46    1886.7748    1.1610133    30.985945    30.985945    30.985945    29750.497 
 3510000      295.147   -1569.0606    -23300.83   -25154.521    1853.6904    1.1610133    30.985945    30.985945    30.985945    29750.497 
 3511000    295.37879   -1433.0136   -23241.537   -25096.684    1855.1462    1.1610133    30.985945    30.985945    30.985945    29750.497 
 3512000    295.98941   -2803.7708   -23227.588   -25086.569    1858.9813    1.1610133    30.985945    30.985945    30.985945    29750.497 
 3513000    297.54699   -2601.9028    -23190.42   -25059.184    1868.7638    1.1610133    30.985945    30.985945    30.985945    29750.497 
 3514000    292.89589   -3256.2119   -23251.503   -25091.055    1839.5522    1.1610133    30.985945    30.985945    30.985945    29750.497 
 3515000    302.38893   -1954.2306   -23209.674   -25108.848    1899.1739    1.1610133    30.985945    30.985945    30.985945    29750.497 
 3516000    298.65653   -2130.6053   -23156.815   -25032.547    1875.7323    1.1610133    30.985945    30.985945    30.985945    29750.497 
 3517000    293.32004   -1238.7401   -23266.807   -25109.024    1842.2161    1.1610133    30.985945    30.985945    30.985945    29750.497 
 3518000    304.09705   -3102.6121    -23129.58   -25039.481    1909.9018    1.1610133    30.985945    30.985945    30.985945    29750.497 
 3519000     300.5415   -2475.1412   -23148.209   -25035.779    1887.5709    1.1610133    30.985945    30.985945    30.985945    29750.497 
 3520000    295.40104   -2355.7009   -23128.875   -24984.161     1855.286    1.1610133    30.985945    30.985945    30.985945    29750.497 
 3521000    299.16195   -2995.5444   -23186.417   -25065.323    1878.9066    1.1610133    30.985945    30.985945    30.985945    29750.497 
 3522000    295.99003    -1840.511   -23251.018   -25110.003    1858.9851    1.1610133    30.985945    30.985945    30.985945    29750.497 
 3523000      298.758   -2172.0006   -23130.883   -25007.252    1876.3696    1.1610133    30.985945    30.985945    30.985945    29750.497 
 3524000     297.4341   -2306.3575   -23220.532   -25088.587    1868.0547    1.1610133    30.985945    30.985945    30.985945    29750.497 
 3525000    301.84527   -2996.5147   -23212.268   -25108.028    1895.7594    1.1610133    30.985945    30.985945    30.985945    29750.497 
 3526000    307.64752   -3038.2943   -23083.714   -25015.915    1932.2008    1.1610133    30.985945    30.985945    30.985945    29750.497 
 3527000    295.62052   -1679.8268    -23197.32   -25053.984    1856.6644    1.1610133    30.985945    30.985945    30.985945    29750.497 
 3528000    294.89299   -3116.9849   -23233.274   -25085.369    1852.0951    1.1610133    30.985945    30.985945    30.985945    29750.497 
 3529000    296.90944   -2346.4919    -23196.09    -25060.85    1864.7596    1.1610133    30.985945    30.985945    30.985945    29750.497 
 3530000    300.85741    -2060.027   -23229.178   -25118.733    1889.5551    1.1610133    30.985945    30.985945    30.985945    29750.497 
 3531000    299.64929   -2765.0967   -23145.649   -25027.617    1881.9674    1.1610133    30.985945    30.985945    30.985945    29750.497 
 3532000    291.61088   -1650.5065   -23167.592   -24999.074    1831.4816    1.1610133    30.985945    30.985945    30.985945    29750.497 
 3533000    295.68896   -2064.3462   -23241.093   -25098.187    1857.0943    1.1610133    30.985945    30.985945    30.985945    29750.497 
 3534000    293.21253   -3183.1484   -23321.765   -25163.306    1841.5409    1.1610133    30.985945    30.985945    30.985945    29750.497 
 3535000     306.0662   -2779.4873   -23167.113   -25089.383    1922.2692    1.1610133    30.985945    30.985945    30.985945    29750.497 
 3536000    296.23831   -2900.3075   -23306.852   -25167.396    1860.5445    1.1610133    30.985945    30.985945    30.985945    29750.497 
 3537000    301.51283   -2899.0878   -23270.927   -25164.598    1893.6715    1.1610133    30.985945    30.985945    30.985945    29750.497 
 3538000    291.74334   -2174.6702   -23255.861   -25088.174    1832.3136    1.1610133    30.985945    30.985945    30.985945    29750.497 
 3539000    294.65814   -3276.6384   -23183.935   -25034.555    1850.6201    1.1610133    30.985945    30.985945    30.985945    29750.497 
 3540000    297.38253   -2806.8656   -23204.677   -25072.408    1867.7309    1.1610133    30.985945    30.985945    30.985945    29750.497 
 3541000    310.18107   -1543.7335   -23093.229   -25041.342    1948.1129    1.1610133    30.985945    30.985945    30.985945    29750.497 
 3542000     298.5938   -2469.4584   -23162.178   -25037.516    1875.3383    1.1610133    30.985945    30.985945    30.985945    29750.497 
 3543000    296.22948   -1948.7398   -23205.703   -25066.192     1860.489    1.1610133    30.985945    30.985945    30.985945    29750.497 
 3544000    311.30494    -1354.641   -23140.348   -25095.519    1955.1714    1.1610133    30.985945    30.985945    30.985945    29750.497 
 3545000    297.60115   -1476.3575   -23216.241   -25085.345    1869.1039    1.1610133    30.985945    30.985945    30.985945    29750.497 
 3546000    298.93623    -1370.755   -23184.472   -25061.961    1877.4889    1.1610133    30.985945    30.985945    30.985945    29750.497 
 3547000    303.01621   -2574.9901    -23114.39   -25017.504    1903.1136    1.1610133    30.985945    30.985945    30.985945    29750.497 
 3548000    294.65877   -1592.8981   -23189.979   -25040.603    1850.6241    1.1610133    30.985945    30.985945    30.985945    29750.497 
 3549000    299.90684   -2685.0581   -23172.398   -25055.983    1883.5849    1.1610133    30.985945    30.985945    30.985945    29750.497 
 3550000    296.74008   -2600.2099   -23132.501   -24996.197    1863.6959    1.1610133    30.985945    30.985945    30.985945    29750.497 
 3551000    298.30617   -2322.0993   -23161.024   -25034.556    1873.5318    1.1610133    30.985945    30.985945    30.985945    29750.497 
 3552000    297.66263    -2242.241   -23193.845   -25063.335    1869.4901    1.1610133    30.985945    30.985945    30.985945    29750.497 
 3553000    295.23573   -2292.2757   -23157.014   -25011.261    1854.2477    1.1610133    30.985945    30.985945    30.985945    29750.497 
 3554000    303.48142   -2919.8873   -23194.503   -25100.538    1906.0353    1.1610133    30.985945    30.985945    30.985945    29750.497 
 3555000    298.28885   -1707.8362   -23235.705   -25109.128    1873.4231    1.1610133    30.985945    30.985945    30.985945    29750.497 
 3556000    302.42175    -2769.083   -23234.018   -25133.398      1899.38    1.1610133    30.985945    30.985945    30.985945    29750.497 
 3557000    290.00988   -2771.3069    -23195.06   -25016.487    1821.4264    1.1610133    30.985945    30.985945    30.985945    29750.497 
 3558000    305.90415    -2304.056   -23265.661   -25186.912    1921.2514    1.1610133    30.985945    30.985945    30.985945    29750.497 
 3559000    295.14794   -2577.2076   -23209.081   -25062.777    1853.6964    1.1610133    30.985945    30.985945    30.985945    29750.497 
 3560000    302.34057   -2300.0542   -23142.132   -25041.002    1898.8701    1.1610133    30.985945    30.985945    30.985945    29750.497 
 3561000    298.21857   -2124.2312   -23243.079   -25116.061    1872.9817    1.1610133    30.985945    30.985945    30.985945    29750.497 
 3562000    297.14087   -2088.2474    -23229.26   -25095.473    1866.2131    1.1610133    30.985945    30.985945    30.985945    29750.497 
 3563000    290.67661   -3025.9665   -23206.028   -25031.641    1825.6138    1.1610133    30.985945    30.985945    30.985945    29750.497 
 3564000    296.62097   -2956.2593   -23210.613    -25073.56    1862.9478    1.1610133    30.985945    30.985945    30.985945    29750.497 
 3565000    296.78196   -2785.6529    -23248.91   -25112.869    1863.9589    1.1610133    30.985945    30.985945    30.985945    29750.497 
 3566000    293.20094   -1300.7898   -23265.334   -25106.802    1841.4681    1.1610133    30.985945    30.985945    30.985945    29750.497 
 3567000    293.97073   -1977.0887    -23195.65   -25041.953    1846.3028    1.1610133    30.985945    30.985945    30.985945    29750.497 
 3568000    295.32566   -2718.2914   -23247.998    -25102.81    1854.8125    1.1610133    30.985945    30.985945    30.985945    29750.497 
 3569000    292.75304   -2453.7051   -23261.256   -25099.911     1838.655    1.1610133    30.985945    30.985945    30.985945    29750.497 
 3570000    305.31776   -1923.8009   -23131.568   -25049.136    1917.5686    1.1610133    30.985945    30.985945    30.985945    29750.497 
 3571000    295.74649   -2879.6298   -23210.951   -25068.407    1857.4556    1.1610133    30.985945    30.985945    30.985945    29750.497 
 3572000    295.71893   -1987.0587   -23208.742   -25066.024    1857.2825    1.1610133    30.985945    30.985945    30.985945    29750.497 
 3573000    293.13307   -2428.5952   -23208.299   -25049.341    1841.0418    1.1610133    30.985945    30.985945    30.985945    29750.497 
 3574000    305.33503   -2522.1172   -23088.954   -25006.631    1917.6771    1.1610133    30.985945    30.985945    30.985945    29750.497 
 3575000    299.75118   -2342.8071   -23134.368   -25016.975    1882.6073    1.1610133    30.985945    30.985945    30.985945    29750.497 
 3576000    292.03798   -1846.9375   -23170.147   -25004.312    1834.1641    1.1610133    30.985945    30.985945    30.985945    29750.497 
 3577000    304.87955   -1146.2761   -23143.572   -25058.388    1914.8164    1.1610133    30.985945    30.985945    30.985945    29750.497 
 3578000    303.23035   -1962.0805   -23171.058   -25075.517    1904.4585    1.1610133    30.985945    30.985945    30.985945    29750.497 
 3579000    298.14762   -2994.5343   -23217.198   -25089.734    1872.5361    1.1610133    30.985945    30.985945    30.985945    29750.497 
 3580000    299.23418   -1687.5536   -23161.467   -25040.827    1879.3603    1.1610133    30.985945    30.985945    30.985945    29750.497 
 3581000    290.28117   -2145.8985   -23221.009   -25044.139    1823.1303    1.1610133    30.985945    30.985945    30.985945    29750.497 
 3582000    296.77242   -2077.7188   -23198.317   -25062.216     1863.899    1.1610133    30.985945    30.985945    30.985945    29750.497 
 3583000    303.34742    -2164.651   -23178.998   -25084.192    1905.1937    1.1610133    30.985945    30.985945    30.985945    29750.497 
 3584000    289.20346   -2988.9766   -23315.569    -25131.93    1816.3616    1.1610133    30.985945    30.985945    30.985945    29750.497 
 3585000    295.40552   -2605.5102   -23304.108   -25159.422    1855.3141    1.1610133    30.985945    30.985945    30.985945    29750.497 
 3586000    302.77599   -2324.6053   -23152.184   -25053.789    1901.6048    1.1610133    30.985945    30.985945    30.985945    29750.497 
 3587000     294.7713   -2494.4397   -23130.353   -24981.684    1851.3308    1.1610133    30.985945    30.985945    30.985945    29750.497 
 3588000     304.0445   -1679.7034   -23252.253   -25161.825    1909.5718    1.1610133    30.985945    30.985945    30.985945    29750.497 
 3589000    307.44154    -2805.402   -23183.869   -25114.776    1930.9071    1.1610133    30.985945    30.985945    30.985945    29750.497 
 3590000    296.01326    -2780.832   -23232.922   -25092.053    1859.1311    1.1610133    30.985945    30.985945    30.985945    29750.497 
 3591000    306.22484   -2310.6098   -23179.729   -25102.994    1923.2655    1.1610133    30.985945    30.985945    30.985945    29750.497 
 3592000    298.30196   -2738.7392   -23142.188   -25015.694    1873.5054    1.1610133    30.985945    30.985945    30.985945    29750.497 
 3593000     301.0871   -3189.3104   -23210.317   -25101.314    1890.9976    1.1610133    30.985945    30.985945    30.985945    29750.497 
 3594000    299.74953   -2243.2751   -23164.519   -25047.116     1882.597    1.1610133    30.985945    30.985945    30.985945    29750.497 
 3595000    302.47422    -2247.759   -23108.642   -25008.352    1899.7095    1.1610133    30.985945    30.985945    30.985945    29750.497 
 3596000    292.35144    -1220.937    -23182.84   -25018.973    1836.1327    1.1610133    30.985945    30.985945    30.985945    29750.497 
 3597000     309.4991   -2191.4045   -23067.828   -25011.658    1943.8298    1.1610133    30.985945    30.985945    30.985945    29750.497 
 3598000    292.07612   -2480.0122   -23208.152   -25042.556    1834.4036    1.1610133    30.985945    30.985945    30.985945    29750.497 
 3599000    295.69808    -2073.847   -23136.784   -24993.935    1857.1515    1.1610133    30.985945    30.985945    30.985945    29750.497 
 3600000    304.73077   -2431.2467   -23069.528    -24983.41     1913.882    1.1610133    30.985945    30.985945    30.985945    29750.497 
 3601000     295.6348   -2866.1294   -23233.995   -25090.749    1856.7541    1.1610133    30.985945    30.985945    30.985945    29750.497 
 3602000    293.93523   -1914.5638   -23147.595   -24993.675    1846.0799    1.1610133    30.985945    30.985945    30.985945    29750.497 
 3603000    296.68381   -1943.3978   -23248.288   -25111.631    1863.3425    1.1610133    30.985945    30.985945    30.985945    29750.497 
 3604000    305.18149   -2457.6419   -23173.787     -25090.5    1916.7127    1.1610133    30.985945    30.985945    30.985945    29750.497 
 3605000    303.20809   -2381.1475   -23253.093   -25157.412    1904.3187    1.1610133    30.985945    30.985945    30.985945    29750.497 
 3606000    299.58326   -2663.3321    -23260.25   -25141.803    1881.5527    1.1610133    30.985945    30.985945    30.985945    29750.497 
 3607000    291.75245   -2222.9149   -23272.312   -25104.683    1832.3707    1.1610133    30.985945    30.985945    30.985945    29750.497 
 3608000    294.37535   -2856.9278   -23266.708   -25115.552     1848.844    1.1610133    30.985945    30.985945    30.985945    29750.497 
 3609000    308.20395   -3084.9386   -23146.409   -25082.105    1935.6955    1.1610133    30.985945    30.985945    30.985945    29750.497 
 3610000    293.92303   -2952.0366   -23228.227   -25074.231    1846.0032    1.1610133    30.985945    30.985945    30.985945    29750.497 
 3611000    289.82912   -2763.7479   -23268.417   -25088.708    1820.2912    1.1610133    30.985945    30.985945    30.985945    29750.497 
 3612000    307.32819   -1508.0344   -23080.945   -25011.141    1930.1952    1.1610133    30.985945    30.985945    30.985945    29750.497 
 3613000    295.32579   -2553.6056   -23278.173   -25132.986    1854.8133    1.1610133    30.985945    30.985945    30.985945    29750.497 
 3614000    302.27689   -2916.8012   -23179.623   -25078.093    1898.4702    1.1610133    30.985945    30.985945    30.985945    29750.497 
 3615000    301.78296   -2306.6376   -23234.938   -25130.306     1895.368    1.1610133    30.985945    30.985945    30.985945    29750.497 
 3616000    289.44302   -3336.9491   -23198.576   -25016.442    1817.8662    1.1610133    30.985945    30.985945    30.985945    29750.497 
 3617000    297.09956   -2033.4693   -23211.465   -25077.418    1865.9536    1.1610133    30.985945    30.985945    30.985945    29750.497 
 3618000    307.82508   -2567.3142   -23115.808   -25049.124     1933.316    1.1610133    30.985945    30.985945    30.985945    29750.497 
 3619000    305.51153   -1852.1146   -23142.162   -25060.947    1918.7856    1.1610133    30.985945    30.985945    30.985945    29750.497 
 3620000      302.282   -3130.8166   -23251.907    -25150.41    1898.5023    1.1610133    30.985945    30.985945    30.985945    29750.497 
 3621000    300.76243    -3592.335   -23199.749   -25088.708    1888.9585    1.1610133    30.985945    30.985945    30.985945    29750.497 
 3622000    305.21659   -2141.9557   -23154.552   -25071.485    1916.9332    1.1610133    30.985945    30.985945    30.985945    29750.497 
 3623000    297.24959   -2049.2771   -23249.733   -25116.628    1866.8959    1.1610133    30.985945    30.985945    30.985945    29750.497 
 3624000    292.90729   -2086.8517    -23310.77   -25150.394    1839.6238    1.1610133    30.985945    30.985945    30.985945    29750.497 
 3625000    308.33865   -2101.8856   -23161.081   -25097.622    1936.5415    1.1610133    30.985945    30.985945    30.985945    29750.497 
 3626000    295.46279   -2341.1474   -23272.082   -25127.756    1855.6738    1.1610133    30.985945    30.985945    30.985945    29750.497 
 3627000    296.96493   -2670.2725   -23303.326   -25168.435    1865.1081    1.1610133    30.985945    30.985945    30.985945    29750.497 
 3628000     300.2389   -2520.0473   -23302.081   -25187.752    1885.6705    1.1610133    30.985945    30.985945    30.985945    29750.497 
 3629000    297.54258   -2519.6288   -23253.111   -25121.847    1868.7361    1.1610133    30.985945    30.985945    30.985945    29750.497 
 3630000    295.13324   -2860.4023    -23337.25   -25190.854     1853.604    1.1610133    30.985945    30.985945    30.985945    29750.497 
 3631000    296.52023   -2801.6527   -23299.341   -25161.656    1862.3151    1.1610133    30.985945    30.985945    30.985945    29750.497 
 3632000    293.06653   -2078.7171   -23227.113   -25067.737    1840.6239    1.1610133    30.985945    30.985945    30.985945    29750.497 
 3633000    300.45235   -2636.0828   -23200.919    -25087.93     1887.011    1.1610133    30.985945    30.985945    30.985945    29750.497 
 3634000    294.83238   -1866.6652   -23220.328   -25072.042    1851.7145    1.1610133    30.985945    30.985945    30.985945    29750.497 
 3635000    300.82306   -2409.5341    -23223.52    -25112.86    1889.3393    1.1610133    30.985945    30.985945    30.985945    29750.497 
 3636000    295.71469   -3242.4955   -23272.836   -25130.092    1857.2559    1.1610133    30.985945    30.985945    30.985945    29750.497 
 3637000    299.05278   -3240.3502   -23122.835   -25001.056     1878.221    1.1610133    30.985945    30.985945    30.985945    29750.497 
 3638000    295.57242   -1895.5483   -23249.094   -25105.457    1856.3623    1.1610133    30.985945    30.985945    30.985945    29750.497 
 3639000    298.83254   -2493.8131   -23142.228   -25019.066    1876.8377    1.1610133    30.985945    30.985945    30.985945    29750.497 
 3640000    303.38587   -2613.6026    -23191.81   -25097.245    1905.4352    1.1610133    30.985945    30.985945    30.985945    29750.497 
 3641000    297.12339   -2737.2585   -23187.986    -25054.09    1866.1033    1.1610133    30.985945    30.985945    30.985945    29750.497 
 3642000    305.90417   -2057.2644   -23129.691   -25050.943    1921.2516    1.1610133    30.985945    30.985945    30.985945    29750.497 
 3643000    301.43701   -2330.9112   -23221.062   -25114.257    1893.1953    1.1610133    30.985945    30.985945    30.985945    29750.497 
 3644000    302.91562   -1913.7424   -23133.663   -25036.145    1902.4818    1.1610133    30.985945    30.985945    30.985945    29750.497 
 3645000    298.87234   -2419.5219   -23189.692   -25066.779    1877.0877    1.1610133    30.985945    30.985945    30.985945    29750.497 
 3646000    286.57027   -1468.1506    -23280.03   -25079.854    1799.8237    1.1610133    30.985945    30.985945    30.985945    29750.497 
 3647000     307.3801   -2416.5688   -23024.322   -24954.843    1930.5212    1.1610133    30.985945    30.985945    30.985945    29750.497 
 3648000     295.8537   -1768.1612   -23158.784   -25016.913    1858.1289    1.1610133    30.985945    30.985945    30.985945    29750.497 
 3649000    293.71662   -1905.7957   -23216.122   -25060.829    1844.7068    1.1610133    30.985945    30.985945    30.985945    29750.497 
 3650000    297.06482   -2969.9019   -23252.329   -25118.065    1865.7354    1.1610133    30.985945    30.985945    30.985945    29750.497 
 3651000    288.39057   -2713.8154   -23243.957   -25055.213    1811.2562    1.1610133    30.985945    30.985945    30.985945    29750.497 
 3652000    299.58859   -2703.1824   -23126.155   -25007.741    1881.5861    1.1610133    30.985945    30.985945    30.985945    29750.497 
 3653000    305.20211   -1869.3838   -23058.538    -24975.38    1916.8422    1.1610133    30.985945    30.985945    30.985945    29750.497 
 3654000    308.14154   -1936.4263   -23133.389   -25068.692    1935.3035    1.1610133    30.985945    30.985945    30.985945    29750.497 
 3655000    297.48413   -2215.1523   -23212.929   -25081.298    1868.3689    1.1610133    30.985945    30.985945    30.985945    29750.497 
 3656000    297.43561   -3004.9167   -23237.344   -25105.408    1868.0642    1.1610133    30.985945    30.985945    30.985945    29750.497 
 3657000    295.17731    -1710.712   -23288.014   -25141.895    1853.8808    1.1610133    30.985945    30.985945    30.985945    29750.497 
 3658000     294.7364   -2160.4042   -23203.607   -25054.719    1851.1117    1.1610133    30.985945    30.985945    30.985945    29750.497 
 3659000    297.98955   -1814.6034   -23235.398   -25106.941    1871.5433    1.1610133    30.985945    30.985945    30.985945    29750.497 
 3660000    300.85272   -1151.5148   -23206.687   -25096.213    1889.5256    1.1610133    30.985945    30.985945    30.985945    29750.497 
 3661000    302.11502   -2255.4706   -23121.172   -25018.626    1897.4536    1.1610133    30.985945    30.985945    30.985945    29750.497 
 3662000    295.98221   -2599.1034   -23146.148   -25005.084     1858.936    1.1610133    30.985945    30.985945    30.985945    29750.497 
 3663000    302.77452    -2695.541   -23109.453   -25011.049    1901.5956    1.1610133    30.985945    30.985945    30.985945    29750.497 
 3664000     305.8407   -2955.8096   -23133.271   -25054.124    1920.8529    1.1610133    30.985945    30.985945    30.985945    29750.497 
 3665000    298.09854   -2538.5135   -23157.021   -25029.249    1872.2278    1.1610133    30.985945    30.985945    30.985945    29750.497 
 3666000    307.07812   -2968.1062   -23147.535   -25076.159    1928.6246    1.1610133    30.985945    30.985945    30.985945    29750.497 
 3667000    302.81388    -2934.853   -23164.376   -25066.219    1901.8428    1.1610133    30.985945    30.985945    30.985945    29750.497 
 3668000    287.92531   -1937.3966   -23267.867   -25076.201    1808.3341    1.1610133    30.985945    30.985945    30.985945    29750.497 
 3669000    293.95304   -2365.0782   -23201.463   -25047.655    1846.1917    1.1610133    30.985945    30.985945    30.985945    29750.497 
 3670000    302.57032    -3339.229   -23188.337    -25088.65    1900.3131    1.1610133    30.985945    30.985945    30.985945    29750.497 
 3671000    298.95667   -2441.3262   -23237.473    -25115.09    1877.6173    1.1610133    30.985945    30.985945    30.985945    29750.497 
 3672000     300.0097   -2791.7905   -23134.496   -25018.727     1884.231    1.1610133    30.985945    30.985945    30.985945    29750.497 
 3673000    301.18879   -2071.2873   -23261.749   -25153.385    1891.6363    1.1610133    30.985945    30.985945    30.985945    29750.497 
 3674000    292.50187   -2017.7234   -23248.441   -25085.519    1837.0775    1.1610133    30.985945    30.985945    30.985945    29750.497 
 3675000    311.44389   -1956.4073   -23111.438   -25067.482    1956.0441    1.1610133    30.985945    30.985945    30.985945    29750.497 
 3676000    305.52516    -2808.866   -23153.803   -25072.674    1918.8712    1.1610133    30.985945    30.985945    30.985945    29750.497 
 3677000     297.5752   -2119.9813   -23104.802   -24973.742    1868.9409    1.1610133    30.985945    30.985945    30.985945    29750.497 
 3678000    295.17196   -2731.5376   -23167.339   -25021.187    1853.8472    1.1610133    30.985945    30.985945    30.985945    29750.497 
 3679000    295.88655   -2750.2219   -23163.258   -25021.593    1858.3353    1.1610133    30.985945    30.985945    30.985945    29750.497 
 3680000    295.89843    -2683.268   -23234.753   -25093.163    1858.4099    1.1610133    30.985945    30.985945    30.985945    29750.497 
 3681000    299.17516   -1822.2256   -23219.193   -25098.183    1878.9895    1.1610133    30.985945    30.985945    30.985945    29750.497 
 3682000    293.55118   -2896.5844   -23326.355   -25170.023    1843.6678    1.1610133    30.985945    30.985945    30.985945    29750.497 
 3683000    297.92804   -1724.3428   -23219.363    -25090.52    1871.1569    1.1610133    30.985945    30.985945    30.985945    29750.497 
 3684000    300.82783   -2393.9786   -23302.399   -25191.769    1889.3693    1.1610133    30.985945    30.985945    30.985945    29750.497 
 3685000    298.25654   -2157.0686   -23113.826   -24987.046    1873.2201    1.1610133    30.985945    30.985945    30.985945    29750.497 
 3686000    303.86552   -3048.1957   -23137.596   -25046.044    1908.4477    1.1610133    30.985945    30.985945    30.985945    29750.497 
 3687000    302.82189   -2414.6308    -23064.12   -24966.014    1901.8931    1.1610133    30.985945    30.985945    30.985945    29750.497 
 3688000    292.23852     -2369.19   -23237.096   -25072.519    1835.4236    1.1610133    30.985945    30.985945    30.985945    29750.497 
 3689000    295.98142   -3072.5939   -23172.286   -25031.217    1858.9311    1.1610133    30.985945    30.985945    30.985945    29750.497 
 3690000    302.09747   -2185.2233   -23206.116    -25103.46    1897.3433    1.1610133    30.985945    30.985945    30.985945    29750.497 
 3691000    292.43542   -3163.2159   -23178.425   -25015.085    1836.6602    1.1610133    30.985945    30.985945    30.985945    29750.497 
 3692000    304.15675   -2739.3063   -23218.691   -25128.968    1910.2768    1.1610133    30.985945    30.985945    30.985945    29750.497 
 3693000    298.55765   -2565.4867   -23291.594   -25166.705    1875.1112    1.1610133    30.985945    30.985945    30.985945    29750.497 
 3694000    298.48072   -3384.4773   -23255.095   -25129.723    1874.6281    1.1610133    30.985945    30.985945    30.985945    29750.497 
 3695000    297.43326   -2543.1939   -23164.981   -25033.031    1868.0495    1.1610133    30.985945    30.985945    30.985945    29750.497 
 3696000    290.68627   -3312.8116   -23374.782   -25200.457    1825.6745    1.1610133    30.985945    30.985945    30.985945    29750.497 
 3697000    299.58576     -2890.16   -23278.177   -25159.745    1881.5684    1.1610133    30.985945    30.985945    30.985945    29750.497 
 3698000    298.41421   -3880.1615   -23242.477   -25116.687    1874.2104    1.1610133    30.985945    30.985945    30.985945    29750.497 
 3699000    295.83103   -2198.7967   -23262.537   -25120.524    1857.9866    1.1610133    30.985945    30.985945    30.985945    29750.497 
 3700000    300.50898   -2014.1203   -23252.986   -25140.353    1887.3667    1.1610133    30.985945    30.985945    30.985945    29750.497 
 3701000    296.68613   -2109.6929   -23366.567   -25229.924     1863.357    1.1610133    30.985945    30.985945    30.985945    29750.497 
 3702000    294.75653   -2362.4811   -23247.015   -25098.253    1851.2381    1.1610133    30.985945    30.985945    30.985945    29750.497 
 3703000    303.23247   -1965.5363    -23096.78   -25001.251    1904.4718    1.1610133    30.985945    30.985945    30.985945    29750.497 
 3704000    297.53541   -2312.4004   -23181.348   -25050.039     1868.691    1.1610133    30.985945    30.985945    30.985945    29750.497 
 3705000    299.47776    -2632.915   -23215.024   -25095.914      1880.89    1.1610133    30.985945    30.985945    30.985945    29750.497 
 3706000    302.95721   -2266.2661   -23183.645   -25086.388     1902.743    1.1610133    30.985945    30.985945    30.985945    29750.497 
 3707000    295.56147   -1942.4184   -23236.136    -25092.43    1856.2936    1.1610133    30.985945    30.985945    30.985945    29750.497 
 3708000      306.115   -994.48394   -23100.063   -25022.639    1922.5757    1.1610133    30.985945    30.985945    30.985945    29750.497 
 3709000    293.75414   -2859.5871   -23180.366   -25025.309    1844.9425    1.1610133    30.985945    30.985945    30.985945    29750.497 
 3710000    302.07549   -2680.6653   -23145.262   -25042.467    1897.2053    1.1610133    30.985945    30.985945    30.985945    29750.497 
 3711000    294.19629   -2465.3679   -23139.795   -24987.515    1847.7194    1.1610133    30.985945    30.985945    30.985945    29750.497 
 3712000    293.62376   -3009.0484   -23269.692   -25113.816    1844.1236    1.1610133    30.985945    30.985945    30.985945    29750.497 
 3713000    301.09093   -2571.2426   -23143.896   -25034.918    1891.0217    1.1610133    30.985945    30.985945    30.985945    29750.497 
 3714000    296.85392   -2120.2218   -23241.393   -25105.804    1864.4109    1.1610133    30.985945    30.985945    30.985945    29750.497 
 3715000    298.21729   -1924.2857   -23234.646   -25107.619    1872.9736    1.1610133    30.985945    30.985945    30.985945    29750.497 
 3716000    308.17775   -2850.6594   -23123.755   -25059.286    1935.5309    1.1610133    30.985945    30.985945    30.985945    29750.497 
 3717000    295.69196   -2765.1885    -23273.46   -25130.573    1857.1131    1.1610133    30.985945    30.985945    30.985945    29750.497 
 3718000    309.90441   -3139.5032   -23073.879   -25020.254    1946.3753    1.1610133    30.985945    30.985945    30.985945    29750.497 
 3719000    300.12711   -3282.2124   -23193.234   -25078.203    1884.9684    1.1610133    30.985945    30.985945    30.985945    29750.497 
 3720000    302.29446    -2121.001   -23204.661   -25103.241    1898.5806    1.1610133    30.985945    30.985945    30.985945    29750.497 
 3721000    294.71695   -1817.7763   -23233.849   -25084.838    1850.9895    1.1610133    30.985945    30.985945    30.985945    29750.497 
 3722000    299.03933   -1398.4358   -23145.492   -25023.628    1878.1365    1.1610133    30.985945    30.985945    30.985945    29750.497 
 3723000    300.69182   -2537.3288   -23181.611   -25070.126    1888.5151    1.1610133    30.985945    30.985945    30.985945    29750.497 
 3724000    298.44642   -3288.5989   -23257.358   -25131.771    1874.4126    1.1610133    30.985945    30.985945    30.985945    29750.497 
 3725000    296.74504   -2862.8024   -23240.012   -25103.739    1863.7271    1.1610133    30.985945    30.985945    30.985945    29750.497 
 3726000    301.61407   -2048.6309   -23184.562   -25078.869    1894.3073    1.1610133    30.985945    30.985945    30.985945    29750.497 
 3727000    304.06879    -2041.203   -23217.669   -25127.393    1909.7243    1.1610133    30.985945    30.985945    30.985945    29750.497 
 3728000    298.67399   -2847.6493   -23224.762   -25100.604     1875.842    1.1610133    30.985945    30.985945    30.985945    29750.497 
 3729000    295.66369   -2689.7643   -23278.899   -25135.834    1856.9355    1.1610133    30.985945    30.985945    30.985945    29750.497 
 3730000    303.06548   -3652.2979   -23179.386   -25082.809     1903.423    1.1610133    30.985945    30.985945    30.985945    29750.497 
 3731000     303.8725    -2514.205    -23183.46   -25091.951    1908.4915    1.1610133    30.985945    30.985945    30.985945    29750.497 
 3732000    298.49063   -2782.8032     -23292.6    -25167.29    1874.6903    1.1610133    30.985945    30.985945    30.985945    29750.497 
 3733000    296.81869   -3023.7311   -23242.948   -25107.138    1864.1896    1.1610133    30.985945    30.985945    30.985945    29750.497 
 3734000    298.37793   -970.17384   -23227.677   -25101.659    1873.9825    1.1610133    30.985945    30.985945    30.985945    29750.497 
 3735000    300.43152   -2216.1978   -23275.605   -25162.485    1886.8802    1.1610133    30.985945    30.985945    30.985945    29750.497 
 3736000    299.35399   -3902.7026   -23237.594   -25117.707    1880.1127    1.1610133    30.985945    30.985945    30.985945    29750.497 
 3737000    310.14016   -1880.2753     -23239.5   -25187.356     1947.856    1.1610133    30.985945    30.985945    30.985945    29750.497 
 3738000    298.09943   -2958.3248   -23230.527   -25102.761    1872.2334    1.1610133    30.985945    30.985945    30.985945    29750.497 
 3739000    298.63566    -2119.828     -23192.6   -25068.201    1875.6012    1.1610133    30.985945    30.985945    30.985945    29750.497 
 3740000    297.10579   -2074.5288   -23141.174   -25007.167    1865.9928    1.1610133    30.985945    30.985945    30.985945    29750.497 
 3741000    299.28438   -3427.0463   -23156.658   -25036.334    1879.6756    1.1610133    30.985945    30.985945    30.985945    29750.497 
 3742000    299.38202   -2148.1733   -23143.434   -25023.722    1880.2887    1.1610133    30.985945    30.985945    30.985945    29750.497 
 3743000     293.4332   -2997.8388   -23137.596   -24980.523    1842.9268    1.1610133    30.985945    30.985945    30.985945    29750.497 
 3744000    302.57629   -2715.7761   -23105.234   -25005.585    1900.3506    1.1610133    30.985945    30.985945    30.985945    29750.497 
 3745000    288.79484   -2909.9974   -23235.075    -25048.87    1813.7953    1.1610133    30.985945    30.985945    30.985945    29750.497 
 3746000    298.73715    -2145.622   -23206.903   -25083.142    1876.2386    1.1610133    30.985945    30.985945    30.985945    29750.497 
 3747000     302.9753    -2786.253   -23218.651   -25121.507    1902.8566    1.1610133    30.985945    30.985945    30.985945    29750.497 
 3748000    297.33407   -1683.6065   -23209.711   -25077.137    1867.4265    1.1610133    30.985945    30.985945    30.985945    29750.497 
 3749000    305.48643   -1561.7896   -23142.352    -25060.98    1918.6279    1.1610133    30.985945    30.985945    30.985945    29750.497 
 3750000    300.70027   -2772.9464   -23187.779   -25076.347    1888.5681    1.1610133    30.985945    30.985945    30.985945    29750.497 
 3751000    304.57439   -2422.6177   -23212.749   -25125.648    1912.8998    1.1610133    30.985945    30.985945    30.985945    29750.497 
 3752000    302.49282   -2336.4238   -23135.258   -25035.085    1899.8264    1.1610133    30.985945    30.985945    30.985945    29750.497 
 3753000    297.37447   -1981.5412   -23231.795   -25099.475    1867.6802    1.1610133    30.985945    30.985945    30.985945    29750.497 
 3754000    299.16369   -3295.5898   -23278.544   -25157.461    1878.9175    1.1610133    30.985945    30.985945    30.985945    29750.497 
 3755000    303.01768   -3036.8441    -23228.97   -25132.093    1903.1228    1.1610133    30.985945    30.985945    30.985945    29750.497 
 3756000     299.9647   -1698.8725   -23256.003   -25139.951    1883.9483    1.1610133    30.985945    30.985945    30.985945    29750.497 
 3757000     310.5787   -2423.5737    -23116.26    -25066.87    1950.6103    1.1610133    30.985945    30.985945    30.985945    29750.497 
 3758000     304.6299   -1812.5917   -23208.855   -25122.103    1913.2484    1.1610133    30.985945    30.985945    30.985945    29750.497 
 3759000    311.54539   -2259.9018   -23166.336   -25123.017    1956.6816    1.1610133    30.985945    30.985945    30.985945    29750.497 
 3760000    299.52608   -2995.4245   -23181.917    -25063.11    1881.1935    1.1610133    30.985945    30.985945    30.985945    29750.497 
 3761000    296.37987   -1912.6845   -23154.855   -25016.288    1861.4335    1.1610133    30.985945    30.985945    30.985945    29750.497 
 3762000    299.74104   -2628.9164    -23205.46   -25088.004    1882.5436    1.1610133    30.985945    30.985945    30.985945    29750.497 
 3763000    295.07881   -2871.2419   -23245.689   -25098.951    1853.2622    1.1610133    30.985945    30.985945    30.985945    29750.497 
 3764000    294.20571   -2306.1087   -23252.486   -25100.264    1847.7786    1.1610133    30.985945    30.985945    30.985945    29750.497 
 3765000     300.5432   -2960.9158   -23217.823   -25105.405    1887.5816    1.1610133    30.985945    30.985945    30.985945    29750.497 
 3766000    292.28353   -1881.8401   -23322.046   -25157.753    1835.7062    1.1610133    30.985945    30.985945    30.985945    29750.497 
 3767000    307.29408   -2246.6717    -23122.61   -25052.591     1929.981    1.1610133    30.985945    30.985945    30.985945    29750.497 
 3768000    300.57454   -3002.5388   -23209.109   -25096.887    1887.7784    1.1610133    30.985945    30.985945    30.985945    29750.497 
 3769000    296.67767   -1919.8376   -23244.833   -25108.137    1863.3039    1.1610133    30.985945    30.985945    30.985945    29750.497 
 3770000    291.69748   -3090.6972   -23229.748   -25061.774    1832.0255    1.1610133    30.985945    30.985945    30.985945    29750.497 
 3771000    299.24401   -2736.9119   -23293.411   -25172.833     1879.422    1.1610133    30.985945    30.985945    30.985945    29750.497 
 3772000    296.35271   -2500.8547   -23285.016   -25146.279     1861.263    1.1610133    30.985945    30.985945    30.985945    29750.497 
 3773000    294.31711   -3321.1491   -23358.469   -25206.948    1848.4783    1.1610133    30.985945    30.985945    30.985945    29750.497 
 3774000    297.02921    -2477.455   -23274.763   -25140.275    1865.5118    1.1610133    30.985945    30.985945    30.985945    29750.497 
 3775000    298.82024   -2803.2723   -23243.739   -25120.499    1876.7605    1.1610133    30.985945    30.985945    30.985945    29750.497 
 3776000     302.7458   -2668.6995    -23257.34   -25158.755    1901.4152    1.1610133    30.985945    30.985945    30.985945    29750.497 
 3777000    294.25142   -2172.3909   -23209.512   -25057.578    1848.0657    1.1610133    30.985945    30.985945    30.985945    29750.497 
 3778000    294.86949   -2048.5382   -23340.188   -25192.136    1851.9475    1.1610133    30.985945    30.985945    30.985945    29750.497 
 3779000    307.87303   -3439.1627   -23196.576   -25130.193    1933.6171    1.1610133    30.985945    30.985945    30.985945    29750.497 
 3780000    293.07795   -2708.5539   -23278.705     -25119.4    1840.6956    1.1610133    30.985945    30.985945    30.985945    29750.497 
 3781000     298.6011   -1548.7717   -23252.479   -25127.863    1875.3841    1.1610133    30.985945    30.985945    30.985945    29750.497 
 3782000    293.84625   -2777.4093   -23241.019    -25086.54     1845.521    1.1610133    30.985945    30.985945    30.985945    29750.497 
 3783000    297.08936   -3030.6044   -23308.571   -25174.461    1865.8896    1.1610133    30.985945    30.985945    30.985945    29750.497 
 3784000    302.21029   -2266.1092   -23176.282   -25074.334    1898.0519    1.1610133    30.985945    30.985945    30.985945    29750.497 
 3785000    297.57042   -2377.8327   -23259.523   -25128.433    1868.9109    1.1610133    30.985945    30.985945    30.985945    29750.497 
 3786000    308.25194    -1596.398   -23131.353   -25067.349    1935.9969    1.1610133    30.985945    30.985945    30.985945    29750.497 
 3787000    299.16327   -2712.0998   -23324.409   -25203.324    1878.9149    1.1610133    30.985945    30.985945    30.985945    29750.497 
 3788000    310.52024   -2327.0365   -23140.557     -25090.8    1950.2431    1.1610133    30.985945    30.985945    30.985945    29750.497 
 3789000    294.51493   -3566.0535   -23165.839   -25015.559    1849.7207    1.1610133    30.985945    30.985945    30.985945    29750.497 
 3790000    298.07361   -2530.0595   -23249.217   -25121.289    1872.0712    1.1610133    30.985945    30.985945    30.985945    29750.497 
 3791000     305.2377   -2522.3275   -23242.443   -25159.509    1917.0657    1.1610133    30.985945    30.985945    30.985945    29750.497 
 3792000    298.42828   -1915.8239   -23206.729   -25081.028    1874.2987    1.1610133    30.985945    30.985945    30.985945    29750.497 
 3793000     304.4293   -2179.8548   -23251.029   -25163.018    1911.9886    1.1610133    30.985945    30.985945    30.985945    29750.497 
 3794000    301.09089   -1965.5654   -23264.797   -25155.819    1891.0214    1.1610133    30.985945    30.985945    30.985945    29750.497 
 3795000    305.91795   -1607.7083   -23252.078   -25173.417    1921.3381    1.1610133    30.985945    30.985945    30.985945    29750.497 
 3796000    296.40625    -1753.609    -23315.35   -25176.949    1861.5992    1.1610133    30.985945    30.985945    30.985945    29750.497 
 3797000    305.80669   -2767.9725   -23191.286   -25111.925    1920.6394    1.1610133    30.985945    30.985945    30.985945    29750.497 
 3798000    291.26591   -2883.2833   -23319.821   -25149.136     1829.315    1.1610133    30.985945    30.985945    30.985945    29750.497 
 3799000    301.18692   -1988.4468   -23327.166   -25218.791    1891.6246    1.1610133    30.985945    30.985945    30.985945    29750.497 
 3800000    300.09052   -1485.5692   -23261.707   -25146.445    1884.7385    1.1610133    30.985945    30.985945    30.985945    29750.497 
 3801000    293.04086   -2616.9751   -23256.803   -25097.266    1840.4627    1.1610133    30.985945    30.985945    30.985945    29750.497 
 3802000    287.73249   -2218.4669   -23250.449   -25057.572    1807.1231    1.1610133    30.985945    30.985945    30.985945    29750.497 
 3803000    301.04308   -2335.1792   -23181.581   -25072.302    1890.7211    1.1610133    30.985945    30.985945    30.985945    29750.497 
 3804000    291.78432   -2226.0375   -23292.009    -25124.58    1832.5709    1.1610133    30.985945    30.985945    30.985945    29750.497 
 3805000    303.86813   -1849.9109   -23121.917   -25030.381    1908.4641    1.1610133    30.985945    30.985945    30.985945    29750.497 
 3806000    297.75554   -2734.5152   -23269.103   -25139.177    1870.0736    1.1610133    30.985945    30.985945    30.985945    29750.497 
 3807000    300.87499   -2754.0365   -23231.806   -25121.471    1889.6655    1.1610133    30.985945    30.985945    30.985945    29750.497 
 3808000    304.23012   -3046.7854   -23183.174   -25093.911    1910.7376    1.1610133    30.985945    30.985945    30.985945    29750.497 
 3809000    299.60331   -2472.5783   -23216.429   -25098.107    1881.6786    1.1610133    30.985945    30.985945    30.985945    29750.497 
 3810000    292.21501   -2386.6126   -23303.538   -25138.814    1835.2759    1.1610133    30.985945    30.985945    30.985945    29750.497 
 3811000    299.12698   -2311.8745   -23268.657   -25147.344     1878.687    1.1610133    30.985945    30.985945    30.985945    29750.497 
 3812000    304.33522   -2341.9233   -23248.925   -25160.322    1911.3977    1.1610133    30.985945    30.985945    30.985945    29750.497 
 3813000    312.16717   -3035.4883   -23173.181   -25133.768    1960.5868    1.1610133    30.985945    30.985945    30.985945    29750.497 
 3814000    292.25557   -2156.4248   -23291.607   -25127.138    1835.5306    1.1610133    30.985945    30.985945    30.985945    29750.497 
 3815000    303.28527   -2373.8608    -23274.64   -25179.443    1904.8034    1.1610133    30.985945    30.985945    30.985945    29750.497 
 3816000    298.76996   -3200.6571   -23311.978   -25188.423    1876.4447    1.1610133    30.985945    30.985945    30.985945    29750.497 
 3817000     297.1277   -2336.4698     -23181.5   -25047.631    1866.1304    1.1610133    30.985945    30.985945    30.985945    29750.497 
 3818000    298.21403   -1871.6254   -23173.215   -25046.168    1872.9531    1.1610133    30.985945    30.985945    30.985945    29750.497 
 3819000    291.52488    -1707.437   -23212.335   -25043.276    1830.9415    1.1610133    30.985945    30.985945    30.985945    29750.497 
 3820000    297.45686   -2621.8859    -23274.35   -25142.548    1868.1977    1.1610133    30.985945    30.985945    30.985945    29750.497 
 3821000    298.54786   -3004.8075   -23230.347   -25105.397    1875.0497    1.1610133    30.985945    30.985945    30.985945    29750.497 
 3822000    297.94717   -2490.5438   -23181.758   -25053.035    1871.2771    1.1610133    30.985945    30.985945    30.985945    29750.497 
 3823000    289.45717   -3470.3388   -23246.256   -25064.211    1817.9551    1.1610133    30.985945    30.985945    30.985945    29750.497 
 3824000    296.81015   -2561.8788   -23204.465   -25068.601     1864.136    1.1610133    30.985945    30.985945    30.985945    29750.497 
 3825000    300.38119   -2322.0785   -23283.595   -25170.159    1886.5641    1.1610133    30.985945    30.985945    30.985945    29750.497 
 3826000    290.52944   -2590.0652   -23344.597   -25169.287    1824.6895    1.1610133    30.985945    30.985945    30.985945    29750.497 
 3827000    295.78694   -1815.9022    -23181.01   -25038.719    1857.7096    1.1610133    30.985945    30.985945    30.985945    29750.497 
 3828000    300.06372   -3169.4245   -23302.091   -25186.661    1884.5702    1.1610133    30.985945    30.985945    30.985945    29750.497 
 3829000    295.58601   -2950.0184   -23238.628   -25095.076    1856.4477    1.1610133    30.985945    30.985945    30.985945    29750.497 
 3830000    297.21923   -2842.5567   -23290.965    -25157.67    1866.7052    1.1610133    30.985945    30.985945    30.985945    29750.497 
 3831000    303.38983   -2849.9063   -23160.502   -25065.962    1905.4601    1.1610133    30.985945    30.985945    30.985945    29750.497 
 3832000    297.28123   -2631.9235   -23316.178   -25183.273    1867.0946    1.1610133    30.985945    30.985945    30.985945    29750.497 
 3833000    304.88343   -3800.7996   -23348.673   -25263.513    1914.8407    1.1610133    30.985945    30.985945    30.985945    29750.497 
 3834000    303.91484   -2144.2089   -23278.718   -25187.476    1908.7574    1.1610133    30.985945    30.985945    30.985945    29750.497 
 3835000    297.00242   -2334.5258    -23296.85   -25162.193    1865.3435    1.1610133    30.985945    30.985945    30.985945    29750.497 
 3836000    298.77738   -3021.3872   -23212.488    -25088.98    1876.4913    1.1610133    30.985945    30.985945    30.985945    29750.497 
 3837000    286.51242   -2492.4251   -23361.842   -25161.303    1799.4604    1.1610133    30.985945    30.985945    30.985945    29750.497 
 3838000       294.53   -2084.0612    -23293.15   -25142.965    1849.8153    1.1610133    30.985945    30.985945    30.985945    29750.497 
 3839000    296.78519   -3024.3396   -23223.387   -25087.366    1863.9792    1.1610133    30.985945    30.985945    30.985945    29750.497 
 3840000    298.63272   -3223.7526   -23218.512   -25094.095    1875.5827    1.1610133    30.985945    30.985945    30.985945    29750.497 
 3841000    292.84215   -2886.8744   -23208.748   -25047.963    1839.2147    1.1610133    30.985945    30.985945    30.985945    29750.497 
 3842000    302.74448   -2231.8875   -23210.779   -25112.186    1901.4069    1.1610133    30.985945    30.985945    30.985945    29750.497 
 3843000    294.67461   -2555.8172   -23306.521   -25157.245    1850.7236    1.1610133    30.985945    30.985945    30.985945    29750.497 
 3844000    300.55379   -2014.5537   -23330.332    -25217.98    1887.6482    1.1610133    30.985945    30.985945    30.985945    29750.497 
 3845000    296.32152   -2532.6576   -23187.554   -25048.621    1861.0671    1.1610133    30.985945    30.985945    30.985945    29750.497 
 3846000    296.49223   -2335.6452    -23287.92   -25150.059    1862.1393    1.1610133    30.985945    30.985945    30.985945    29750.497 
 3847000    293.92178   -1755.4633   -23261.452   -25107.447    1845.9954    1.1610133    30.985945    30.985945    30.985945    29750.497 
 3848000    295.02096   -1790.8086   -23220.103   -25073.001    1852.8988    1.1610133    30.985945    30.985945    30.985945    29750.497 
 3849000    304.63824   -1712.0014   -23180.836   -25094.137    1913.3008    1.1610133    30.985945    30.985945    30.985945    29750.497 
 3850000     296.6743   -2532.3295   -23233.018   -25096.301    1863.2827    1.1610133    30.985945    30.985945    30.985945    29750.497 
 3851000    288.06808   -3010.0684    -23314.61   -25123.841    1809.2308    1.1610133    30.985945    30.985945    30.985945    29750.497 
 3852000    306.46236   -3185.2829   -23218.861   -25143.618    1924.7573    1.1610133    30.985945    30.985945    30.985945    29750.497 
 3853000    298.21387   -3125.5023   -23316.713   -25189.665    1872.9522    1.1610133    30.985945    30.985945    30.985945    29750.497 
 3854000    310.19491   -2016.8043   -23144.894   -25093.094    1948.1998    1.1610133    30.985945    30.985945    30.985945    29750.497 
 3855000    291.60529   -1967.1207   -23269.104   -25100.551    1831.4465    1.1610133    30.985945    30.985945    30.985945    29750.497 
 3856000    299.05787   -2382.0191   -23188.373   -25066.626    1878.2529    1.1610133    30.985945    30.985945    30.985945    29750.497 
 3857000    301.75242   -2729.1449    -23133.65   -25028.826    1895.1762    1.1610133    30.985945    30.985945    30.985945    29750.497 
 3858000    300.76637   -1455.5488   -23166.884   -25055.867    1888.9832    1.1610133    30.985945    30.985945    30.985945    29750.497 
 3859000    291.62308   -2368.3949   -23231.131   -25062.689    1831.5583    1.1610133    30.985945    30.985945    30.985945    29750.497 
 3860000    301.49373   -2973.2591   -23201.571   -25095.122    1893.5515    1.1610133    30.985945    30.985945    30.985945    29750.497 
 3861000    306.32208   -1950.3525   -23172.524     -25096.4    1923.8763    1.1610133    30.985945    30.985945    30.985945    29750.497 
 3862000    297.74881   -2191.5852    -23266.81   -25136.841    1870.0313    1.1610133    30.985945    30.985945    30.985945    29750.497 
 3863000     292.9425   -1707.5454   -23151.118   -24990.963    1839.8449    1.1610133    30.985945    30.985945    30.985945    29750.497 
 3864000    301.94503   -2821.0772   -23250.544    -25146.93    1896.3859    1.1610133    30.985945    30.985945    30.985945    29750.497 
 3865000    302.83938    -2747.947   -23234.963   -25136.966     1902.003    1.1610133    30.985945    30.985945    30.985945    29750.497 
 3866000    297.45084   -1970.7457   -23266.729   -25134.888    1868.1598    1.1610133    30.985945    30.985945    30.985945    29750.497 
 3867000    288.18172   -2191.3584   -23298.358   -25108.303    1809.9445    1.1610133    30.985945    30.985945    30.985945    29750.497 
 3868000    294.46274   -2669.7443    -23351.73   -25201.123    1849.3929    1.1610133    30.985945    30.985945    30.985945    29750.497 
 3869000    297.94362    -2432.932   -23278.661   -25149.915    1871.2548    1.1610133    30.985945    30.985945    30.985945    29750.497 
 3870000    296.67409   -2387.1331   -23310.097   -25173.378    1863.2814    1.1610133    30.985945    30.985945    30.985945    29750.497 
 3871000     294.5069   -2462.2089   -23295.125   -25144.795    1849.6703    1.1610133    30.985945    30.985945    30.985945    29750.497 
 3872000    307.80975   -2181.1345   -23206.796   -25140.016    1933.2197    1.1610133    30.985945    30.985945    30.985945    29750.497 
 3873000    302.78077   -2391.9133   -23325.867   -25227.501    1901.6348    1.1610133    30.985945    30.985945    30.985945    29750.497 
 3874000    303.40892   -2307.0133   -23290.889   -25196.469      1905.58    1.1610133    30.985945    30.985945    30.985945    29750.497 
 3875000    299.17239    -2293.355    -23361.37   -25240.342    1878.9722    1.1610133    30.985945    30.985945    30.985945    29750.497 
 3876000    293.20044   -2748.0461   -23308.354   -25149.819    1841.4649    1.1610133    30.985945    30.985945    30.985945    29750.497 
 3877000     293.6403   -3288.3234     -23334.4   -25178.627    1844.2275    1.1610133    30.985945    30.985945    30.985945    29750.497 
 3878000    302.33757   -2986.7586   -23192.698    -25091.55    1898.8513    1.1610133    30.985945    30.985945    30.985945    29750.497 
 3879000    294.43915   -2405.0304   -23290.235    -25139.48    1849.2448    1.1610133    30.985945    30.985945    30.985945    29750.497 
 3880000    306.84311   -2497.9893   -23268.328   -25195.477    1927.1486    1.1610133    30.985945    30.985945    30.985945    29750.497 
 3881000    288.03971   -2178.6466   -23346.194   -25155.247    1809.0527    1.1610133    30.985945    30.985945    30.985945    29750.497 
 3882000    313.68334   -2897.5831   -23178.096   -25148.205    1970.1091    1.1610133    30.985945    30.985945    30.985945    29750.497 
 3883000    294.57018   -2445.0814   -23329.114   -25179.182    1850.0677    1.1610133    30.985945    30.985945    30.985945    29750.497 
 3884000     296.7696   -2955.2899   -23278.477   -25142.358    1863.8813    1.1610133    30.985945    30.985945    30.985945    29750.497 
 3885000    298.18177   -2787.7605   -23304.794   -25177.544    1872.7505    1.1610133    30.985945    30.985945    30.985945    29750.497 
 3886000    303.05983   -2784.8596    -23275.44   -25178.828    1903.3875    1.1610133    30.985945    30.985945    30.985945    29750.497 
 3887000    294.51307   -2530.1583   -23305.843   -25155.552     1849.709    1.1610133    30.985945    30.985945    30.985945    29750.497 
 3888000    301.56082   -2935.5312   -23261.724   -25155.697    1893.9729    1.1610133    30.985945    30.985945    30.985945    29750.497 
 3889000    301.47227   -2643.1613   -23231.529   -25124.946    1893.4167    1.1610133    30.985945    30.985945    30.985945    29750.497 
 3890000    296.01119   -2332.5508   -23319.344   -25178.462     1859.118    1.1610133    30.985945    30.985945    30.985945    29750.497 
 3891000    302.26005   -2657.7909   -23242.024   -25140.389    1898.3644    1.1610133    30.985945    30.985945    30.985945    29750.497 
 3892000    302.95727   -3068.1253   -23159.063   -25061.807    1902.7434    1.1610133    30.985945    30.985945    30.985945    29750.497 
 3893000    295.72197   -2492.6119   -23220.883   -25078.184    1857.3016    1.1610133    30.985945    30.985945    30.985945    29750.497 
 3894000    291.52265   -3243.9813   -23420.393   -25251.321    1830.9274    1.1610133    30.985945    30.985945    30.985945    29750.497 
 3895000    303.65745   -3368.2134   -23298.574   -25205.715    1907.1409    1.1610133    30.985945    30.985945    30.985945    29750.497 
 3896000     300.8715   -2420.5277   -23293.466    -25183.11    1889.6435    1.1610133    30.985945    30.985945    30.985945    29750.497 
 3897000    297.74048   -2325.7126   -23225.172   -25095.151    1869.9789    1.1610133    30.985945    30.985945    30.985945    29750.497 
 3898000    292.37919   -3515.1286   -23391.281   -25227.588     1836.307    1.1610133    30.985945    30.985945    30.985945    29750.497 
 3899000    307.55631   -1115.8246   -23247.209   -25178.837     1931.628    1.1610133    30.985945    30.985945    30.985945    29750.497 
 3900000    304.18626   -2054.8552   -23256.902   -25167.364    1910.4621    1.1610133    30.985945    30.985945    30.985945    29750.497 
 3901000    297.25279   -2366.5723   -23222.154    -25089.07     1866.916    1.1610133    30.985945    30.985945    30.985945    29750.497 
 3902000    301.70784   -2647.0777   -23126.535   -25021.431    1894.8962    1.1610133    30.985945    30.985945    30.985945    29750.497 
 3903000    295.79663   -2541.3005   -23245.644   -25103.414    1857.7705    1.1610133    30.985945    30.985945    30.985945    29750.497 
 3904000    294.20371   -2889.1892   -23214.055   -25061.821     1847.766    1.1610133    30.985945    30.985945    30.985945    29750.497 
 3905000    287.09025   -2870.7405   -23312.561   -25115.651    1803.0895    1.1610133    30.985945    30.985945    30.985945    29750.497 
 3906000    310.22962   -2529.6518   -23150.975   -25099.393    1948.4178    1.1610133    30.985945    30.985945    30.985945    29750.497 
 3907000     296.7398   -3316.6411   -23231.659   -25095.353    1863.6941    1.1610133    30.985945    30.985945    30.985945    29750.497 
 3908000     292.4912   -2525.3852   -23277.991   -25115.001    1837.0105    1.1610133    30.985945    30.985945    30.985945    29750.497 
 3909000    304.65586   -2536.7272   -23225.433   -25138.845    1913.4115    1.1610133    30.985945    30.985945    30.985945    29750.497 
 3910000    293.01153   -3285.9731   -23274.986   -25115.264    1840.2785    1.1610133    30.985945    30.985945    30.985945    29750.497 
 3911000    300.19811   -2614.8366   -23279.993   -25165.407    1885.4143    1.1610133    30.985945    30.985945    30.985945    29750.497 
 3912000    301.50097   -2029.6799    -23260.54   -25154.137     1893.597    1.1610133    30.985945    30.985945    30.985945    29750.497 
 3913000    292.96812   -2863.9693   -23259.015   -25099.021    1840.0059    1.1610133    30.985945    30.985945    30.985945    29750.497 
 3914000     289.8074   -2622.3499   -23313.529   -25133.684    1820.1547    1.1610133    30.985945    30.985945    30.985945    29750.497 
 3915000    298.84946   -2905.6947   -23344.671   -25221.615     1876.944    1.1610133    30.985945    30.985945    30.985945    29750.497 
 3916000    289.63923   -2588.1232   -23405.955   -25225.053    1819.0985    1.1610133    30.985945    30.985945    30.985945    29750.497 
 3917000    306.89308   -2199.9657   -23261.738     -25189.2    1927.4625    1.1610133    30.985945    30.985945    30.985945    29750.497 
 3918000    304.55965   -3339.0533   -23308.575   -25221.382    1912.8072    1.1610133    30.985945    30.985945    30.985945    29750.497 
 3919000     296.0393   -3262.7141   -23298.772   -25158.066    1859.2946    1.1610133    30.985945    30.985945    30.985945    29750.497 
 3920000    290.09975     -2909.69   -23349.326   -25171.317    1821.9908    1.1610133    30.985945    30.985945    30.985945    29750.497 
 3921000    300.35327   -2821.1606   -23280.629   -25167.018    1886.3888    1.1610133    30.985945    30.985945    30.985945    29750.497 
 3922000    300.47487   -2439.5931    -23393.51   -25280.662    1887.1525    1.1610133    30.985945    30.985945    30.985945    29750.497 
 3923000    299.48379   -3036.7045   -23290.439   -25171.367     1880.928    1.1610133    30.985945    30.985945    30.985945    29750.497 
 3924000    301.91794   -3480.6792   -23317.309   -25213.525    1896.2158    1.1610133    30.985945    30.985945    30.985945    29750.497 
 3925000    300.87887   -2412.4506   -23260.788   -25150.478    1889.6898    1.1610133    30.985945    30.985945    30.985945    29750.497 
 3926000    300.01834   -1694.3269   -23298.312   -25182.598    1884.2852    1.1610133    30.985945    30.985945    30.985945    29750.497 
 3927000    295.69757   -2759.3607   -23348.255   -25205.403    1857.1483    1.1610133    30.985945    30.985945    30.985945    29750.497 
 3928000    297.81881   -3180.3666   -23197.631   -25068.102    1870.4709    1.1610133    30.985945    30.985945    30.985945    29750.497 
 3929000    304.83965   -3551.4441   -23224.444   -25139.009    1914.5658    1.1610133    30.985945    30.985945    30.985945    29750.497 
 3930000    299.36233   -2908.8048   -23202.906   -25083.071    1880.1651    1.1610133    30.985945    30.985945    30.985945    29750.497 
 3931000    309.02561   -1746.2462   -23170.336   -25111.192     1940.856    1.1610133    30.985945    30.985945    30.985945    29750.497 
 3932000    295.80952   -2258.8082   -23268.883   -25126.734    1857.8514    1.1610133    30.985945    30.985945    30.985945    29750.497 
 3933000    292.12532   -2136.4499   -23282.599   -25117.312    1834.7125    1.1610133    30.985945    30.985945    30.985945    29750.497 
 3934000    298.05115   -2958.9675   -23268.753   -25140.683    1871.9301    1.1610133    30.985945    30.985945    30.985945    29750.497 
 3935000    302.06121   -3214.0956   -23148.398   -25045.514    1897.1156    1.1610133    30.985945    30.985945    30.985945    29750.497 
 3936000     302.3917   -2282.7065   -23178.445   -25077.636    1899.1913    1.1610133    30.985945    30.985945    30.985945    29750.497 
 3937000    298.59198   -1745.4763   -23183.484   -25058.811    1875.3269    1.1610133    30.985945    30.985945    30.985945    29750.497 
 3938000    304.51298   -1811.8952    -23149.67   -25062.184    1912.5141    1.1610133    30.985945    30.985945    30.985945    29750.497 
 3939000    292.18643   -2355.0208   -23309.659   -25144.755    1835.0964    1.1610133    30.985945    30.985945    30.985945    29750.497 
 3940000    302.59406   -2761.2378   -23209.414   -25109.876    1900.4622    1.1610133    30.985945    30.985945    30.985945    29750.497 
 3941000    294.66296   -2970.8465    -23255.77    -25106.42    1850.6504    1.1610133    30.985945    30.985945    30.985945    29750.497 
 3942000    296.22778   -2446.8311   -23269.426   -25129.905    1860.4783    1.1610133    30.985945    30.985945    30.985945    29750.497 
 3943000    313.58589   -3145.6193   -23201.063    -25170.56    1969.4971    1.1610133    30.985945    30.985945    30.985945    29750.497 
 3944000    301.83065   -3596.3719   -23285.043   -25180.711    1895.6675    1.1610133    30.985945    30.985945    30.985945    29750.497 
 3945000    300.63926   -2631.9046   -23254.759   -25142.944     1888.185    1.1610133    30.985945    30.985945    30.985945    29750.497 
 3946000    295.72382   -2279.1197   -23292.343   -25149.656    1857.3132    1.1610133    30.985945    30.985945    30.985945    29750.497 
 3947000    297.95812   -2750.6541   -23282.781   -25154.127    1871.3459    1.1610133    30.985945    30.985945    30.985945    29750.497 
 3948000    302.64274   -1894.1006   -23308.593   -25209.361    1900.7679    1.1610133    30.985945    30.985945    30.985945    29750.497 
 3949000    302.26791   -2680.8561   -23209.763   -25108.177    1898.4138    1.1610133    30.985945    30.985945    30.985945    29750.497 
 3950000    304.10156   -1942.1292   -23235.019   -25144.949    1909.9302    1.1610133    30.985945    30.985945    30.985945    29750.497 
 3951000    307.86028   -2681.9114   -23172.495   -25106.032    1933.5371    1.1610133    30.985945    30.985945    30.985945    29750.497 
 3952000    301.38255   -2363.2278   -23320.822   -25213.675    1892.8532    1.1610133    30.985945    30.985945    30.985945    29750.497 
 3953000    306.72765   -3026.6676   -23277.904   -25204.327    1926.4235    1.1610133    30.985945    30.985945    30.985945    29750.497 
 3954000    302.77592   -2430.5382   -23276.838   -25178.443    1901.6044    1.1610133    30.985945    30.985945    30.985945    29750.497 
 3955000    292.63614    -1827.287   -23352.137   -25190.058    1837.9208    1.1610133    30.985945    30.985945    30.985945    29750.497 
 3956000    294.59639   -2268.2773   -23253.142   -25103.374    1850.2323    1.1610133    30.985945    30.985945    30.985945    29750.497 
 3957000    294.41676   -2697.3378   -23315.829   -25164.933    1849.1041    1.1610133    30.985945    30.985945    30.985945    29750.497 
 3958000    289.93587   -2406.1871   -23337.162   -25158.124    1820.9616    1.1610133    30.985945    30.985945    30.985945    29750.497 
 3959000    296.78453   -3219.7906   -23315.142   -25179.117     1863.975    1.1610133    30.985945    30.985945    30.985945    29750.497 
 3960000    291.63832   -2218.6815   -23218.099   -25049.753    1831.6539    1.1610133    30.985945    30.985945    30.985945    29750.497 
 3961000    293.40487   -2466.0008   -23409.419   -25252.168    1842.7489    1.1610133    30.985945    30.985945    30.985945    29750.497 
 3962000    291.84708   -2772.2096   -23306.993   -25139.958    1832.9651    1.1610133    30.985945    30.985945    30.985945    29750.497 
 3963000    291.92712   -2537.6658     -23171.2   -25004.668    1833.4678    1.1610133    30.985945    30.985945    30.985945    29750.497 
 3964000    296.44526   -3124.0184   -23318.733   -25180.578    1861.8442    1.1610133    30.985945    30.985945    30.985945    29750.497 
 3965000    300.44884   -2661.6328   -23239.446   -25126.435     1886.989    1.1610133    30.985945    30.985945    30.985945    29750.497 
 3966000    300.26212   -2799.9949    -23281.99   -25167.807    1885.8163    1.1610133    30.985945    30.985945    30.985945    29750.497 
 3967000    297.68561   -1916.4756   -23266.406   -25136.041    1869.6344    1.1610133    30.985945    30.985945    30.985945    29750.497 
 3968000    300.20016   -2442.8099   -23305.726   -25191.153    1885.4271    1.1610133    30.985945    30.985945    30.985945    29750.497 
 3969000    297.19855     -3749.18   -23282.564   -25149.139    1866.5753    1.1610133    30.985945    30.985945    30.985945    29750.497 
 3970000    297.17901   -2166.1898     -23343.9   -25210.352    1866.4526    1.1610133    30.985945    30.985945    30.985945    29750.497 
 3971000    291.95046   -1877.3119   -23279.599   -25113.213    1833.6143    1.1610133    30.985945    30.985945    30.985945    29750.497 
 3972000    298.03399   -1691.4018   -23261.061   -25132.883    1871.8224    1.1610133    30.985945    30.985945    30.985945    29750.497 
 3973000    288.93963   -3374.3771   -23335.093   -25149.797    1814.7047    1.1610133    30.985945    30.985945    30.985945    29750.497 
 3974000    308.26824   -2750.9689   -23164.983   -25101.082    1936.0993    1.1610133    30.985945    30.985945    30.985945    29750.497 
 3975000    306.82624   -2828.5955   -23169.773   -25096.816    1927.0427    1.1610133    30.985945    30.985945    30.985945    29750.497 
 3976000    298.05624   -2731.8431   -23237.258    -25109.22    1871.9621    1.1610133    30.985945    30.985945    30.985945    29750.497 
 3977000    299.50963   -1474.6378   -23277.438   -25158.528    1881.0902    1.1610133    30.985945    30.985945    30.985945    29750.497 
 3978000    300.13541   -1212.3988   -23196.422   -25081.442    1885.0205    1.1610133    30.985945    30.985945    30.985945    29750.497 
 3979000    299.77593   -840.37698   -23223.472   -25106.235    1882.7628    1.1610133    30.985945    30.985945    30.985945    29750.497 
 3980000    305.13589   -2843.5383   -23178.144    -25094.57    1916.4263    1.1610133    30.985945    30.985945    30.985945    29750.497 
 3981000     298.2932   -3664.5002   -23281.772   -25155.222    1873.4504    1.1610133    30.985945    30.985945    30.985945    29750.497 
 3982000    291.20857   -3745.5273    -23301.28   -25130.235    1828.9549    1.1610133    30.985945    30.985945    30.985945    29750.497 
 3983000    304.72443    -2459.653   -23196.876   -25110.718    1913.8421    1.1610133    30.985945    30.985945    30.985945    29750.497 
 3984000    297.22032   -2286.4292   -23253.147   -25119.859     1866.712    1.1610133    30.985945    30.985945    30.985945    29750.497 
 3985000     300.8662   -2056.0253   -23274.015   -25163.625    1889.6103    1.1610133    30.985945    30.985945    30.985945    29750.497 
 3986000    300.29914   -1912.3277    -23309.34   -25195.389    1886.0488    1.1610133    30.985945    30.985945    30.985945    29750.497 
 3987000    307.68135   -3212.6422   -23165.514   -25097.928    1932.4133    1.1610133    30.985945    30.985945    30.985945    29750.497 
 3988000    292.75862   -2715.8888   -23292.998   -25131.688    1838.6901    1.1610133    30.985945    30.985945    30.985945    29750.497 
 3989000    307.69187   -1528.8117   -23209.265   -25141.745    1932.4793    1.1610133    30.985945    30.985945    30.985945    29750.497 
 3990000     302.7004   -2634.9338   -23303.327   -25204.457    1901.1301    1.1610133    30.985945    30.985945    30.985945    29750.497 
 3991000    288.50336   -2938.5311   -23306.389   -25118.353    1811.9646    1.1610133    30.985945    30.985945    30.985945    29750.497 
 3992000    303.67382   -2960.1161   -23288.909   -25196.153    1907.2437    1.1610133    30.985945    30.985945    30.985945    29750.497 
 3993000    307.78328   -2594.1189    -23344.38   -25277.434    1933.0535    1.1610133    30.985945    30.985945    30.985945    29750.497 
 3994000    298.13785   -2270.8957   -23305.941   -25178.416    1872.4747    1.1610133    30.985945    30.985945    30.985945    29750.497 
 3995000    287.54265   -1936.2935   -23291.759    -25097.69    1805.9308    1.1610133    30.985945    30.985945    30.985945    29750.497 
 3996000     299.8272   -2314.6112   -23296.515     -25179.6    1883.0848    1.1610133    30.985945    30.985945    30.985945    29750.497 
 3997000    299.05148   -1929.2244   -23311.347    -25189.56    1878.2128    1.1610133    30.985945    30.985945    30.985945    29750.497 
 3998000    294.84336   -2532.0344   -23305.479   -25157.262    1851.7834    1.1610133    30.985945    30.985945    30.985945    29750.497 
 3999000    297.54479   -1801.8417   -23358.554   -25227.304    1868.7499    1.1610133    30.985945    30.985945    30.985945    29750.497 
 4000000     302.7952   -2176.5848   -23305.081   -25206.807    1901.7255    1.1610133    30.985945    30.985945    30.985945    29750.497 
 4001000    294.93339   -2871.8642   -23330.425   -25182.774    1852.3488    1.1610133    30.985945    30.985945    30.985945    29750.497 
 4002000    299.41986   -3326.4627   -23292.105   -25172.632    1880.5264    1.1610133    30.985945    30.985945    30.985945    29750.497 
 4003000    303.70553   -2306.5384   -23192.992   -25100.435    1907.4428    1.1610133    30.985945    30.985945    30.985945    29750.497 
 4004000    306.83153   -2356.7828   -23148.172   -25075.248    1927.0759    1.1610133    30.985945    30.985945    30.985945    29750.497 
 4005000    305.97195   -2327.2211   -23164.467   -25086.144    1921.6773    1.1610133    30.985945    30.985945    30.985945    29750.497 
 4006000    303.47464   -1988.0682   -23219.497    -25125.49    1905.9927    1.1610133    30.985945    30.985945    30.985945    29750.497 
 4007000    304.53452    -3750.365   -23216.872   -25129.521    1912.6494    1.1610133    30.985945    30.985945    30.985945    29750.497 
 4008000    298.66515   -1355.5758   -23168.439   -25044.225    1875.7864    1.1610133    30.985945    30.985945    30.985945    29750.497 
 4009000    312.63511   -2420.5961   -23166.007   -25129.532    1963.5257    1.1610133    30.985945    30.985945    30.985945    29750.497 
 4010000    299.75923   -3091.6235   -23197.366   -25080.024    1882.6579    1.1610133    30.985945    30.985945    30.985945    29750.497 
 4011000    292.83988   -2390.1169   -23248.793   -25087.993    1839.2004    1.1610133    30.985945    30.985945    30.985945    29750.497 
 4012000    301.60351   -1874.3534   -23184.108   -25078.349     1894.241    1.1610133    30.985945    30.985945    30.985945    29750.497 
 4013000    299.78431   -1995.3743   -23222.239   -25105.054    1882.8154    1.1610133    30.985945    30.985945    30.985945    29750.497 
 4014000     309.2257   -1744.2393   -23072.671   -25014.783    1942.1126    1.1610133    30.985945    30.985945    30.985945    29750.497 
 4015000    298.85511   -2667.8728   -23217.342   -25094.322    1876.9795    1.1610133    30.985945    30.985945    30.985945    29750.497 
 4016000    311.26542   -2309.5565   -23215.165   -25170.089    1954.9232    1.1610133    30.985945    30.985945    30.985945    29750.497 
 4017000    292.56858   -2295.3721   -23220.542   -25058.039    1837.4965    1.1610133    30.985945    30.985945    30.985945    29750.497 
 4018000    298.15814    -2441.325   -23230.392   -25102.994    1872.6021    1.1610133    30.985945    30.985945    30.985945    29750.497 
 4019000     291.7424   -2584.0563   -23290.994   -25123.302    1832.3076    1.1610133    30.985945    30.985945    30.985945    29750.497 
 4020000     295.8448   -2858.2546   -23262.988   -25121.062     1858.073    1.1610133    30.985945    30.985945    30.985945    29750.497 
 4021000    304.50312    -3200.866   -23295.115   -25207.567    1912.4522    1.1610133    30.985945    30.985945    30.985945    29750.497 
 4022000    295.80644   -2403.6833    -23333.46   -25191.292    1857.8321    1.1610133    30.985945    30.985945    30.985945    29750.497 
 4023000    293.95732   -2616.8629   -23381.914   -25228.132    1846.2186    1.1610133    30.985945    30.985945    30.985945    29750.497 
 4024000    295.05999   -1825.2394   -23346.108   -25199.252     1853.144    1.1610133    30.985945    30.985945    30.985945    29750.497 
 4025000     301.5921   -3109.5022   -23222.318   -25116.488    1894.1693    1.1610133    30.985945    30.985945    30.985945    29750.497 
 4026000    309.79632   -2721.7117   -23240.329   -25186.025    1945.6965    1.1610133    30.985945    30.985945    30.985945    29750.497 
 4027000    295.08857   -1084.9936   -23293.888   -25147.211    1853.3235    1.1610133    30.985945    30.985945    30.985945    29750.497 
 4028000    307.57273   -2987.2895   -23266.669     -25198.4    1931.7311    1.1610133    30.985945    30.985945    30.985945    29750.497 
 4029000    300.39726    -3836.102   -23401.412   -25288.077    1886.6651    1.1610133    30.985945    30.985945    30.985945    29750.497 
 4030000    298.23799   -2620.7376   -23379.498   -25252.601    1873.1036    1.1610133    30.985945    30.985945    30.985945    29750.497 
 4031000    297.77809   -2318.8992   -23277.481   -25147.696    1870.2152    1.1610133    30.985945    30.985945    30.985945    29750.497 
 4032000    299.40813    -2505.803   -23237.434   -25117.887    1880.4528    1.1610133    30.985945    30.985945    30.985945    29750.497 
 4033000     292.4311   -2765.6673   -23308.018   -25144.651    1836.6331    1.1610133    30.985945    30.985945    30.985945    29750.497 
 4034000    294.17675   -2530.4752   -23308.862   -25156.459    1847.5967    1.1610133    30.985945    30.985945    30.985945    29750.497 
 4035000    292.48202   -1251.9246   -23319.509   -25156.462    1836.9528    1.1610133    30.985945    30.985945    30.985945    29750.497 
 4036000    301.46229   -2736.2952   -23310.694   -25204.048     1893.354    1.1610133    30.985945    30.985945    30.985945    29750.497 
 4037000     302.9013   -2501.8938    -23243.25   -25145.642    1902.3918    1.1610133    30.985945    30.985945    30.985945    29750.497 
 4038000    293.64392   -1783.2351   -23329.076   -25173.326    1844.2502    1.1610133    30.985945    30.985945    30.985945    29750.497 
 4039000    297.82922   -3374.9554   -23385.115   -25255.651    1870.5363    1.1610133    30.985945    30.985945    30.985945    29750.497 
 4040000    300.15886   -3315.4534    -23318.62   -25203.788    1885.1678    1.1610133    30.985945    30.985945    30.985945    29750.497 
 4041000    303.73304   -2464.7056   -23257.531   -25165.146    1907.6157    1.1610133    30.985945    30.985945    30.985945    29750.497 
 4042000     296.9127    -2278.942   -23306.752   -25171.532    1864.7801    1.1610133    30.985945    30.985945    30.985945    29750.497 
 4043000    300.23678    -2283.646   -23218.907   -25104.564    1885.6571    1.1610133    30.985945    30.985945    30.985945    29750.497 
 4044000    291.05874   -2932.4488   -23325.569   -25153.583    1828.0139    1.1610133    30.985945    30.985945    30.985945    29750.497 
 4045000    301.37803   -3059.1341     -23305.3   -25198.125    1892.8248    1.1610133    30.985945    30.985945    30.985945    29750.497 
 4046000     308.1785   -2474.9783   -23147.039   -25082.575    1935.5357    1.1610133    30.985945    30.985945    30.985945    29750.497 
 4047000    296.68964   -2618.0969   -23185.327   -25048.706    1863.3791    1.1610133    30.985945    30.985945    30.985945    29750.497 
 4048000      296.982   -1685.5607   -23222.677   -25087.892    1865.2153    1.1610133    30.985945    30.985945    30.985945    29750.497 
 4049000    302.56263   -2114.9597   -23131.774   -25032.039    1900.2648    1.1610133    30.985945    30.985945    30.985945    29750.497 
 4050000    302.93652   -1997.5559   -23180.949   -25083.562     1902.613    1.1610133    30.985945    30.985945    30.985945    29750.497 
 4051000    302.68719   -2582.4609   -23183.665   -25084.713    1901.0471    1.1610133    30.985945    30.985945    30.985945    29750.497 
 4052000    302.86972   -1442.0744   -23198.588   -25100.781    1902.1935    1.1610133    30.985945    30.985945    30.985945    29750.497 
 4053000    294.86769   -3450.3394   -23245.031   -25096.967    1851.9362    1.1610133    30.985945    30.985945    30.985945    29750.497 
 4054000    294.95068   -3133.3422   -23302.351   -25154.809    1852.4575    1.1610133    30.985945    30.985945    30.985945    29750.497 
 4055000    298.24668   -2049.4356   -23362.228   -25235.386    1873.1582    1.1610133    30.985945    30.985945    30.985945    29750.497 
 4056000    298.34373   -3030.9522   -23431.926   -25305.694    1873.7677    1.1610133    30.985945    30.985945    30.985945    29750.497 
 4057000    295.97923   -2495.5476   -23307.527   -25166.444    1858.9173    1.1610133    30.985945    30.985945    30.985945    29750.497 
 4058000    296.07217   -1987.4729   -23301.122   -25160.623     1859.501    1.1610133    30.985945    30.985945    30.985945    29750.497 
 4059000    308.22815   -1438.6293   -23299.754   -25235.601    1935.8475    1.1610133    30.985945    30.985945    30.985945    29750.497 
 4060000    304.40293   -1607.6246     -23245.8   -25157.623    1911.8229    1.1610133    30.985945    30.985945    30.985945    29750.497 
 4061000    302.14944   -2161.4392   -23265.377   -25163.047    1897.6697    1.1610133    30.985945    30.985945    30.985945    29750.497 
 4062000    290.45527   -2526.5421   -23372.624   -25196.848    1824.2237    1.1610133    30.985945    30.985945    30.985945    29750.497 
 4063000    296.58029   -2034.0259    -23280.58   -25143.272    1862.6923    1.1610133    30.985945    30.985945    30.985945    29750.497 
 4064000    299.96913   -3279.1952   -23270.063   -25154.039    1883.9762    1.1610133    30.985945    30.985945    30.985945    29750.497 
 4065000    297.01668   -3079.7856   -23346.165   -25211.598    1865.4331    1.1610133    30.985945    30.985945    30.985945    29750.497 
 4066000    294.37442   -2069.2234   -23302.346   -25151.184    1848.8382    1.1610133    30.985945    30.985945    30.985945    29750.497 
 4067000    296.60341   -2780.4855   -23237.254   -25100.091    1862.8375    1.1610133    30.985945    30.985945    30.985945    29750.497 
 4068000    297.82608   -3026.4403   -23279.952   -25150.469    1870.5166    1.1610133    30.985945    30.985945    30.985945    29750.497 
 4069000    299.06903   -2118.2856   -23220.812   -25099.135     1878.323    1.1610133    30.985945    30.985945    30.985945    29750.497 
 4070000     305.4163   -2078.7292   -23265.491   -25183.679    1918.1875    1.1610133    30.985945    30.985945    30.985945    29750.497 
 4071000    295.17727    -2676.719   -23372.725   -25226.605    1853.8806    1.1610133    30.985945    30.985945    30.985945    29750.497 
 4072000    291.99399   -2930.6443   -23261.852    -25095.74    1833.8877    1.1610133    30.985945    30.985945    30.985945    29750.497 
 4073000    307.62036   -2355.8737   -23165.475   -25097.505    1932.0302    1.1610133    30.985945    30.985945    30.985945    29750.497 
 4074000    296.24406   -2057.9785   -23300.983   -25161.564    1860.5806    1.1610133    30.985945    30.985945    30.985945    29750.497 
 4075000     288.9906   -2112.9299   -23325.105   -25140.129    1815.0247    1.1610133    30.985945    30.985945    30.985945    29750.497 
 4076000    291.23421   -1978.8367   -23349.853   -25178.969    1829.1159    1.1610133    30.985945    30.985945    30.985945    29750.497 
 4077000    300.59781   -2547.9127     -23259.7   -25147.624    1887.9246    1.1610133    30.985945    30.985945    30.985945    29750.497 
 4078000    302.11207   -2765.8102   -23172.536   -25069.971     1897.435    1.1610133    30.985945    30.985945    30.985945    29750.497 
 4079000    294.67496   -2186.7827   -23241.896   -25092.621    1850.7257    1.1610133    30.985945    30.985945    30.985945    29750.497 
 4080000    300.48468   -2127.5874   -23160.539   -25047.753    1887.2141    1.1610133    30.985945    30.985945    30.985945    29750.497 
 4081000    304.81262   -2782.3608   -23283.097   -25197.493     1914.396    1.1610133    30.985945    30.985945    30.985945    29750.497 
 4082000    288.76758   -2453.0057   -23330.272   -25143.896    1813.6241    1.1610133    30.985945    30.985945    30.985945    29750.497 
 4083000    291.32439     -2453.64   -23297.831   -25127.513    1829.6823    1.1610133    30.985945    30.985945    30.985945    29750.497 
 4084000    291.63594    -3024.748   -23356.676   -25188.315     1831.639    1.1610133    30.985945    30.985945    30.985945    29750.497 
 4085000    290.73247   -1247.3033   -23305.138   -25131.103    1825.9647    1.1610133    30.985945    30.985945    30.985945    29750.497 
 4086000    300.39447   -2407.9948   -23284.177   -25170.825    1886.6476    1.1610133    30.985945    30.985945    30.985945    29750.497 
 4087000    291.08392   -1054.6819   -23299.919   -25128.091     1828.172    1.1610133    30.985945    30.985945    30.985945    29750.497 
 4088000    287.94128   -1638.9347   -23293.911   -25102.345    1808.4344    1.1610133    30.985945    30.985945    30.985945    29750.497 
 4089000    304.04284   -1153.0041   -23144.826   -25054.387    1909.5614    1.1610133    30.985945    30.985945    30.985945    29750.497 
 4090000    298.49693   -2281.8569   -23213.364   -25088.094    1874.7299    1.1610133    30.985945    30.985945    30.985945    29750.497 
 4091000    300.79667   -2634.0536   -23335.625   -25224.798    1889.1736    1.1610133    30.985945    30.985945    30.985945    29750.497 
 4092000    303.11383   -2643.3478   -23218.323    -25122.05    1903.7267    1.1610133    30.985945    30.985945    30.985945    29750.497 
 4093000     289.2663   -2612.4691   -23325.347   -25142.103    1816.7563    1.1610133    30.985945    30.985945    30.985945    29750.497 
 4094000    302.04388   -3616.2423   -23319.461   -25216.468    1897.0067    1.1610133    30.985945    30.985945    30.985945    29750.497 
 4095000     301.1584   -1996.5225   -23252.624   -25144.069    1891.4454    1.1610133    30.985945    30.985945    30.985945    29750.497 
 4096000    299.08203   -2220.1095   -23257.034   -25135.438    1878.4046    1.1610133    30.985945    30.985945    30.985945    29750.497 
 4097000    297.89642   -2443.1812   -23326.732   -25197.691    1870.9584    1.1610133    30.985945    30.985945    30.985945    29750.497 
 4098000    294.84137   -2356.8768   -23280.151   -25131.922    1851.7709    1.1610133    30.985945    30.985945    30.985945    29750.497 
 4099000    299.38998   -2512.4123    -23206.33   -25086.668    1880.3387    1.1610133    30.985945    30.985945    30.985945    29750.497 
 4100000    301.63807   -3359.7683   -23203.438   -25097.896    1894.4581    1.1610133    30.985945    30.985945    30.985945    29750.497 
 4101000    299.70607   -1893.7016   -23323.754   -25206.078     1882.324    1.1610133    30.985945    30.985945    30.985945    29750.497 
 4102000    310.21847   -2947.1507   -23142.536   -25090.883    1948.3478    1.1610133    30.985945    30.985945    30.985945    29750.497 
 4103000    300.11042   -2714.4027    -23267.64   -25152.504    1884.8635    1.1610133    30.985945    30.985945    30.985945    29750.497 
 4104000    305.84148   -2594.2644   -23231.423    -25152.28    1920.8578    1.1610133    30.985945    30.985945    30.985945    29750.497 
 4105000    297.31988   -3181.9071   -23277.339   -25144.676    1867.3374    1.1610133    30.985945    30.985945    30.985945    29750.497 
 4106000    287.90542   -2646.4917   -23386.247   -25194.457    1808.2092    1.1610133    30.985945    30.985945    30.985945    29750.497 
 4107000    288.32409   -3002.3447   -23352.875   -25163.714    1810.8387    1.1610133    30.985945    30.985945    30.985945    29750.497 
 4108000    299.08492   -2032.9926   -23242.229   -25120.652    1878.4228    1.1610133    30.985945    30.985945    30.985945    29750.497 
 4109000    296.53571   -2778.6582   -23324.945   -25187.358    1862.4124    1.1610133    30.985945    30.985945    30.985945    29750.497 
 4110000    301.72939   -2383.6444   -23208.775   -25103.806    1895.0316    1.1610133    30.985945    30.985945    30.985945    29750.497 
 4111000    297.67229   -2837.8433   -23190.322   -25059.873    1869.5507    1.1610133    30.985945    30.985945    30.985945    29750.497 
 4112000    298.04722   -3302.6811   -23315.325    -25187.23    1871.9055    1.1610133    30.985945    30.985945    30.985945    29750.497 
 4113000    312.97488   -1695.8491   -23128.447   -25094.107    1965.6596    1.1610133    30.985945    30.985945    30.985945    29750.497 
 4114000    298.84958   -2271.4234   -23226.069   -25103.013    1876.9447    1.1610133    30.985945    30.985945    30.985945    29750.497 
 4115000    297.13881   -3231.7566   -23296.757   -25162.957    1866.2001    1.1610133    30.985945    30.985945    30.985945    29750.497 
 4116000    295.31494   -3550.4865   -23270.512   -25125.257    1854.7452    1.1610133    30.985945    30.985945    30.985945    29750.497 
 4117000    296.49942   -2441.6891    -23286.67   -25148.854    1862.1844    1.1610133    30.985945    30.985945    30.985945    29750.497 
 4118000    306.10893    -1893.302   -23236.011   -25158.549    1922.5376    1.1610133    30.985945    30.985945    30.985945    29750.497 
 4119000    305.18539   -3491.4219   -23156.102    -25072.84    1916.7372    1.1610133    30.985945    30.985945    30.985945    29750.497 
 4120000    300.36872   -2518.1741   -23237.466   -25123.952    1886.4858    1.1610133    30.985945    30.985945    30.985945    29750.497 
 4121000    293.38035    -2762.306    -23306.05   -25148.644    1842.5949    1.1610133    30.985945    30.985945    30.985945    29750.497 
 4122000    302.14033   -3594.4873   -23180.096   -25077.708    1897.6125    1.1610133    30.985945    30.985945    30.985945    29750.497 
 4123000     296.6495   -3098.5661   -23283.769   -25146.896     1863.127    1.1610133    30.985945    30.985945    30.985945    29750.497 
 4124000    293.36589   -2656.4106   -23356.697   -25199.201    1842.5041    1.1610133    30.985945    30.985945    30.985945    29750.497 
 4125000    294.85891   -2526.2341   -23282.992   -25134.874    1851.8811    1.1610133    30.985945    30.985945    30.985945    29750.497 
 4126000    304.00248   -1389.5328   -23141.575   -25050.883    1909.3078    1.1610133    30.985945    30.985945    30.985945    29750.497 
 4127000     299.5251    -2182.867   -23207.164   -25088.352    1881.1874    1.1610133    30.985945    30.985945    30.985945    29750.497 
 4128000    302.38487   -3245.7508   -23190.563   -25089.711    1899.1484    1.1610133    30.985945    30.985945    30.985945    29750.497 
 4129000    299.88648   -2884.5561    -23291.64   -25175.097     1883.457    1.1610133    30.985945    30.985945    30.985945    29750.497 
 4130000    296.77364   -2239.4691   -23267.814    -25131.72    1863.9067    1.1610133    30.985945    30.985945    30.985945    29750.497 
 4131000    301.29469    -2329.167   -23334.495   -25226.796    1892.3014    1.1610133    30.985945    30.985945    30.985945    29750.497 
 4132000    305.20329   -2992.3168   -23232.662   -25149.512    1916.8496    1.1610133    30.985945    30.985945    30.985945    29750.497 
 4133000    296.46104   -1874.1138   -23308.013   -25169.957    1861.9433    1.1610133    30.985945    30.985945    30.985945    29750.497 
 4134000     306.8936   -2370.4225   -23171.003   -25098.469    1927.4657    1.1610133    30.985945    30.985945    30.985945    29750.497 
 4135000    298.63672   -2529.0481   -23197.549   -25073.157    1875.6079    1.1610133    30.985945    30.985945    30.985945    29750.497 
 4136000    306.47389    -2308.658   -23272.498   -25197.328    1924.8297    1.1610133    30.985945    30.985945    30.985945    29750.497 
 4137000    302.26601    -2432.589   -23342.416   -25240.818    1898.4019    1.1610133    30.985945    30.985945    30.985945    29750.497 
 4138000    289.82736   -2718.7173   -23346.105   -25166.385    1820.2801    1.1610133    30.985945    30.985945    30.985945    29750.497 
 4139000     294.9023   -2327.3934   -23303.661   -25155.815    1852.1536    1.1610133    30.985945    30.985945    30.985945    29750.497 
 4140000    296.03608   -3005.0365   -23268.921   -25128.195    1859.2744    1.1610133    30.985945    30.985945    30.985945    29750.497 
 4141000    292.55332   -2794.2798   -23363.992   -25201.393    1837.4007    1.1610133    30.985945    30.985945    30.985945    29750.497 
 4142000    287.05502    -1845.279   -23242.474   -25045.343    1802.8682    1.1610133    30.985945    30.985945    30.985945    29750.497 
 4143000    308.14613   -2338.0501   -23218.427   -25153.759    1935.3323    1.1610133    30.985945    30.985945    30.985945    29750.497 
 4144000    291.91451   -2778.2366   -23241.604   -25074.992    1833.3886    1.1610133    30.985945    30.985945    30.985945    29750.497 
 4145000    300.14045   -1821.5489   -23238.639   -25123.691    1885.0521    1.1610133    30.985945    30.985945    30.985945    29750.497 
 4146000    296.70084   -2198.2598   -23354.944   -25218.394    1863.4494    1.1610133    30.985945    30.985945    30.985945    29750.497 
 4147000    297.41384   -2288.6846   -23311.198   -25179.126    1867.9275    1.1610133    30.985945    30.985945    30.985945    29750.497 
 4148000    292.71993   -3532.5474   -23409.803    -25248.25    1838.4471    1.1610133    30.985945    30.985945    30.985945    29750.497 
 4149000    298.36525    -3057.599    -23284.69   -25158.593    1873.9029    1.1610133    30.985945    30.985945    30.985945    29750.497 
 4150000    300.46463   -2208.8481   -23301.173   -25188.261    1887.0882    1.1610133    30.985945    30.985945    30.985945    29750.497 
 4151000     294.7353   -3012.5919   -23378.441   -25229.546    1851.1047    1.1610133    30.985945    30.985945    30.985945    29750.497 
 4152000    306.47258   -2850.7469   -23238.865   -25163.686    1924.8215    1.1610133    30.985945    30.985945    30.985945    29750.497 
 4153000    297.29996   -2146.2567   -23347.344   -25214.556    1867.2123    1.1610133    30.985945    30.985945    30.985945    29750.497 
 4154000    301.04898   -2518.5595   -23261.031   -25151.789    1890.7583    1.1610133    30.985945    30.985945    30.985945    29750.497 
 4155000    298.86234    -2624.888    -23236.39   -25113.415    1877.0249    1.1610133    30.985945    30.985945    30.985945    29750.497 
 4156000    291.66411    -3073.786    -23217.79   -25049.606    1831.8159    1.1610133    30.985945    30.985945    30.985945    29750.497 
 4157000    303.76501   -2449.5865   -23182.444    -25090.26    1907.8164    1.1610133    30.985945    30.985945    30.985945    29750.497 
 4158000    291.16814   -973.35735    -23206.05   -25034.751    1828.7009    1.1610133    30.985945    30.985945    30.985945    29750.497 
 4159000    290.74899   -1539.3801   -23229.678   -25055.747    1826.0685    1.1610133    30.985945    30.985945    30.985945    29750.497 
 4160000     302.1422   -1355.3423   -23186.219   -25083.843    1897.6242    1.1610133    30.985945    30.985945    30.985945    29750.497 
 4161000    304.29147   -1664.8139   -23246.757    -25157.88    1911.1229    1.1610133    30.985945    30.985945    30.985945    29750.497 
 4162000    296.84079   -2386.8135   -23250.988   -25115.316    1864.3284    1.1610133    30.985945    30.985945    30.985945    29750.497 
 4163000    303.38785    -2415.639   -23137.925   -25043.372    1905.4476    1.1610133    30.985945    30.985945    30.985945    29750.497 
 4164000    291.74539   -999.97833     -23180.4   -25012.726    1832.3264    1.1610133    30.985945    30.985945    30.985945    29750.497 
 4165000    288.07955   -1453.0221   -23247.601   -25056.904    1809.3029    1.1610133    30.985945    30.985945    30.985945    29750.497 
 4166000    299.96866   -2388.2675   -23271.121   -25155.094    1883.9732    1.1610133    30.985945    30.985945    30.985945    29750.497 
 4167000    303.10668   -2914.2711   -23106.853   -25010.535    1903.6818    1.1610133    30.985945    30.985945    30.985945    29750.497 
 4168000    300.74416   -2848.0228   -23203.838   -25092.682    1888.8438    1.1610133    30.985945    30.985945    30.985945    29750.497 
 4169000    290.77401   -2475.9311   -23324.845   -25151.071    1826.2256    1.1610133    30.985945    30.985945    30.985945    29750.497 
 4170000    301.49163   -2106.9176   -23174.031   -25067.569    1893.5383    1.1610133    30.985945    30.985945    30.985945    29750.497 
 4171000    294.72481   -2239.9172   -23183.154   -25034.193    1851.0389    1.1610133    30.985945    30.985945    30.985945    29750.497 
 4172000    298.64379   -2251.5095   -23209.341   -25084.993    1875.6523    1.1610133    30.985945    30.985945    30.985945    29750.497 
 4173000    297.74464    -2736.012   -23125.423   -24995.428    1870.0051    1.1610133    30.985945    30.985945    30.985945    29750.497 
 4174000    294.53189   -2753.3931   -23254.903    -25104.73    1849.8272    1.1610133    30.985945    30.985945    30.985945    29750.497 
 4175000    302.02164   -2754.4686   -23212.655   -25109.522    1896.8671    1.1610133    30.985945    30.985945    30.985945    29750.497 
 4176000     297.6469   -2635.7466   -23313.205   -25182.596    1869.3912    1.1610133    30.985945    30.985945    30.985945    29750.497 
 4177000    298.53474   -2316.3391   -23194.332   -25069.299    1874.9674    1.1610133    30.985945    30.985945    30.985945    29750.497 
 4178000    293.07688   -2115.0427   -23253.112   -25093.801    1840.6889    1.1610133    30.985945    30.985945    30.985945    29750.497 
 4179000    295.03557   -2134.2428   -23279.345   -25132.336    1852.9906    1.1610133    30.985945    30.985945    30.985945    29750.497 
 4180000    294.17734   -1957.7255   -23353.054   -25200.654    1847.6004    1.1610133    30.985945    30.985945    30.985945    29750.497 
 4181000    303.95682   -1929.8748    -23290.45   -25199.472    1909.0211    1.1610133    30.985945    30.985945    30.985945    29750.497 
 4182000    302.36085   -2014.1296   -23258.324   -25157.322    1898.9975    1.1610133    30.985945    30.985945    30.985945    29750.497 
 4183000    298.01787   -966.44292   -23218.461   -25090.182    1871.7211    1.1610133    30.985945    30.985945    30.985945    29750.497 
 4184000     295.9412   -2824.2631   -23265.984   -25124.663    1858.6785    1.1610133    30.985945    30.985945    30.985945    29750.497 
 4185000    296.49773   -3678.7668   -23072.341   -24934.515    1862.1738    1.1610133    30.985945    30.985945    30.985945    29750.497 
 4186000    297.23108   -3479.2188   -23160.475   -25027.254    1866.7796    1.1610133    30.985945    30.985945    30.985945    29750.497 
 4187000    297.79163   -3593.7705   -23243.722   -25114.022    1870.3002    1.1610133    30.985945    30.985945    30.985945    29750.497 
 4188000    291.50664   -2872.5883   -23291.432   -25122.259    1830.8269    1.1610133    30.985945    30.985945    30.985945    29750.497 
 4189000    305.07979   -2468.9214   -23113.989   -25030.063     1916.074    1.1610133    30.985945    30.985945    30.985945    29750.497 
 4190000    298.24602   -2543.5838   -23218.465   -25091.619    1873.1541    1.1610133    30.985945    30.985945    30.985945    29750.497 
 4191000    298.99195   -1080.9867   -23239.411    -25117.25    1877.8389    1.1610133    30.985945    30.985945    30.985945    29750.497 
 4192000    300.81912   -2724.6198   -23258.904   -25148.218    1889.3145    1.1610133    30.985945    30.985945    30.985945    29750.497 
 4193000    305.56384   -2070.2006   -23259.789   -25178.903    1919.1141    1.1610133    30.985945    30.985945    30.985945    29750.497 
 4194000    298.03211   -1582.0023   -23156.072   -25027.883    1871.8106    1.1610133    30.985945    30.985945    30.985945    29750.497 
 4195000    291.56107   -3329.5762    -23241.81   -25072.979    1831.1688    1.1610133    30.985945    30.985945    30.985945    29750.497 
 4196000    309.74529   -2400.7994    -23177.36   -25122.736     1945.376    1.1610133    30.985945    30.985945    30.985945    29750.497 
 4197000    295.65079   -2709.3753   -23200.566   -25057.421    1856.8545    1.1610133    30.985945    30.985945    30.985945    29750.497 
 4198000    299.94263   -1043.4557   -23182.374   -25066.184    1883.8097    1.1610133    30.985945    30.985945    30.985945    29750.497 
 4199000    296.09978   -2130.6395   -23397.916    -25257.59    1859.6745    1.1610133    30.985945    30.985945    30.985945    29750.497 
 4200000    292.78091   -2340.5827   -23258.291   -25097.121    1838.8301    1.1610133    30.985945    30.985945    30.985945    29750.497 
 4201000    296.73627   -3347.3563   -23290.758    -25154.43    1863.6719    1.1610133    30.985945    30.985945    30.985945    29750.497 
 4202000    295.59916   -1977.4301   -23289.755   -25146.285    1856.5303    1.1610133    30.985945    30.985945    30.985945    29750.497 
 4203000    311.89476   -2718.9135   -23184.127   -25143.003    1958.8759    1.1610133    30.985945    30.985945    30.985945    29750.497 
 4204000    298.39644   -2528.4622   -23257.692    -25131.79    1874.0988    1.1610133    30.985945    30.985945    30.985945    29750.497 
 4205000    292.04655   -2408.2238   -23280.669   -25114.887    1834.2179    1.1610133    30.985945    30.985945    30.985945    29750.497 
 4206000    308.03121   -3068.6281   -23171.071   -25105.681    1934.6106    1.1610133    30.985945    30.985945    30.985945    29750.497 
 4207000    298.66272   -1762.9218   -23195.523   -25071.294    1875.7712    1.1610133    30.985945    30.985945    30.985945    29750.497 
 4208000    297.75722   -3182.3648   -23239.063   -25109.147    1870.0841    1.1610133    30.985945    30.985945    30.985945    29750.497 
 4209000    303.35463   -3183.2521   -23170.356   -25075.595     1905.239    1.1610133    30.985945    30.985945    30.985945    29750.497 
 4210000    296.16907    -2494.934   -23242.726   -25102.836    1860.1096    1.1610133    30.985945    30.985945    30.985945    29750.497 
 4211000    303.35596   -3163.4224   -23292.608   -25197.856    1905.2474    1.1610133    30.985945    30.985945    30.985945    29750.497 
 4212000     295.5179   -2867.9215   -23262.267   -25118.287    1856.0199    1.1610133    30.985945    30.985945    30.985945    29750.497 
 4213000     308.0264   -2891.6725   -23234.566   -25169.146    1934.5803    1.1610133    30.985945    30.985945    30.985945    29750.497 
 4214000    301.99272   -2534.7391   -23232.961   -25129.646    1896.6854    1.1610133    30.985945    30.985945    30.985945    29750.497 
 4215000    292.03618   -2292.5157   -23248.942   -25083.094    1834.1528    1.1610133    30.985945    30.985945    30.985945    29750.497 
 4216000    294.27964   -2765.3786   -23304.882   -25153.125     1848.243    1.1610133    30.985945    30.985945    30.985945    29750.497 
 4217000    292.41194   -3045.1294   -23261.884   -25098.397    1836.5127    1.1610133    30.985945    30.985945    30.985945    29750.497 
 4218000    295.06421   -2280.1282   -23327.107   -25180.278    1853.1705    1.1610133    30.985945    30.985945    30.985945    29750.497 
 4219000    296.90844   -2650.4856   -23235.798   -25100.551    1864.7533    1.1610133    30.985945    30.985945    30.985945    29750.497 
 4220000    300.93439   -2415.9118   -23244.367   -25134.405    1890.0385    1.1610133    30.985945    30.985945    30.985945    29750.497 
 4221000    296.54185   -2774.6663   -23298.215   -25160.666    1862.4509    1.1610133    30.985945    30.985945    30.985945    29750.497 
 4222000    294.37124   -2095.8568   -23303.337   -25152.155    1848.8182    1.1610133    30.985945    30.985945    30.985945    29750.497 
 4223000    298.54275   -3439.8878   -23303.765   -25178.783    1875.0176    1.1610133    30.985945    30.985945    30.985945    29750.497 
 4224000    299.24589    -2876.936   -23246.189   -25125.623    1879.4338    1.1610133    30.985945    30.985945    30.985945    29750.497 
 4225000    300.27588   -2286.7714   -23303.516   -25189.418    1885.9027    1.1610133    30.985945    30.985945    30.985945    29750.497 
 4226000    288.83894   -1890.8279   -23378.195   -25192.268    1814.0722    1.1610133    30.985945    30.985945    30.985945    29750.497 
 4227000    306.38075    -2912.705   -23249.955   -25174.199    1924.2448    1.1610133    30.985945    30.985945    30.985945    29750.497 
 4228000    295.54357   -2574.8358   -23315.641   -25171.822    1856.1811    1.1610133    30.985945    30.985945    30.985945    29750.497 
 4229000     304.8616   -2170.4487   -23190.799   -25105.502    1914.7036    1.1610133    30.985945    30.985945    30.985945    29750.497 
 4230000    303.89534   -1759.2831    -23182.99   -25091.625     1908.635    1.1610133    30.985945    30.985945    30.985945    29750.497 
 4231000    293.75947     -2414.82   -23293.789   -25138.765    1844.9759    1.1610133    30.985945    30.985945    30.985945    29750.497 
 4232000    293.44929   -2828.6297   -23360.863   -25203.891    1843.0278    1.1610133    30.985945    30.985945    30.985945    29750.497 
 4233000    300.27609   -2204.0321   -23244.969   -25130.873    1885.9041    1.1610133    30.985945    30.985945    30.985945    29750.497 
 4234000    298.25681   -2647.9424   -23258.286   -25131.508    1873.2218    1.1610133    30.985945    30.985945    30.985945    29750.497 
 4235000    296.83381   -3046.6915   -23318.791   -25183.076    1864.2845    1.1610133    30.985945    30.985945    30.985945    29750.497 
 4236000     298.1995   -2606.2754   -23324.332   -25197.194    1872.8619    1.1610133    30.985945    30.985945    30.985945    29750.497 
 4237000    290.02496    -2786.675   -23314.328   -25135.849    1821.5211    1.1610133    30.985945    30.985945    30.985945    29750.497 
 4238000    297.84386   -3122.6357   -23371.229   -25241.858    1870.6283    1.1610133    30.985945    30.985945    30.985945    29750.497 
 4239000    289.91181   -3310.3276   -23317.652   -25138.462    1820.8105    1.1610133    30.985945    30.985945    30.985945    29750.497 
 4240000    298.13505   -3075.7746   -23195.948   -25068.405    1872.4571    1.1610133    30.985945    30.985945    30.985945    29750.497 
 4241000    300.81554   -2133.9775   -23199.189   -25088.481    1889.2921    1.1610133    30.985945    30.985945    30.985945    29750.497 
 4242000    289.53616   -3171.7799   -23275.589    -25094.04    1818.4512    1.1610133    30.985945    30.985945    30.985945    29750.497 
 4243000    296.50506   -2856.9846   -23314.405   -25176.625    1862.2198    1.1610133    30.985945    30.985945    30.985945    29750.497 
 4244000    296.30046   -1832.9218   -23310.674   -25171.608    1860.9348    1.1610133    30.985945    30.985945    30.985945    29750.497 
 4245000    299.41309   -2377.2471   -23164.205   -25044.689    1880.4839    1.1610133    30.985945    30.985945    30.985945    29750.497 
 4246000    315.55058   -1365.8923   -23193.152   -25174.988    1981.8365    1.1610133    30.985945    30.985945    30.985945    29750.497 
 4247000    293.74571   -2582.4788   -23360.132   -25205.021    1844.8896    1.1610133    30.985945    30.985945    30.985945    29750.497 
 4248000    300.04394   -2694.5014   -23356.372   -25240.818     1884.446    1.1610133    30.985945    30.985945    30.985945    29750.497 
 4249000    301.90828   -2092.5875    -23246.67   -25142.825    1896.1551    1.1610133    30.985945    30.985945    30.985945    29750.497 
 4250000    297.10907   -2754.3192    -23304.02   -25170.034    1866.0134    1.1610133    30.985945    30.985945    30.985945    29750.497 
 4251000     300.9083   -2756.7253    -23298.49   -25188.364    1889.8747    1.1610133    30.985945    30.985945    30.985945    29750.497 
 4252000     301.0206   -1922.5998   -23313.823   -25204.403      1890.58    1.1610133    30.985945    30.985945    30.985945    29750.497 
 4253000    303.80754   -2484.8343   -23172.724   -25080.808    1908.0835    1.1610133    30.985945    30.985945    30.985945    29750.497 
 4254000    299.85152    -2934.999   -23253.513    -25136.75    1883.2375    1.1610133    30.985945    30.985945    30.985945    29750.497 
 4255000    290.95087   -3165.5813   -23294.001   -25121.338    1827.3364    1.1610133    30.985945    30.985945    30.985945    29750.497 
 4256000     296.3279   -2953.3602    -23180.85   -25041.957    1861.1071    1.1610133    30.985945    30.985945    30.985945    29750.497 
 4257000    295.58303   -2315.6428   -23241.058   -25097.487     1856.429    1.1610133    30.985945    30.985945    30.985945    29750.497 
 4258000    295.05722   -1314.4323   -23265.871   -25118.998    1853.1265    1.1610133    30.985945    30.985945    30.985945    29750.497 
 4259000    296.20073   -3897.8333   -23264.686   -25124.995    1860.3085    1.1610133    30.985945    30.985945    30.985945    29750.497 
 4260000    285.76711    -1930.883    -23351.84   -25146.619    1794.7794    1.1610133    30.985945    30.985945    30.985945    29750.497 
 4261000    289.79408   -2503.0785   -23265.874   -25085.945    1820.0711    1.1610133    30.985945    30.985945    30.985945    29750.497 
 4262000    306.31892   -2291.2771   -23111.164    -25035.02    1923.8564    1.1610133    30.985945    30.985945    30.985945    29750.497 
 4263000    291.96269    -1906.064   -23350.549   -25184.241    1833.6912    1.1610133    30.985945    30.985945    30.985945    29750.497 
 4264000    299.68424   -3363.7045   -23245.989   -25128.176    1882.1869    1.1610133    30.985945    30.985945    30.985945    29750.497 
 4265000    301.77578   -2111.5689   -23285.818   -25181.141     1895.323    1.1610133    30.985945    30.985945    30.985945    29750.497 
 4266000     294.9642   -2463.2888   -23256.097   -25108.639    1852.5424    1.1610133    30.985945    30.985945    30.985945    29750.497 
 4267000    302.76524   -2517.1977   -23178.229   -25079.767    1901.5373    1.1610133    30.985945    30.985945    30.985945    29750.497 
 4268000    299.68204   -2667.7975   -23174.869   -25057.042    1882.1731    1.1610133    30.985945    30.985945    30.985945    29750.497 
 4269000    299.64427   -1914.8677   -23248.592   -25130.527    1881.9358    1.1610133    30.985945    30.985945    30.985945    29750.497 
 4270000    298.78699   -2128.1243   -23274.981   -25151.533    1876.5517    1.1610133    30.985945    30.985945    30.985945    29750.497 
 4271000    293.76416   -2713.5512    -23229.42   -25074.426    1845.0054    1.1610133    30.985945    30.985945    30.985945    29750.497 
 4272000    298.64785   -3086.4363   -23264.396   -25140.074    1875.6778    1.1610133    30.985945    30.985945    30.985945    29750.497 
 4273000    296.80913   -3175.2671    -23318.66    -25182.79    1864.1296    1.1610133    30.985945    30.985945    30.985945    29750.497 
 4274000    297.56811   -1868.8391   -23247.471   -25116.367    1868.8964    1.1610133    30.985945    30.985945    30.985945    29750.497 
 4275000    293.72904   -2725.9599   -23345.971   -25190.756    1844.7849    1.1610133    30.985945    30.985945    30.985945    29750.497 
 4276000    291.57289    -2392.182   -23324.885   -25156.128     1831.243    1.1610133    30.985945    30.985945    30.985945    29750.497 
 4277000    304.00963    -2258.372   -23203.608   -25112.961    1909.3528    1.1610133    30.985945    30.985945    30.985945    29750.497 
 4278000     300.3893   -2425.7619   -23282.262   -25168.877    1886.6151    1.1610133    30.985945    30.985945    30.985945    29750.497 
 4279000    302.23662   -2981.5528   -23172.636   -25070.853    1898.2172    1.1610133    30.985945    30.985945    30.985945    29750.497 
 4280000    287.32658    -2432.387    -23352.72   -25157.294    1804.5738    1.1610133    30.985945    30.985945    30.985945    29750.497 
 4281000    299.40038   -2658.2308    -23347.55   -25227.954    1880.4041    1.1610133    30.985945    30.985945    30.985945    29750.497 
 4282000    296.78247   -2493.2864    -23254.81   -25118.772    1863.9621    1.1610133    30.985945    30.985945    30.985945    29750.497 
 4283000    306.85082   -3272.1422   -23241.946   -25169.143    1927.1971    1.1610133    30.985945    30.985945    30.985945    29750.497 
 4284000     282.7359   -3290.0108   -23430.545   -25206.287    1775.7417    1.1610133    30.985945    30.985945    30.985945    29750.497 
 4285000    303.29777   -2691.2794   -23172.696   -25077.578    1904.8819    1.1610133    30.985945    30.985945    30.985945    29750.497 
 4286000    301.30283   -3490.8774   -23214.361   -25106.713    1892.3526    1.1610133    30.985945    30.985945    30.985945    29750.497 
 4287000    301.71837   -2545.0529   -23283.791   -25178.753    1894.9624    1.1610133    30.985945    30.985945    30.985945    29750.497 
 4288000    291.02686   -2725.3333   -23316.477   -25144.291    1827.8136    1.1610133    30.985945    30.985945    30.985945    29750.497 
 4289000    301.11164   -2889.4486   -23233.709   -25124.861    1891.1518    1.1610133    30.985945    30.985945    30.985945    29750.497 
 4290000    291.92782   -3463.4784   -23335.425   -25168.898    1833.4722    1.1610133    30.985945    30.985945    30.985945    29750.497 
 4291000     296.3406   -2551.9549   -23381.709   -25242.896    1861.1869    1.1610133    30.985945    30.985945    30.985945    29750.497 
 4292000    298.01589   -2691.1711   -23306.964   -25178.673    1871.7087    1.1610133    30.985945    30.985945    30.985945    29750.497 
 4293000    295.65187   -3381.7906   -23335.827   -25192.688    1856.8613    1.1610133    30.985945    30.985945    30.985945    29750.497 
 4294000    303.78359   -2639.9629   -23270.819   -25178.752    1907.9331    1.1610133    30.985945    30.985945    30.985945    29750.497 
 4295000    301.81115   -2294.6901   -23249.344    -25144.89    1895.5451    1.1610133    30.985945    30.985945    30.985945    29750.497 
 4296000    293.84181   -2892.8835   -23236.215   -25081.708    1845.4931    1.1610133    30.985945    30.985945    30.985945    29750.497 
 4297000    302.63858   -2635.6145    -23215.25   -25115.992    1900.7418    1.1610133    30.985945    30.985945    30.985945    29750.497 
 4298000    303.35783   -3402.3782   -23157.185   -25062.444    1905.2591    1.1610133    30.985945    30.985945    30.985945    29750.497 
 4299000    293.49836   -1409.8635    -23288.86   -25132.196     1843.336    1.1610133    30.985945    30.985945    30.985945    29750.497 
 4300000    307.90203   -3228.3913   -23208.874   -25142.673    1933.7992    1.1610133    30.985945    30.985945    30.985945    29750.497 
 4301000    290.28439   -2430.3976   -23265.683   -25088.834    1823.1505    1.1610133    30.985945    30.985945    30.985945    29750.497 
 4302000    305.64836   -3035.5885   -23167.523   -25087.168    1919.6449    1.1610133    30.985945    30.985945    30.985945    29750.497 
 4303000    300.07979   -2549.0244   -23233.406   -25118.077    1884.6711    1.1610133    30.985945    30.985945    30.985945    29750.497 
 4304000    300.32107   -2083.2043   -23295.387   -25181.574    1886.1865    1.1610133    30.985945    30.985945    30.985945    29750.497 
 4305000    294.58407   -2203.7646   -23353.062   -25203.216    1850.1549    1.1610133    30.985945    30.985945    30.985945    29750.497 
 4306000    301.23242   -2384.1341   -23283.866   -25175.776    1891.9103    1.1610133    30.985945    30.985945    30.985945    29750.497 
 4307000    297.65783   -2395.4519   -23252.751   -25122.211    1869.4599    1.1610133    30.985945    30.985945    30.985945    29750.497 
 4308000    293.30464   -2665.4962   -23330.244   -25172.363    1842.1194    1.1610133    30.985945    30.985945    30.985945    29750.497 
 4309000    300.86264   -2741.5294   -23276.115   -25165.703    1889.5879    1.1610133    30.985945    30.985945    30.985945    29750.497 
 4310000    298.45889   -2958.0494   -23282.529    -25157.02     1874.491    1.1610133    30.985945    30.985945    30.985945    29750.497 
 4311000    297.32852   -2119.3723   -23279.927   -25147.319    1867.3916    1.1610133    30.985945    30.985945    30.985945    29750.497 
 4312000    302.90766   -2579.6429   -23195.825   -25098.257    1902.4318    1.1610133    30.985945    30.985945    30.985945    29750.497 
 4313000    289.43687   -3398.1176   -23293.207   -25111.035    1817.8276    1.1610133    30.985945    30.985945    30.985945    29750.497 
 4314000    296.58698    -3139.434   -23270.283   -25133.017    1862.7343    1.1610133    30.985945    30.985945    30.985945    29750.497 
 4315000    299.33323   -2000.7679   -23286.508    -25166.49    1879.9823    1.1610133    30.985945    30.985945    30.985945    29750.497 
 4316000    299.87087   -1568.0437   -23262.566   -25145.925     1883.359    1.1610133    30.985945    30.985945    30.985945    29750.497 
 4317000    299.11371   -2179.1618   -23217.046    -25095.65    1878.6036    1.1610133    30.985945    30.985945    30.985945    29750.497 
 4318000     305.1161   -3117.5991   -23087.556   -25003.858     1916.302    1.1610133    30.985945    30.985945    30.985945    29750.497 
 4319000     294.8584   -2731.0909   -23269.567   -25121.445    1851.8779    1.1610133    30.985945    30.985945    30.985945    29750.497 
 4320000     294.5773   -2463.0454   -23241.903   -25092.015    1850.1124    1.1610133    30.985945    30.985945    30.985945    29750.497 
 4321000    296.34937   -2067.8144   -23228.814   -25090.056     1861.242    1.1610133    30.985945    30.985945    30.985945    29750.497 
 4322000    299.25154   -2033.5528   -23317.327   -25196.797    1879.4693    1.1610133    30.985945    30.985945    30.985945    29750.497 
 4323000    286.76694   -2931.0764   -23366.589   -25167.648    1801.0589    1.1610133    30.985945    30.985945    30.985945    29750.497 
 4324000    308.15596   -1831.4663   -23243.527   -25178.921    1935.3941    1.1610133    30.985945    30.985945    30.985945    29750.497 
 4325000    299.38671   -2276.8018    -23362.56   -25242.878    1880.3182    1.1610133    30.985945    30.985945    30.985945    29750.497 
 4326000    301.78019   -637.04818   -23298.198   -25193.549    1895.3506    1.1610133    30.985945    30.985945    30.985945    29750.497 
 4327000    298.55906   -2719.0357   -23326.561   -25201.681    1875.1201    1.1610133    30.985945    30.985945    30.985945    29750.497 
 4328000    293.28325     -2045.74   -23300.023   -25142.008     1841.985    1.1610133    30.985945    30.985945    30.985945    29750.497 
 4329000    301.17154   -2369.0559   -23305.413   -25196.941     1891.528    1.1610133    30.985945    30.985945    30.985945    29750.497 
 4330000    297.20447   -1359.3066   -23289.507   -25156.119    1866.6125    1.1610133    30.985945    30.985945    30.985945    29750.497 
 4331000    298.83286   -2652.8712   -23284.807   -25161.647    1876.8397    1.1610133    30.985945    30.985945    30.985945    29750.497 
 4332000     301.9367   -2795.8133   -23314.459   -25210.793    1896.3336    1.1610133    30.985945    30.985945    30.985945    29750.497 
 4333000    297.38932   -2206.1719   -23343.542   -25211.316    1867.7735    1.1610133    30.985945    30.985945    30.985945    29750.497 
 4334000    305.11325   -2791.5062   -23210.392   -25126.676    1916.2841    1.1610133    30.985945    30.985945    30.985945    29750.497 
 4335000    300.69717   -2446.3516   -23246.414   -25134.963    1888.5486    1.1610133    30.985945    30.985945    30.985945    29750.497 
 4336000    302.58324   -2036.4691   -23278.699   -25179.093    1900.3943    1.1610133    30.985945    30.985945    30.985945    29750.497 
 4337000    294.81984   -2749.8896   -23393.805    -25245.44    1851.6357    1.1610133    30.985945    30.985945    30.985945    29750.497 
 4338000    305.92049   -3114.2694   -23305.247   -25226.601     1921.354    1.1610133    30.985945    30.985945    30.985945    29750.497 
 4339000    297.12234   -3191.7278   -23266.999   -25133.096    1866.0967    1.1610133    30.985945    30.985945    30.985945    29750.497 
 4340000    299.07843   -1541.1568   -23307.069   -25185.451     1878.382    1.1610133    30.985945    30.985945    30.985945    29750.497 
 4341000    298.31834   -1888.2552   -23303.675   -25177.283    1873.6083    1.1610133    30.985945    30.985945    30.985945    29750.497 
 4342000    300.27379   -2923.9733   -23277.005   -25162.895    1885.8896    1.1610133    30.985945    30.985945    30.985945    29750.497 
 4343000    296.09508   -1950.5732   -23356.821   -25216.466    1859.6449    1.1610133    30.985945    30.985945    30.985945    29750.497 
 4344000    300.16223   -2502.3168   -23276.594   -25161.783    1885.1889    1.1610133    30.985945    30.985945    30.985945    29750.497 
 4345000    287.68945   -2857.6394   -23366.851   -25173.704    1806.8528    1.1610133    30.985945    30.985945    30.985945    29750.497 
 4346000    301.42984   -1435.8022   -23246.215   -25139.365    1893.1502    1.1610133    30.985945    30.985945    30.985945    29750.497 
 4347000    300.97771   -2761.3147   -23341.779    -25232.09    1890.3106    1.1610133    30.985945    30.985945    30.985945    29750.497 
 4348000    303.28989   -2961.1278   -23295.878   -25200.711    1904.8324    1.1610133    30.985945    30.985945    30.985945    29750.497 
 4349000    302.55745   -3112.3823   -23253.399   -25153.631    1900.2323    1.1610133    30.985945    30.985945    30.985945    29750.497 
 4350000    299.97191    -2193.596   -23225.276   -25109.269    1883.9936    1.1610133    30.985945    30.985945    30.985945    29750.497 
 4351000    299.18249   -2184.2421   -23295.457   -25174.493    1879.0356    1.1610133    30.985945    30.985945    30.985945    29750.497 
 4352000    296.37497   -3066.8703   -23324.298   -25185.701    1861.4028    1.1610133    30.985945    30.985945    30.985945    29750.497 
 4353000    308.10777   -3049.3269   -23181.718   -25116.809    1935.0914    1.1610133    30.985945    30.985945    30.985945    29750.497 
 4354000    286.16271   -2585.7886   -23309.294   -25106.558     1797.264    1.1610133    30.985945    30.985945    30.985945    29750.497 
 4355000    296.88198   -2687.9735   -23257.013     -25121.6    1864.5871    1.1610133    30.985945    30.985945    30.985945    29750.497 
 4356000    293.86661   -2594.1005   -23344.122    -25189.77    1845.6489    1.1610133    30.985945    30.985945    30.985945    29750.497 
 4357000    299.64127   -2426.3381   -23327.798   -25209.715     1881.917    1.1610133    30.985945    30.985945    30.985945    29750.497 
 4358000    301.10114    -2177.247   -23302.679   -25193.764    1891.0858    1.1610133    30.985945    30.985945    30.985945    29750.497 
 4359000    303.10206   -2651.0386   -23292.732   -25196.384    1903.6527    1.1610133    30.985945    30.985945    30.985945    29750.497 
 4360000    300.93918     -2449.38    -23328.59   -25218.658    1890.0686    1.1610133    30.985945    30.985945    30.985945    29750.497 
 4361000    307.67134   -2653.9071   -23252.651   -25185.002    1932.3504    1.1610133    30.985945    30.985945    30.985945    29750.497 
 4362000    301.73122   -2556.2015   -23276.157     -25171.2    1895.0431    1.1610133    30.985945    30.985945    30.985945    29750.497 
 4363000    303.06565   -1788.4546   -23180.056    -25083.48    1903.4241    1.1610133    30.985945    30.985945    30.985945    29750.497 
 4364000    303.51942   -2392.0474   -23281.102   -25187.376     1906.274    1.1610133    30.985945    30.985945    30.985945    29750.497 
 4365000    288.02902   -3134.9259   -23295.859   -25104.845    1808.9855    1.1610133    30.985945    30.985945    30.985945    29750.497 
 4366000    289.60926   -3222.2227   -23297.404   -25116.314    1818.9103    1.1610133    30.985945    30.985945    30.985945    29750.497 
 4367000    287.86262   -2483.6873   -23258.897   -25066.837    1807.9404    1.1610133    30.985945    30.985945    30.985945    29750.497 
 4368000    301.25283   -1342.4615   -23230.337   -25122.376    1892.0385    1.1610133    30.985945    30.985945    30.985945    29750.497 
 4369000    299.17741   -2696.0957   -23293.471   -25172.475    1879.0037    1.1610133    30.985945    30.985945    30.985945    29750.497 
 4370000    288.39007    -2693.095   -23353.084   -25164.337    1811.2531    1.1610133    30.985945    30.985945    30.985945    29750.497 
 4371000    296.39326   -2690.3376   -23319.126   -25180.644    1861.5176    1.1610133    30.985945    30.985945    30.985945    29750.497 
 4372000    293.82942   -2136.4388   -23329.313   -25174.728    1845.4153    1.1610133    30.985945    30.985945    30.985945    29750.497 
 4373000    300.54735   -2969.5734   -23271.867   -25159.474    1887.6077    1.1610133    30.985945    30.985945    30.985945    29750.497 
 4374000    301.18191   -3388.5603   -23200.124   -25091.718    1891.5931    1.1610133    30.985945    30.985945    30.985945    29750.497 
 4375000    309.98426   -2007.9342   -23224.367   -25171.244    1946.8768    1.1610133    30.985945    30.985945    30.985945    29750.497 
 4376000    296.43184   -2258.6651   -23285.348   -25147.108      1861.76    1.1610133    30.985945    30.985945    30.985945    29750.497 
 4377000    302.90767   -2731.0757    -23305.98   -25208.412    1902.4319    1.1610133    30.985945    30.985945    30.985945    29750.497 
 4378000    296.81755    -2789.238   -23267.839   -25132.021    1864.1824    1.1610133    30.985945    30.985945    30.985945    29750.497 
 4379000    301.32346   -1986.5851   -23252.231   -25144.714    1892.4821    1.1610133    30.985945    30.985945    30.985945    29750.497 
 4380000    298.86484   -1751.3346   -23309.965   -25187.006    1877.0406    1.1610133    30.985945    30.985945    30.985945    29750.497 
 4381000    295.90905   -1271.3941   -23326.334    -25184.81    1858.4765    1.1610133    30.985945    30.985945    30.985945    29750.497 
 4382000    293.05241   -3237.3384   -23379.876   -25220.411    1840.5353    1.1610133    30.985945    30.985945    30.985945    29750.497 
 4383000    300.55707    -2252.631   -23283.725   -25171.394    1887.6688    1.1610133    30.985945    30.985945    30.985945    29750.497 
 4384000    289.86519   -3579.7722   -23333.184   -25153.701    1820.5177    1.1610133    30.985945    30.985945    30.985945    29750.497 
 4385000    304.18315   -2128.0922    -23275.77   -25186.213    1910.4426    1.1610133    30.985945    30.985945    30.985945    29750.497 
 4386000    298.40758   -2581.3051   -23352.976   -25227.144    1874.1688    1.1610133    30.985945    30.985945    30.985945    29750.497 
 4387000    296.80499    -2086.875   -23232.318   -25096.422    1864.1036    1.1610133    30.985945    30.985945    30.985945    29750.497 
 4388000    301.67559   -2594.3235   -23261.997    -25156.69    1894.6937    1.1610133    30.985945    30.985945    30.985945    29750.497 
 4389000    298.69643   -2095.3062   -23261.268   -25137.251    1875.9829    1.1610133    30.985945    30.985945    30.985945    29750.497 
 4390000     295.8575   -1343.8584   -23295.398   -25153.551    1858.1528    1.1610133    30.985945    30.985945    30.985945    29750.497 
 4391000    299.43753   -2492.3908   -23245.928   -25126.565    1880.6374    1.1610133    30.985945    30.985945    30.985945    29750.497 
 4392000    296.00339   -3383.5967   -23301.206   -25160.275    1859.0691    1.1610133    30.985945    30.985945    30.985945    29750.497 
 4393000    293.22911   -2755.6406    -23247.03   -25088.675     1841.645    1.1610133    30.985945    30.985945    30.985945    29750.497 
 4394000    308.34726   -2845.1675   -23141.661   -25078.257    1936.5956    1.1610133    30.985945    30.985945    30.985945    29750.497 
 4395000    300.53007   -2512.8966   -23245.883   -25133.382    1887.4991    1.1610133    30.985945    30.985945    30.985945    29750.497 
 4396000    302.95872    -2433.505   -23221.767   -25124.519    1902.7525    1.1610133    30.985945    30.985945    30.985945    29750.497 
 4397000    296.25125   -2472.1475   -23258.201   -25118.827    1860.6257    1.1610133    30.985945    30.985945    30.985945    29750.497 
 4398000    299.63414   -1938.8554    -23238.13   -25120.002    1881.8722    1.1610133    30.985945    30.985945    30.985945    29750.497 
 4399000     306.0954   -2664.5784   -23157.572   -25080.025    1922.4526    1.1610133    30.985945    30.985945    30.985945    29750.497 
 4400000    296.93194   -1700.1324   -23244.158   -25109.059    1864.9008    1.1610133    30.985945    30.985945    30.985945    29750.497 
 4401000    301.66601    -2043.337   -23252.437    -25147.07    1894.6335    1.1610133    30.985945    30.985945    30.985945    29750.497 
 4402000    301.81672   -2933.9883   -23259.633   -25155.213    1895.5801    1.1610133    30.985945    30.985945    30.985945    29750.497 
 4403000    300.49549   -1698.2744   -23261.366   -25148.648     1887.282    1.1610133    30.985945    30.985945    30.985945    29750.497 
 4404000    304.67048   -2256.0982   -23230.139   -25143.643    1913.5033    1.1610133    30.985945    30.985945    30.985945    29750.497 
 4405000    306.71628   -2532.1265   -23221.209   -25147.561    1926.3521    1.1610133    30.985945    30.985945    30.985945    29750.497 
 4406000    301.01552   -2820.0719   -23195.231   -25085.779    1890.5481    1.1610133    30.985945    30.985945    30.985945    29750.497 
 4407000       295.31   -3052.6332   -23260.111   -25114.825    1854.7141    1.1610133    30.985945    30.985945    30.985945    29750.497 
 4408000    301.22199   -2833.6908   -23108.479   -25000.324    1891.8449    1.1610133    30.985945    30.985945    30.985945    29750.497 
 4409000    295.53657    -2849.906   -23238.506   -25094.643    1856.1371    1.1610133    30.985945    30.985945    30.985945    29750.497 
 4410000    298.23902   -2326.5275   -23194.217   -25067.327    1873.1101    1.1610133    30.985945    30.985945    30.985945    29750.497 
 4411000    300.71183   -2474.7478    -23180.54   -25069.181    1888.6407    1.1610133    30.985945    30.985945    30.985945    29750.497 
 4412000    310.13555   -2633.5809   -23195.956   -25143.783     1947.827    1.1610133    30.985945    30.985945    30.985945    29750.497 
 4413000     302.3641   -2735.1846   -23247.325   -25146.343    1899.0179    1.1610133    30.985945    30.985945    30.985945    29750.497 
 4414000     301.8156   -1579.7468   -23267.649   -25163.222    1895.5731    1.1610133    30.985945    30.985945    30.985945    29750.497 
 4415000    306.31165   -2171.7209    -23239.36   -25163.171    1923.8108    1.1610133    30.985945    30.985945    30.985945    29750.497 
 4416000    295.67443   -2468.2628   -23278.994   -25135.997     1857.003    1.1610133    30.985945    30.985945    30.985945    29750.497 
 4417000    293.67977   -3383.6572   -23293.491   -25137.966    1844.4754    1.1610133    30.985945    30.985945    30.985945    29750.497 
 4418000    305.03678   -2142.7778   -23177.252   -25093.056    1915.8039    1.1610133    30.985945    30.985945    30.985945    29750.497 
 4419000    303.97163   -2670.4851   -23237.829   -25146.943    1909.1141    1.1610133    30.985945    30.985945    30.985945    29750.497 
 4420000    305.15961    -2866.724   -23152.759   -25069.335    1916.5753    1.1610133    30.985945    30.985945    30.985945    29750.497 
 4421000    303.45948   -2071.6124   -23250.555   -25156.453    1905.8976    1.1610133    30.985945    30.985945    30.985945    29750.497 
 4422000    294.63356   -2003.2316   -23277.864    -25128.33    1850.4657    1.1610133    30.985945    30.985945    30.985945    29750.497 
 4423000    293.97957   -2809.7055   -23333.526   -25179.885    1846.3583    1.1610133    30.985945    30.985945    30.985945    29750.497 
 4424000    302.42518   -2892.3894   -23217.485   -25116.887    1899.4016    1.1610133    30.985945    30.985945    30.985945    29750.497 
 4425000    295.70755   -1945.2461   -23303.104   -25160.315     1857.211    1.1610133    30.985945    30.985945    30.985945    29750.497 
 4426000    297.47768   -2562.8273   -23212.671       -25081    1868.3284    1.1610133    30.985945    30.985945    30.985945    29750.497 
 4427000    293.54899   -3421.8685   -23250.735   -25094.389     1843.654    1.1610133    30.985945    30.985945    30.985945    29750.497 
 4428000    289.78782   -1571.2137   -23295.087   -25115.118    1820.0317    1.1610133    30.985945    30.985945    30.985945    29750.497 
 4429000     296.6073   -2370.8582   -23254.002   -25116.864    1862.8619    1.1610133    30.985945    30.985945    30.985945    29750.497 
 4430000    298.52137    -1851.326   -23272.841   -25147.724    1874.8834    1.1610133    30.985945    30.985945    30.985945    29750.497 
 4431000    298.66264   -2786.5268   -23146.755   -25022.526    1875.7707    1.1610133    30.985945    30.985945    30.985945    29750.497 
 4432000    297.24199   -2990.8854   -23313.256   -25180.105    1866.8482    1.1610133    30.985945    30.985945    30.985945    29750.497 
 4433000    297.31993   -2253.4988   -23276.597   -25143.935    1867.3377    1.1610133    30.985945    30.985945    30.985945    29750.497 
 4434000    295.76857   -2254.0321   -23291.061   -25148.656    1857.5943    1.1610133    30.985945    30.985945    30.985945    29750.497 
 4435000    299.75055   -1298.4814   -23227.389   -25109.993    1882.6034    1.1610133    30.985945    30.985945    30.985945    29750.497 
 4436000    301.46791   -2206.3828   -23228.086   -25121.475    1893.3893    1.1610133    30.985945    30.985945    30.985945    29750.497 
 4437000    296.94895   -2358.4626   -23273.132    -25138.14    1865.0077    1.1610133    30.985945    30.985945    30.985945    29750.497 
 4438000    292.01746    -2096.737   -23341.787   -25175.822    1834.0351    1.1610133    30.985945    30.985945    30.985945    29750.497 
 4439000    298.03841   -1991.1074   -23224.088   -25095.938    1871.8501    1.1610133    30.985945    30.985945    30.985945    29750.497 
 4440000    295.20144   -1920.1319   -23328.999   -25183.031    1854.0324    1.1610133    30.985945    30.985945    30.985945    29750.497 
 4441000     286.0398   -2661.2833   -23382.739   -25179.231     1796.492    1.1610133    30.985945    30.985945    30.985945    29750.497 
 4442000    303.25687   -2087.0355   -23246.302   -25150.927     1904.625    1.1610133    30.985945    30.985945    30.985945    29750.497 
 4443000    294.23238    -3183.586   -23299.748   -25147.694    1847.9461    1.1610133    30.985945    30.985945    30.985945    29750.497 
 4444000    286.78299   -2786.3551   -23434.108   -25235.268    1801.1597    1.1610133    30.985945    30.985945    30.985945    29750.497 
 4445000    288.96657   -1619.7143   -23298.345   -25113.219    1814.8738    1.1610133    30.985945    30.985945    30.985945    29750.497 
 4446000    302.40885   -2230.0396   -23191.638   -25090.937    1899.2989    1.1610133    30.985945    30.985945    30.985945    29750.497 
 4447000    302.54833   -2748.7794   -23200.987   -25101.162     1900.175    1.1610133    30.985945    30.985945    30.985945    29750.497 
 4448000    301.91547   -2458.8824   -23298.493   -25194.694    1896.2003    1.1610133    30.985945    30.985945    30.985945    29750.497 
 4449000    296.28964   -2749.6605   -23226.515   -25087.382    1860.8668    1.1610133    30.985945    30.985945    30.985945    29750.497 
 4450000    303.12986   -2654.2986   -23263.418   -25167.246    1903.8274    1.1610133    30.985945    30.985945    30.985945    29750.497 
 4451000    300.57629   -2044.5426   -23233.775   -25121.565    1887.7894    1.1610133    30.985945    30.985945    30.985945    29750.497 
 4452000    295.86888   -2163.0054   -23335.165   -25193.389    1858.2242    1.1610133    30.985945    30.985945    30.985945    29750.497 
 4453000    299.10399   -2655.1288   -23136.462   -25015.005    1878.5426    1.1610133    30.985945    30.985945    30.985945    29750.497 
 4454000    299.38984   -2084.1476   -23143.147   -25023.485    1880.3379    1.1610133    30.985945    30.985945    30.985945    29750.497 
 4455000    306.41436   -2897.9379   -23172.021   -25096.477    1924.4559    1.1610133    30.985945    30.985945    30.985945    29750.497 
 4456000    297.77266   -2578.5628    -23194.79   -25064.971    1870.1811    1.1610133    30.985945    30.985945    30.985945    29750.497 
 4457000    299.00392   -2479.3388   -23188.025   -25065.939    1877.9141    1.1610133    30.985945    30.985945    30.985945    29750.497 
 4458000    297.60027   -2557.3824   -23207.253   -25076.351    1869.0983    1.1610133    30.985945    30.985945    30.985945    29750.497 
 4459000    298.15917   -3705.7402   -23250.952   -25123.561    1872.6086    1.1610133    30.985945    30.985945    30.985945    29750.497 
 4460000    306.02931   -2601.3718   -23198.392   -25120.429    1922.0375    1.1610133    30.985945    30.985945    30.985945    29750.497 
 4461000    290.06314   -1886.1444   -23278.162   -25099.922    1821.7609    1.1610133    30.985945    30.985945    30.985945    29750.497 
 4462000    297.11631   -2912.8339   -23300.056   -25166.115    1866.0588    1.1610133    30.985945    30.985945    30.985945    29750.497 
 4463000    300.84856   -2848.8179   -23268.912   -25158.411    1889.4994    1.1610133    30.985945    30.985945    30.985945    29750.497 
 4464000    289.95847   -3251.6677   -23286.764   -25107.868    1821.1035    1.1610133    30.985945    30.985945    30.985945    29750.497 
 4465000    287.78746   -2046.7032   -23411.968   -25219.436    1807.4683    1.1610133    30.985945    30.985945    30.985945    29750.497 
 4466000    301.79109   -2923.6812   -23254.203   -25149.622    1895.4191    1.1610133    30.985945    30.985945    30.985945    29750.497 
 4467000    298.41318   -3121.8176   -23394.352   -25268.556    1874.2039    1.1610133    30.985945    30.985945    30.985945    29750.497 
 4468000    294.65591   -2008.0126   -23269.846   -25120.452    1850.6061    1.1610133    30.985945    30.985945    30.985945    29750.497 
 4469000    292.23948   -2795.1138   -23280.405   -25115.835    1835.4296    1.1610133    30.985945    30.985945    30.985945    29750.497 
 4470000     296.3673   -2102.1667   -23322.832   -25184.186    1861.3546    1.1610133    30.985945    30.985945    30.985945    29750.497 
 4471000    296.50903   -2671.9307   -23388.565    -25250.81    1862.2447    1.1610133    30.985945    30.985945    30.985945    29750.497 
 4472000    299.87576   -2554.8097   -23309.203   -25192.593    1883.3897    1.1610133    30.985945    30.985945    30.985945    29750.497 
 4473000    297.11753   -2906.6198   -23339.454   -25205.521    1866.0665    1.1610133    30.985945    30.985945    30.985945    29750.497 
 4474000    302.20719   -3159.1294   -23244.272   -25142.305    1898.0324    1.1610133    30.985945    30.985945    30.985945    29750.497 
 4475000    297.51739   -2323.2184   -23349.417   -25217.995    1868.5779    1.1610133    30.985945    30.985945    30.985945    29750.497 
 4476000    302.42616   -2010.3461   -23281.743    -25181.15    1899.4077    1.1610133    30.985945    30.985945    30.985945    29750.497 
 4477000    297.40145   -2196.3446   -23223.877   -25091.727    1867.8497    1.1610133    30.985945    30.985945    30.985945    29750.497 
 4478000    293.69922   -2937.2632   -23332.106   -25176.704    1844.5975    1.1610133    30.985945    30.985945    30.985945    29750.497 
 4479000    299.46663   -2350.7338   -23222.297   -25103.117    1880.8202    1.1610133    30.985945    30.985945    30.985945    29750.497 
 4480000    296.23904   -3302.2671   -23247.858   -25108.407     1860.549    1.1610133    30.985945    30.985945    30.985945    29750.497 
 4481000    290.98274   -2529.6175   -23278.935   -25106.471    1827.5366    1.1610133    30.985945    30.985945    30.985945    29750.497 
 4482000    299.36461   -1950.8339   -23223.876   -25104.055    1880.1795    1.1610133    30.985945    30.985945    30.985945    29750.497 
 4483000    297.39942   -2340.5404   -23331.059   -25198.896    1867.8369    1.1610133    30.985945    30.985945    30.985945    29750.497 
 4484000     300.4494   -2605.0562   -23289.398   -25176.391    1886.9925    1.1610133    30.985945    30.985945    30.985945    29750.497 
 4485000     296.5332   -2861.9107   -23294.163   -25156.559    1862.3966    1.1610133    30.985945    30.985945    30.985945    29750.497 
 4486000    295.25283   -3290.3438   -23216.014   -25070.369    1854.3551    1.1610133    30.985945    30.985945    30.985945    29750.497 
 4487000    299.39802   -1846.3212   -23272.901    -25153.29    1880.3893    1.1610133    30.985945    30.985945    30.985945    29750.497 
 4488000     293.6571   -3148.3018   -23229.798   -25074.131    1844.3331    1.1610133    30.985945    30.985945    30.985945    29750.497 
 4489000    297.00799    -2686.081   -23219.012    -25084.39    1865.3785    1.1610133    30.985945    30.985945    30.985945    29750.497 
 4490000    289.29887   -2510.9838   -23232.514   -25049.475    1816.9609    1.1610133    30.985945    30.985945    30.985945    29750.497 
 4491000    306.91778   -2431.1813   -23221.785   -25149.402    1927.6176    1.1610133    30.985945    30.985945    30.985945    29750.497 
 4492000    306.05942   -2241.7894   -23211.235   -25133.462    1922.2266    1.1610133    30.985945    30.985945    30.985945    29750.497 
 4493000    302.75177   -1057.5937   -23221.056   -25122.508    1901.4527    1.1610133    30.985945    30.985945    30.985945    29750.497 
 4494000    299.41212   -2727.1292   -23268.973   -25149.451    1880.4778    1.1610133    30.985945    30.985945    30.985945    29750.497 
 4495000    288.83132   -3074.0305   -23353.833   -25167.857    1814.0244    1.1610133    30.985945    30.985945    30.985945    29750.497 
 4496000    292.87225   -2846.6349   -23346.414   -25185.818    1839.4037    1.1610133    30.985945    30.985945    30.985945    29750.497 
 4497000    304.70178   -2178.1434   -23287.838   -25201.538    1913.6999    1.1610133    30.985945    30.985945    30.985945    29750.497 
 4498000    300.54673   -2316.9079   -23256.909   -25144.513    1887.6038    1.1610133    30.985945    30.985945    30.985945    29750.497 
 4499000     294.5401   -2275.7494   -23267.351    -25117.23    1849.8787    1.1610133    30.985945    30.985945    30.985945    29750.497 
 4500000    298.73028   -2772.3611   -23248.716   -25124.911    1876.1955    1.1610133    30.985945    30.985945    30.985945    29750.497 
 4501000     288.3087   -1598.2396   -23321.979   -25132.721     1810.742    1.1610133    30.985945    30.985945    30.985945    29750.497 
 4502000    288.33537   -2038.5486   -23275.606   -25086.516    1810.9095    1.1610133    30.985945    30.985945    30.985945    29750.497 
 4503000    298.75045   -2304.8922   -23334.953   -25211.275    1876.3222    1.1610133    30.985945    30.985945    30.985945    29750.497 
 4504000    289.63473   -2637.5204   -23271.979   -25091.049    1819.0703    1.1610133    30.985945    30.985945    30.985945    29750.497 
 4505000    303.18325   -2300.9082   -23167.543   -25071.706    1904.1627    1.1610133    30.985945    30.985945    30.985945    29750.497 
 4506000     294.2988   -2940.3506     -23385.7   -25234.063    1848.3633    1.1610133    30.985945    30.985945    30.985945    29750.497 
 4507000    281.92954   -3602.8691   -23440.805   -25211.482    1770.6773    1.1610133    30.985945    30.985945    30.985945    29750.497 
 4508000    295.78858   -2623.1738   -23336.466   -25194.186      1857.72    1.1610133    30.985945    30.985945    30.985945    29750.497 
 4509000     302.3575   -2727.7508   -23289.659   -25188.636    1898.9765    1.1610133    30.985945    30.985945    30.985945    29750.497 
 4510000    303.50794   -1379.7186   -23300.034   -25206.236    1906.2019    1.1610133    30.985945    30.985945    30.985945    29750.497 
 4511000    292.26077   -1708.9597   -23301.253   -25136.816    1835.5633    1.1610133    30.985945    30.985945    30.985945    29750.497 
 4512000     289.1683   -2776.4017    -23324.05   -25140.191    1816.1408    1.1610133    30.985945    30.985945    30.985945    29750.497 
 4513000    295.78327   -2366.4758   -23296.104   -25153.791    1857.6866    1.1610133    30.985945    30.985945    30.985945    29750.497 
 4514000    295.86737   -2848.6898   -23327.044   -25185.259    1858.2148    1.1610133    30.985945    30.985945    30.985945    29750.497 
 4515000     297.1842   -2681.5907    -23319.36   -25185.845    1866.4852    1.1610133    30.985945    30.985945    30.985945    29750.497 
 4516000    304.60938   -2289.2724   -23229.344   -25142.464    1913.1195    1.1610133    30.985945    30.985945    30.985945    29750.497 
 4517000    307.17619   -2934.4646   -23216.989    -25146.23    1929.2406    1.1610133    30.985945    30.985945    30.985945    29750.497 
 4518000    293.93322   -1295.4838   -23333.119   -25179.186    1846.0672    1.1610133    30.985945    30.985945    30.985945    29750.497 
 4519000    290.12386   -2034.0546    -23317.29   -25139.433    1822.1423    1.1610133    30.985945    30.985945    30.985945    29750.497 
 4520000    295.91246   -2672.7844   -23261.782    -25120.28     1858.498    1.1610133    30.985945    30.985945    30.985945    29750.497 
 4521000    305.16181   -2779.2976   -23173.953   -25090.542    1916.5891    1.1610133    30.985945    30.985945    30.985945    29750.497 
 4522000    300.21126   -2538.9885   -23248.595   -25134.092    1885.4969    1.1610133    30.985945    30.985945    30.985945    29750.497 
 4523000    304.21306   -2792.7697   -23234.307   -25144.937    1910.6305    1.1610133    30.985945    30.985945    30.985945    29750.497 
 4524000    314.90768   -2540.8673   -23109.355   -25087.154    1977.7987    1.1610133    30.985945    30.985945    30.985945    29750.497 
 4525000    304.97022   -2514.8076   -23208.139   -25123.524    1915.3858    1.1610133    30.985945    30.985945    30.985945    29750.497 
 4526000    300.01317   -2510.7465   -23245.667   -25129.919    1884.2528    1.1610133    30.985945    30.985945    30.985945    29750.497 
 4527000    297.95132   -2909.1322   -23285.684   -25156.987    1871.3031    1.1610133    30.985945    30.985945    30.985945    29750.497 
 4528000    292.55495    -2708.576   -23305.235   -25142.646    1837.4109    1.1610133    30.985945    30.985945    30.985945    29750.497 
 4529000    305.63849   -2072.3184   -23224.944   -25144.527    1919.5829    1.1610133    30.985945    30.985945    30.985945    29750.497 
 4530000     300.1917   -2425.5063   -23206.598   -25091.972     1885.374    1.1610133    30.985945    30.985945    30.985945    29750.497 
 4531000    304.69894   -2599.8662   -23212.579   -25126.261     1913.682    1.1610133    30.985945    30.985945    30.985945    29750.497 
 4532000    300.52183   -2601.3988   -23272.913   -25160.361    1887.4474    1.1610133    30.985945    30.985945    30.985945    29750.497 
 4533000    311.50072   -2737.8664   -23246.155   -25202.556    1956.4011    1.1610133    30.985945    30.985945    30.985945    29750.497 
 4534000    295.51324   -3171.6294   -23313.752   -25169.743    1855.9906    1.1610133    30.985945    30.985945    30.985945    29750.497 
 4535000     295.9975   -2735.6233    -23273.08   -25132.112    1859.0321    1.1610133    30.985945    30.985945    30.985945    29750.497 
 4536000    295.39171   -3057.4296   -23347.177   -25202.405    1855.2274    1.1610133    30.985945    30.985945    30.985945    29750.497 
 4537000    295.36427   -2167.6383   -23367.319   -25222.374     1855.055    1.1610133    30.985945    30.985945    30.985945    29750.497 
 4538000    300.26182   -1299.5526   -23398.768   -25284.582    1885.8144    1.1610133    30.985945    30.985945    30.985945    29750.497 
 4539000    293.94579    -1896.126   -23399.065   -25245.211    1846.1462    1.1610133    30.985945    30.985945    30.985945    29750.497 
 4540000    300.43121   -2583.8392   -23325.219   -25212.097    1886.8783    1.1610133    30.985945    30.985945    30.985945    29750.497 
 4541000    299.47352   -2626.8826   -23243.348   -25124.212    1880.8634    1.1610133    30.985945    30.985945    30.985945    29750.497 
 4542000    290.11494    -2827.556   -23377.298   -25199.384    1822.0862    1.1610133    30.985945    30.985945    30.985945    29750.497 
 4543000    298.25741   -2524.4136   -23296.061   -25169.287    1873.2256    1.1610133    30.985945    30.985945    30.985945    29750.497 
 4544000    303.50152   -3231.2358   -23232.821   -25138.983    1906.1616    1.1610133    30.985945    30.985945    30.985945    29750.497 
 4545000    291.65971    -2118.845   -23324.182    -25155.97    1831.7883    1.1610133    30.985945    30.985945    30.985945    29750.497 
 4546000    302.12077   -2307.3413   -23206.432   -25103.921    1897.4897    1.1610133    30.985945    30.985945    30.985945    29750.497 
 4547000    300.46238   -3377.3605   -23227.583   -25114.657     1887.074    1.1610133    30.985945    30.985945    30.985945    29750.497 
 4548000    303.68187   -2969.0414   -23259.966    -25167.26    1907.2943    1.1610133    30.985945    30.985945    30.985945    29750.497 
 4549000    297.11427   -3413.2605   -23307.025   -25173.071     1866.046    1.1610133    30.985945    30.985945    30.985945    29750.497 
 4550000    300.10696   -2905.1465   -23251.187   -25136.029    1884.8418    1.1610133    30.985945    30.985945    30.985945    29750.497 
 4551000    299.84345   -2489.5311   -23249.735   -25132.921    1883.1868    1.1610133    30.985945    30.985945    30.985945    29750.497 
 4552000    293.09979   -2837.1201   -23276.832   -25117.665    1840.8328    1.1610133    30.985945    30.985945    30.985945    29750.497 
 4553000    299.58195   -2495.8837   -23244.575   -25126.119    1881.5445    1.1610133    30.985945    30.985945    30.985945    29750.497 
 4554000    296.74977   -3747.8435   -23271.877   -25135.634    1863.7568    1.1610133    30.985945    30.985945    30.985945    29750.497 
 4555000    297.58844   -3006.4507   -23289.335   -25158.359    1869.0241    1.1610133    30.985945    30.985945    30.985945    29750.497 
 4556000    301.64701    -2121.927   -23298.727   -25193.242    1894.5142    1.1610133    30.985945    30.985945    30.985945    29750.497 
 4557000    292.81515   -2262.3208   -23331.387   -25170.432    1839.0451    1.1610133    30.985945    30.985945    30.985945    29750.497 
 4558000    299.74583   -2769.2476   -23228.077   -25110.651    1882.5737    1.1610133    30.985945    30.985945    30.985945    29750.497 
 4559000    306.30763   -2928.6385   -23277.137   -25200.922    1923.7855    1.1610133    30.985945    30.985945    30.985945    29750.497 
 4560000    296.69136   -1732.4672   -23215.937   -25079.327    1863.3899    1.1610133    30.985945    30.985945    30.985945    29750.497 
 4561000    300.46814    -2502.639   -23327.218   -25214.328    1887.1102    1.1610133    30.985945    30.985945    30.985945    29750.497 
 4562000    299.08245   -3723.6456   -23249.415   -25127.822    1878.4073    1.1610133    30.985945    30.985945    30.985945    29750.497 
 4563000    298.11692   -2406.5475   -23288.601   -25160.944    1872.3432    1.1610133    30.985945    30.985945    30.985945    29750.497 
 4564000     295.2481    -2134.184   -23277.144    -25131.47    1854.3254    1.1610133    30.985945    30.985945    30.985945    29750.497 
 4565000    294.55018   -3153.3491   -23243.529   -25093.471    1849.9421    1.1610133    30.985945    30.985945    30.985945    29750.497 
 4566000    300.17371   -2641.9036   -23266.986   -25152.247     1885.261    1.1610133    30.985945    30.985945    30.985945    29750.497 
 4567000    301.39411   -1757.9534   -23227.729   -25120.654    1892.9258    1.1610133    30.985945    30.985945    30.985945    29750.497 
 4568000    302.94295   -1980.3338   -23336.558   -25239.211    1902.6534    1.1610133    30.985945    30.985945    30.985945    29750.497 
 4569000    303.91075   -2379.1213   -23195.341   -25104.073    1908.7318    1.1610133    30.985945    30.985945    30.985945    29750.497 
 4570000    301.94822   -1254.6432   -23175.419   -25071.825     1896.406    1.1610133    30.985945    30.985945    30.985945    29750.497 
 4571000    298.15895   -2520.0335   -23266.781   -25139.388    1872.6072    1.1610133    30.985945    30.985945    30.985945    29750.497 
 4572000    297.48494    -2521.708   -23201.856    -25070.23     1868.374    1.1610133    30.985945    30.985945    30.985945    29750.497 
 4573000    295.44786   -3414.8697    -23331.36    -25186.94      1855.58    1.1610133    30.985945    30.985945    30.985945    29750.497 
 4574000    299.20058   -3058.2149   -23297.943   -25177.093    1879.1492    1.1610133    30.985945    30.985945    30.985945    29750.497 
 4575000    293.96352   -2799.0542   -23285.965   -25132.223    1846.2575    1.1610133    30.985945    30.985945    30.985945    29750.497 
 4576000    307.73724    -2316.456   -23178.666    -25111.43    1932.7643    1.1610133    30.985945    30.985945    30.985945    29750.497 
 4577000    291.76322   -2280.2505   -23299.538   -25131.976    1832.4384    1.1610133    30.985945    30.985945    30.985945    29750.497 
 4578000    303.95089   -1664.0613   -23175.642   -25084.626    1908.9838    1.1610133    30.985945    30.985945    30.985945    29750.497 
 4579000     293.4509   -1716.3191   -23213.072    -25056.11     1843.038    1.1610133    30.985945    30.985945    30.985945    29750.497 
 4580000    289.63089   -3480.0644   -23348.049   -25167.095    1819.0461    1.1610133    30.985945    30.985945    30.985945    29750.497 
 4581000    302.77039   -1903.1564   -23183.876   -25085.446    1901.5696    1.1610133    30.985945    30.985945    30.985945    29750.497 
 4582000    296.89821   -2430.9617   -23297.271    -25161.96     1864.689    1.1610133    30.985945    30.985945    30.985945    29750.497 
 4583000    294.67269   -3062.9297   -23266.579   -25117.291    1850.7115    1.1610133    30.985945    30.985945    30.985945    29750.497 
 4584000      297.064   -2612.1833   -23349.932   -25215.662    1865.7303    1.1610133    30.985945    30.985945    30.985945    29750.497 
 4585000    295.28129    -1982.811   -23398.765   -25253.299    1854.5338    1.1610133    30.985945    30.985945    30.985945    29750.497 
 4586000    305.53284   -2705.7426   -23359.029   -25277.948    1918.9194    1.1610133    30.985945    30.985945    30.985945    29750.497 
 4587000    300.76628   -3414.0202   -23324.704   -25213.686    1888.9827    1.1610133    30.985945    30.985945    30.985945    29750.497 
 4588000    292.79721   -2663.8271   -23359.195   -25198.127    1838.9324    1.1610133    30.985945    30.985945    30.985945    29750.497 
 4589000    286.86385   -3027.7413   -23388.461   -25190.129    1801.6676    1.1610133    30.985945    30.985945    30.985945    29750.497 
 4590000    280.65679   -3085.3225   -23374.012   -25136.696    1762.6837    1.1610133    30.985945    30.985945    30.985945    29750.497 
 4591000    293.03904   -2799.1034   -23352.064   -25192.516    1840.4513    1.1610133    30.985945    30.985945    30.985945    29750.497 
 4592000    292.07364   -3130.3915   -23375.841   -25210.229     1834.388    1.1610133    30.985945    30.985945    30.985945    29750.497 
 4593000    294.55045    -2187.188   -23279.307    -25129.25    1849.9438    1.1610133    30.985945    30.985945    30.985945    29750.497 
 4594000    298.57108   -2589.5649   -23235.318   -25110.514    1875.1956    1.1610133    30.985945    30.985945    30.985945    29750.497 
 4595000    298.37996   -2432.0152   -23337.173   -25211.169    1873.9953    1.1610133    30.985945    30.985945    30.985945    29750.497 
 4596000    296.50996   -1841.7811   -23282.138   -25144.389    1862.2506    1.1610133    30.985945    30.985945    30.985945    29750.497 
 4597000    300.24463   -1890.1782   -23201.099   -25086.806    1885.7064    1.1610133    30.985945    30.985945    30.985945    29750.497 
 4598000    309.51116   -1758.1438   -23214.793   -25158.698    1943.9055    1.1610133    30.985945    30.985945    30.985945    29750.497 
 4599000    297.23433   -2269.4796   -23211.176   -25077.976       1866.8    1.1610133    30.985945    30.985945    30.985945    29750.497 
 4600000    309.06124    -2305.277   -23230.075   -25171.155    1941.0798    1.1610133    30.985945    30.985945    30.985945    29750.497 
 4601000    301.37351   -3273.3665   -23171.535   -25064.332    1892.7965    1.1610133    30.985945    30.985945    30.985945    29750.497 
 4602000    299.69254   -1030.7501   -23178.897   -25061.136     1882.239    1.1610133    30.985945    30.985945    30.985945    29750.497 
 4603000    294.34032   -2356.0418     -23301.2   -25149.824     1848.624    1.1610133    30.985945    30.985945    30.985945    29750.497 
 4604000    300.87717   -2463.1661   -23322.284   -25211.963    1889.6791    1.1610133    30.985945    30.985945    30.985945    29750.497 
 4605000    303.59068    -1744.952   -23126.507   -25033.229    1906.7216    1.1610133    30.985945    30.985945    30.985945    29750.497 
 4606000    299.16873   -1907.4421   -23331.141    -25210.09    1878.9492    1.1610133    30.985945    30.985945    30.985945    29750.497 
 4607000    289.94685   -3279.0264   -23377.478   -25198.509    1821.0306    1.1610133    30.985945    30.985945    30.985945    29750.497 
 4608000    295.97093   -2972.8843   -23284.669   -25143.534    1858.8652    1.1610133    30.985945    30.985945    30.985945    29750.497 
 4609000    303.02935   -1919.6948   -23232.514    -25135.71    1903.1961    1.1610133    30.985945    30.985945    30.985945    29750.497 
 4610000    298.79879   -2906.3495   -23313.238   -25189.864    1876.6257    1.1610133    30.985945    30.985945    30.985945    29750.497 
 4611000    312.14376   -2892.6551   -23145.559   -25105.999    1960.4397    1.1610133    30.985945    30.985945    30.985945    29750.497 
 4612000    300.78437   -2032.6654   -23252.192   -25141.289    1889.0963    1.1610133    30.985945    30.985945    30.985945    29750.497 
 4613000    300.19354   -2063.6157   -23297.042   -25182.427    1885.3856    1.1610133    30.985945    30.985945    30.985945    29750.497 
 4614000    292.12487   -2543.4387    -23284.28   -25118.989    1834.7098    1.1610133    30.985945    30.985945    30.985945    29750.497 
 4615000    289.73625   -2138.9947   -23306.032    -25125.74    1819.7079    1.1610133    30.985945    30.985945    30.985945    29750.497 
 4616000    298.12115   -1877.3812   -23265.616   -25137.986    1872.3698    1.1610133    30.985945    30.985945    30.985945    29750.497 
 4617000    294.13951   -2257.6407   -23297.238   -25144.601    1847.3628    1.1610133    30.985945    30.985945    30.985945    29750.497 
 4618000     309.7489   -2164.5386   -23188.239   -25133.637    1945.3987    1.1610133    30.985945    30.985945    30.985945    29750.497 
 4619000    298.49808   -2252.4445   -23257.036   -25131.773    1874.7371    1.1610133    30.985945    30.985945    30.985945    29750.497 
 4620000    297.96267   -2096.2281   -23235.361   -25106.735    1871.3745    1.1610133    30.985945    30.985945    30.985945    29750.497 
 4621000    299.17612   -2288.2196   -23250.464    -25129.46    1878.9956    1.1610133    30.985945    30.985945    30.985945    29750.497 
 4622000    307.25407   -2798.5349   -23273.203   -25202.933    1929.7297    1.1610133    30.985945    30.985945    30.985945    29750.497 
 4623000    296.34781   -2219.6607   -23239.946   -25101.178    1861.2322    1.1610133    30.985945    30.985945    30.985945    29750.497 
 4624000    293.41381   -2531.3129   -23323.061   -25165.866    1842.8051    1.1610133    30.985945    30.985945    30.985945    29750.497 
 4625000    306.19354   -2418.7794   -23192.912   -25115.981     1923.069    1.1610133    30.985945    30.985945    30.985945    29750.497 
 4626000     287.2045   -2364.6542   -23308.842   -25112.649    1803.8071    1.1610133    30.985945    30.985945    30.985945    29750.497 
 4627000    298.14839   -2123.0769   -23328.691   -25201.232    1872.5409    1.1610133    30.985945    30.985945    30.985945    29750.497 
 4628000    299.03334   -2675.6824   -23206.272   -25084.371    1878.0989    1.1610133    30.985945    30.985945    30.985945    29750.497 
 4629000    298.95975   -1936.4974   -23190.699   -25068.336    1877.6367    1.1610133    30.985945    30.985945    30.985945    29750.497 
 4630000    294.88881   -2665.4521   -23229.823   -25081.892    1852.0689    1.1610133    30.985945    30.985945    30.985945    29750.497 
 4631000    306.73816   -2753.6962   -23183.967   -25110.456    1926.4895    1.1610133    30.985945    30.985945    30.985945    29750.497 
 4632000    305.54333   -2194.8764   -23216.176   -25135.161    1918.9853    1.1610133    30.985945    30.985945    30.985945    29750.497 
 4633000    303.18323   -2685.4388   -23272.219   -25176.382    1904.1625    1.1610133    30.985945    30.985945    30.985945    29750.497 
 4634000    295.48364   -2984.0836   -23297.594   -25153.399    1855.8047    1.1610133    30.985945    30.985945    30.985945    29750.497 
 4635000    296.64943    -2973.891   -23269.532   -25132.659    1863.1266    1.1610133    30.985945    30.985945    30.985945    29750.497 
 4636000    294.21808   -2070.9378   -23306.755   -25154.612    1847.8563    1.1610133    30.985945    30.985945    30.985945    29750.497 
 4637000    299.64762    -1570.358   -23190.376   -25072.332    1881.9569    1.1610133    30.985945    30.985945    30.985945    29750.497 
 4638000    291.02505    -2830.645   -23242.349   -25070.151    1827.8023    1.1610133    30.985945    30.985945    30.985945    29750.497 
 4639000    294.98583   -3570.3411    -23234.66   -25087.338    1852.6782    1.1610133    30.985945    30.985945    30.985945    29750.497 
 4640000    303.02643   -3310.7637   -23236.586   -25139.764    1903.1777    1.1610133    30.985945    30.985945    30.985945    29750.497 
 4641000    309.04383     -2736.87   -23088.907   -25029.877    1940.9704    1.1610133    30.985945    30.985945    30.985945    29750.497 
 4642000    298.66398   -3190.9771   -23211.024   -25086.803    1875.7791    1.1610133    30.985945    30.985945    30.985945    29750.497 
 4643000    302.97642   -2191.3363   -23189.597    -25092.46    1902.8636    1.1610133    30.985945    30.985945    30.985945    29750.497 
 4644000    300.64576   -1933.6247   -23221.203   -25109.428    1888.2257    1.1610133    30.985945    30.985945    30.985945    29750.497 
 4645000    298.75393   -2004.7406   -23311.725   -25188.069     1876.344    1.1610133    30.985945    30.985945    30.985945    29750.497 
 4646000    294.89889   -2177.6194   -23401.936   -25254.068    1852.1321    1.1610133    30.985945    30.985945    30.985945    29750.497 
 4647000    297.35564   -3647.3473   -23319.545   -25187.107     1867.562    1.1610133    30.985945    30.985945    30.985945    29750.497 
 4648000    292.73937   -1452.0305    -23316.72   -25155.289    1838.5692    1.1610133    30.985945    30.985945    30.985945    29750.497 
 4649000    299.81141   -2968.6793   -23263.661   -25146.647    1882.9856    1.1610133    30.985945    30.985945    30.985945    29750.497 
 4650000    303.89801   -1976.6708   -23210.493   -25119.145    1908.6518    1.1610133    30.985945    30.985945    30.985945    29750.497 
 4651000    304.97153   -3165.9039   -23238.263   -25153.657    1915.3941    1.1610133    30.985945    30.985945    30.985945    29750.497 
 4652000    308.42712    -1726.701   -23094.749   -25031.846    1937.0971    1.1610133    30.985945    30.985945    30.985945    29750.497 
 4653000     294.7628   -2071.5162   -23232.649   -25083.926    1851.2775    1.1610133    30.985945    30.985945    30.985945    29750.497 
 4654000    310.08789   -2943.5771   -23224.994   -25172.522    1947.5277    1.1610133    30.985945    30.985945    30.985945    29750.497 
 4655000    284.69663   -2406.6907   -23232.132   -25020.188    1788.0562    1.1610133    30.985945    30.985945    30.985945    29750.497 
 4656000    303.33828    -2091.894   -23249.486   -25154.622    1905.1363    1.1610133    30.985945    30.985945    30.985945    29750.497 
 4657000    300.51553   -1783.2416   -23220.223   -25107.631    1887.4079    1.1610133    30.985945    30.985945    30.985945    29750.497 
 4658000    312.56068   -3066.6629   -23139.911    -25102.97    1963.0582    1.1610133    30.985945    30.985945    30.985945    29750.497 
 4659000    297.75094   -2317.5986   -23198.576    -25068.62    1870.0447    1.1610133    30.985945    30.985945    30.985945    29750.497 
 4660000    298.22551   -1857.0586   -23310.209   -25183.234    1873.0252    1.1610133    30.985945    30.985945    30.985945    29750.497 
 4661000     307.0142    -2193.868    -23236.38   -25164.603    1928.2232    1.1610133    30.985945    30.985945    30.985945    29750.497 
 4662000    301.99236   -2726.6765   -23259.969   -25156.653    1896.6832    1.1610133    30.985945    30.985945    30.985945    29750.497 
 4663000    307.96043   -2766.6322   -23159.445   -25093.611     1934.166    1.1610133    30.985945    30.985945    30.985945    29750.497 
 4664000    292.74716    -3135.116   -23293.357   -25131.975    1838.6181    1.1610133    30.985945    30.985945    30.985945    29750.497 
 4665000    300.46069   -2175.9756   -23173.019   -25060.082    1887.0634    1.1610133    30.985945    30.985945    30.985945    29750.497 
 4666000    294.39705   -2561.2832   -23279.495   -25128.475    1848.9803    1.1610133    30.985945    30.985945    30.985945    29750.497 
 4667000    295.25111   -1301.9011     -23268.6   -25122.945    1854.3443    1.1610133    30.985945    30.985945    30.985945    29750.497 
 4668000    295.33073   -2120.1265   -23304.816   -25159.661    1854.8444    1.1610133    30.985945    30.985945    30.985945    29750.497 
 4669000    299.01105   -1287.8868   -23258.674   -25136.633    1877.9589    1.1610133    30.985945    30.985945    30.985945    29750.497 
 4670000    296.61495   -2639.2653   -23251.211   -25114.121      1862.91    1.1610133    30.985945    30.985945    30.985945    29750.497 
 4671000    293.95361    -2520.292   -23259.993   -25106.188    1846.1953    1.1610133    30.985945    30.985945    30.985945    29750.497 
 4672000    294.16448    -2204.767   -23297.995   -25145.515    1847.5196    1.1610133    30.985945    30.985945    30.985945    29750.497 
 4673000    296.52285   -1925.5109   -23250.154   -25112.485    1862.3315    1.1610133    30.985945    30.985945    30.985945    29750.497 
 4674000    296.93724    -2807.298   -23267.316    -25132.25    1864.9342    1.1610133    30.985945    30.985945    30.985945    29750.497 
 4675000    296.81945   -2336.5843   -23330.356    -25194.55    1864.1944    1.1610133    30.985945    30.985945    30.985945    29750.497 
 4676000    297.09931   -2873.5841   -23279.811   -25145.763     1865.952    1.1610133    30.985945    30.985945    30.985945    29750.497 
 4677000     303.6288   -3109.1219   -23319.558   -25226.519     1906.961    1.1610133    30.985945    30.985945    30.985945    29750.497 
 4678000    298.72497   -3666.4449   -23366.605   -25242.767    1876.1621    1.1610133    30.985945    30.985945    30.985945    29750.497 
 4679000    304.20256   -2657.3685   -23232.394   -25142.959    1910.5645    1.1610133    30.985945    30.985945    30.985945    29750.497 
 4680000     290.5263   -2932.2464   -23384.042   -25208.712    1824.6698    1.1610133    30.985945    30.985945    30.985945    29750.497 
 4681000    300.24786    -2774.244   -23269.796   -25155.522    1885.7267    1.1610133    30.985945    30.985945    30.985945    29750.497 
 4682000     301.2305   -2013.2396   -23242.067   -25133.965    1891.8983    1.1610133    30.985945    30.985945    30.985945    29750.497 
 4683000     291.3137   -2796.0117   -23298.403   -25128.018    1829.6152    1.1610133    30.985945    30.985945    30.985945    29750.497 
 4684000    303.42414   -2779.6932   -23190.517   -25096.192    1905.6755    1.1610133    30.985945    30.985945    30.985945    29750.497 
 4685000    297.58457   -3313.2045   -23263.827   -25132.827    1868.9998    1.1610133    30.985945    30.985945    30.985945    29750.497 
 4686000     304.5692   -2336.5271   -23230.672   -25143.539    1912.8672    1.1610133    30.985945    30.985945    30.985945    29750.497 
 4687000    296.21254   -1542.1482   -23369.783   -25230.166    1860.3827    1.1610133    30.985945    30.985945    30.985945    29750.497 
 4688000    302.31029   -1879.6465   -23251.088   -25149.768      1898.68    1.1610133    30.985945    30.985945    30.985945    29750.497 
 4689000    303.01668   -3052.2259   -23315.258   -25218.375    1903.1165    1.1610133    30.985945    30.985945    30.985945    29750.497 
 4690000    295.07142   -3277.6166   -23372.948   -25226.164    1853.2158    1.1610133    30.985945    30.985945    30.985945    29750.497 
 4691000    302.70598   -2554.5081   -23343.247   -25244.412    1901.1651    1.1610133    30.985945    30.985945    30.985945    29750.497 
 4692000    297.82056    -3264.215   -23354.637   -25225.119    1870.4819    1.1610133    30.985945    30.985945    30.985945    29750.497 
 4693000    293.18469   -2459.1987   -23366.235   -25207.601     1841.366    1.1610133    30.985945    30.985945    30.985945    29750.497 
 4694000    302.89826   -2392.9424   -23301.936   -25204.309    1902.3727    1.1610133    30.985945    30.985945    30.985945    29750.497 
 4695000    298.49975   -2127.7563   -23290.534   -25165.282    1874.7476    1.1610133    30.985945    30.985945    30.985945    29750.497 
 4696000    295.46883   -1757.7479   -23314.843   -25170.554    1855.7117    1.1610133    30.985945    30.985945    30.985945    29750.497 
 4697000    294.20398   -1258.3416    -23375.23   -25222.997    1847.7678    1.1610133    30.985945    30.985945    30.985945    29750.497 
 4698000    294.97216   -1807.8543   -23347.762   -25200.354    1852.5923    1.1610133    30.985945    30.985945    30.985945    29750.497 
 4699000    290.57075   -3471.0551    -23272.19   -25097.139     1824.949    1.1610133    30.985945    30.985945    30.985945    29750.497 
 4700000    288.18359   -2461.2568   -23445.384    -25255.34    1809.9563    1.1610133    30.985945    30.985945    30.985945    29750.497 
 4701000     305.4868   -2479.3647   -23254.032   -25172.663    1918.6302    1.1610133    30.985945    30.985945    30.985945    29750.497 
 4702000    303.70303   -2838.6961   -23322.795   -25230.222    1907.4272    1.1610133    30.985945    30.985945    30.985945    29750.497 
 4703000    291.52537   -2432.8442   -23288.849   -25119.793    1830.9446    1.1610133    30.985945    30.985945    30.985945    29750.497 
 4704000    296.87538   -1604.9747   -23286.809   -25151.355    1864.5456    1.1610133    30.985945    30.985945    30.985945    29750.497 
 4705000    298.89811    -2431.553   -23228.386   -25105.636    1877.2495    1.1610133    30.985945    30.985945    30.985945    29750.497 
 4706000    292.77584   -2562.1295   -23265.165   -25103.963    1838.7982    1.1610133    30.985945    30.985945    30.985945    29750.497 
 4707000    304.16876   -2623.4369   -23302.035   -25212.387    1910.3522    1.1610133    30.985945    30.985945    30.985945    29750.497 
 4708000    302.00683   -1754.3996   -23241.923   -25138.697     1896.774    1.1610133    30.985945    30.985945    30.985945    29750.497 
 4709000    305.10083   -1789.6653   -23338.454    -25254.66    1916.2061    1.1610133    30.985945    30.985945    30.985945    29750.497 
 4710000    292.73953    -3251.068   -23281.342   -25119.912    1838.5702    1.1610133    30.985945    30.985945    30.985945    29750.497 
 4711000    292.75909    -2888.752   -23299.961   -25138.654     1838.693    1.1610133    30.985945    30.985945    30.985945    29750.497 
 4712000     300.9094   -3686.4274   -23227.732   -25117.613    1889.8816    1.1610133    30.985945    30.985945    30.985945    29750.497 
 4713000    297.48419   -3400.9137   -23238.417   -25106.787    1868.3693    1.1610133    30.985945    30.985945    30.985945    29750.497 
 4714000    296.72892    -2622.918   -23282.613   -25146.239    1863.6258    1.1610133    30.985945    30.985945    30.985945    29750.497 
 4715000    295.66687   -1629.5838   -23277.059   -25134.015    1856.9555    1.1610133    30.985945    30.985945    30.985945    29750.497 
 4716000    293.26828   -2862.2729   -23209.437   -25051.328     1841.891    1.1610133    30.985945    30.985945    30.985945    29750.497 
 4717000    300.68717    -2857.773   -23255.673   -25144.159    1888.4858    1.1610133    30.985945    30.985945    30.985945    29750.497 
 4718000    295.25426   -2745.1537    -23292.49   -25146.854    1854.3641    1.1610133    30.985945    30.985945    30.985945    29750.497 
 4719000    297.48613   -2105.3168   -23357.238   -25225.619    1868.3815    1.1610133    30.985945    30.985945    30.985945    29750.497 
 4720000    294.86539   -3387.5345   -23267.172   -25119.094    1851.9218    1.1610133    30.985945    30.985945    30.985945    29750.497 
 4721000    297.27541   -2893.7277   -23313.311   -25180.369    1867.0581    1.1610133    30.985945    30.985945    30.985945    29750.497 
 4722000    293.80614   -2264.5617   -23235.306   -25080.575    1845.2691    1.1610133    30.985945    30.985945    30.985945    29750.497 
 4723000    298.67524   -3129.9371   -23262.695   -25138.545    1875.8498    1.1610133    30.985945    30.985945    30.985945    29750.497 
 4724000    295.76753    -3219.738   -23370.938   -25228.525    1857.5877    1.1610133    30.985945    30.985945    30.985945    29750.497 
 4725000    308.30919   -3067.4337   -23270.028   -25206.384    1936.3565    1.1610133    30.985945    30.985945    30.985945    29750.497 
 4726000     300.2883   -3207.4637   -23333.049    -25219.03    1885.9807    1.1610133    30.985945    30.985945    30.985945    29750.497 
 4727000    303.44511   -3072.8892   -23257.685   -25163.492    1905.8073    1.1610133    30.985945    30.985945    30.985945    29750.497 
 4728000    298.79708   -2489.6628   -23278.792   -25155.407     1876.615    1.1610133    30.985945    30.985945    30.985945    29750.497 
 4729000    293.88374   -2070.6675   -23276.535   -25122.292    1845.7565    1.1610133    30.985945    30.985945    30.985945    29750.497 
 4730000    297.79012   -2362.8564   -23263.296   -25133.586    1870.2908    1.1610133    30.985945    30.985945    30.985945    29750.497 
 4731000    296.41459   -2184.3275   -23259.431   -25121.082    1861.6516    1.1610133    30.985945    30.985945    30.985945    29750.497 
 4732000    293.11531   -2413.9138   -23263.677   -25104.607    1840.9303    1.1610133    30.985945    30.985945    30.985945    29750.497 
 4733000    297.30655   -2663.9064   -23326.429   -25193.682    1867.2537    1.1610133    30.985945    30.985945    30.985945    29750.497 
 4734000     303.6834   -3077.2817   -23249.889   -25157.193    1907.3039    1.1610133    30.985945    30.985945    30.985945    29750.497 
 4735000    286.11148   -1877.1811    -23321.16   -25118.103    1796.9423    1.1610133    30.985945    30.985945    30.985945    29750.497 
 4736000     292.1011   -3332.6124   -23279.016   -25113.576    1834.5605    1.1610133    30.985945    30.985945    30.985945    29750.497 
 4737000    302.25504   -2478.3996   -23154.367     -25052.7    1898.3329    1.1610133    30.985945    30.985945    30.985945    29750.497 
 4738000    300.05562   -3434.5713   -23162.745   -25047.265    1884.5194    1.1610133    30.985945    30.985945    30.985945    29750.497 
 4739000    291.12353   -2848.7009   -23238.249    -25066.67    1828.4208    1.1610133    30.985945    30.985945    30.985945    29750.497 
 4740000    298.19087   -2695.2158   -23263.577   -25136.385    1872.8077    1.1610133    30.985945    30.985945    30.985945    29750.497 
 4741000    300.78064    -2075.796   -23232.645   -25121.718    1889.0729    1.1610133    30.985945    30.985945    30.985945    29750.497 
 4742000    300.96422   -2488.3109   -23238.185   -25128.411    1890.2259    1.1610133    30.985945    30.985945    30.985945    29750.497 
 4743000    296.09875   -1787.9501   -23139.705   -24999.373     1859.668    1.1610133    30.985945    30.985945    30.985945    29750.497 
 4744000    289.65727   -2101.5516   -23249.221   -25068.433    1819.2118    1.1610133    30.985945    30.985945    30.985945    29750.497 
 4745000    300.35025   -1117.8065   -23216.729   -25103.099    1886.3698    1.1610133    30.985945    30.985945    30.985945    29750.497 
 4746000    290.17708   -3330.0054    -23267.78   -25090.256    1822.4766    1.1610133    30.985945    30.985945    30.985945    29750.497 
 4747000    306.58917   -2157.8393   -23228.035   -25153.589    1925.5538    1.1610133    30.985945    30.985945    30.985945    29750.497 
 4748000    297.58172   -3211.1931   -23193.853   -25062.835    1868.9819    1.1610133    30.985945    30.985945    30.985945    29750.497 
 4749000    306.53177   -3025.6838   -23179.289   -25104.483    1925.1933    1.1610133    30.985945    30.985945    30.985945    29750.497 
 4750000    292.69239   -3627.2738   -23377.106    -25215.38    1838.2741    1.1610133    30.985945    30.985945    30.985945    29750.497 
 4751000    300.69157   -2070.0471   -23319.029   -25207.542    1888.5135    1.1610133    30.985945    30.985945    30.985945    29750.497 
 4752000    308.82227   -2759.9851   -23274.244   -25213.823    1939.5789    1.1610133    30.985945    30.985945    30.985945    29750.497 
 4753000    301.25113   -2612.9458   -23285.832    -25177.86    1892.0278    1.1610133    30.985945    30.985945    30.985945    29750.497 
 4754000    295.48119   -2624.9212   -23359.033   -25214.822    1855.7893    1.1610133    30.985945    30.985945    30.985945    29750.497 
 4755000    296.23748   -2721.3866   -23357.725   -25218.264    1860.5393    1.1610133    30.985945    30.985945    30.985945    29750.497 
 4756000    297.68925   -2606.7995   -23174.383   -25044.041    1869.6572    1.1610133    30.985945    30.985945    30.985945    29750.497 
 4757000    298.15857   -3354.8393   -23277.904   -25150.509    1872.6048    1.1610133    30.985945    30.985945    30.985945    29750.497 
 4758000    301.90797   -2041.2885     -23216.9   -25113.054    1896.1531    1.1610133    30.985945    30.985945    30.985945    29750.497 
 4759000    300.76673   -3065.8592   -23262.818   -25151.803    1888.9855    1.1610133    30.985945    30.985945    30.985945    29750.497 
 4760000    304.92128   -2412.5569   -23132.516   -25047.594    1915.0785    1.1610133    30.985945    30.985945    30.985945    29750.497 
 4761000    302.41588     -2883.31   -23231.116   -25130.459    1899.3431    1.1610133    30.985945    30.985945    30.985945    29750.497 
 4762000    293.17072   -2337.4938   -23300.554   -25141.832    1841.2783    1.1610133    30.985945    30.985945    30.985945    29750.497 
 4763000     303.8071   -1769.6009   -23185.484   -25093.565    1908.0808    1.1610133    30.985945    30.985945    30.985945    29750.497 
 4764000    287.81827   -2319.3579   -23306.713   -25114.374    1807.6619    1.1610133    30.985945    30.985945    30.985945    29750.497 
 4765000    295.80975    -2022.802   -23265.795   -25123.648    1857.8529    1.1610133    30.985945    30.985945    30.985945    29750.497 
 4766000    288.94692   -3214.4354    -23308.37   -25123.121    1814.7504    1.1610133    30.985945    30.985945    30.985945    29750.497 
 4767000    295.78011   -3314.3623   -23234.818   -25092.485    1857.6667    1.1610133    30.985945    30.985945    30.985945    29750.497 
 4768000    298.27385    -2220.657   -23283.466   -25156.795    1873.3288    1.1610133    30.985945    30.985945    30.985945    29750.497 
 4769000    291.36439   -2597.9267   -23340.884   -25170.818    1829.9335    1.1610133    30.985945    30.985945    30.985945    29750.497 
 4770000    292.27972   -2954.0506   -23346.984   -25182.666    1835.6823    1.1610133    30.985945    30.985945    30.985945    29750.497 
 4771000    299.66585    -3008.005   -23228.521   -25110.593    1882.0714    1.1610133    30.985945    30.985945    30.985945    29750.497 
 4772000    292.26491   -1403.8829   -23317.034   -25152.623    1835.5893    1.1610133    30.985945    30.985945    30.985945    29750.497 
 4773000    298.63077   -1348.0577   -23178.841   -25054.411    1875.5705    1.1610133    30.985945    30.985945    30.985945    29750.497 
 4774000    298.59009    -985.1348   -23178.242   -25053.557     1875.315    1.1610133    30.985945    30.985945    30.985945    29750.497 
 4775000    302.07313   -2392.9085   -23242.442   -25139.632    1897.1904    1.1610133    30.985945    30.985945    30.985945    29750.497 
 4776000    296.96814   -2494.8199   -23271.106   -25136.234    1865.1282    1.1610133    30.985945    30.985945    30.985945    29750.497 
 4777000    306.35158   -2364.0944   -23151.176   -25075.237    1924.0616    1.1610133    30.985945    30.985945    30.985945    29750.497 
 4778000    301.51712   -3726.1598   -23243.568   -25137.267    1893.6984    1.1610133    30.985945    30.985945    30.985945    29750.497 
 4779000    306.07978   -2921.9681   -23223.325   -25145.679    1922.3545    1.1610133    30.985945    30.985945    30.985945    29750.497 
 4780000    300.20776   -3025.7848   -23292.957   -25178.432    1885.4749    1.1610133    30.985945    30.985945    30.985945    29750.497 
 4781000    290.77236   -2752.1338   -23343.181   -25169.397    1826.2153    1.1610133    30.985945    30.985945    30.985945    29750.497 
 4782000    296.50604   -2054.0704   -23258.275   -25120.501     1862.226    1.1610133    30.985945    30.985945    30.985945    29750.497 
 4783000    299.38014   -3047.3905   -23273.443    -25153.72     1880.277    1.1610133    30.985945    30.985945    30.985945    29750.497 
 4784000    307.56834   -2079.8147   -23224.244   -25155.948    1931.7035    1.1610133    30.985945    30.985945    30.985945    29750.497 
 4785000    295.20674   -2674.3936   -23296.063   -25150.129    1854.0656    1.1610133    30.985945    30.985945    30.985945    29750.497 
 4786000     304.0086   -2210.5342   -23239.875   -25149.221    1909.3463    1.1610133    30.985945    30.985945    30.985945    29750.497 
 4787000    293.96384   -2826.4906   -23274.825   -25121.084    1846.2595    1.1610133    30.985945    30.985945    30.985945    29750.497 
 4788000    299.55898    -2054.072   -23357.693   -25239.093    1881.4002    1.1610133    30.985945    30.985945    30.985945    29750.497 
 4789000    300.80039   -2210.7443   -23406.027   -25295.224    1889.1969    1.1610133    30.985945    30.985945    30.985945    29750.497 
 4790000    295.12168   -1072.6982   -23293.223   -25146.754    1853.5314    1.1610133    30.985945    30.985945    30.985945    29750.497 
 4791000    301.83043    -2879.784   -23300.026   -25195.692    1895.6662    1.1610133    30.985945    30.985945    30.985945    29750.497 
 4792000    291.72526   -1237.8168   -23368.805   -25201.005       1832.2    1.1610133    30.985945    30.985945    30.985945    29750.497 
 4793000    304.67175   -2605.0872   -23213.374   -25126.885    1913.5112    1.1610133    30.985945    30.985945    30.985945    29750.497 
 4794000    289.28893   -2197.5365   -23356.517   -25173.416    1816.8984    1.1610133    30.985945    30.985945    30.985945    29750.497 
 4795000    301.86022   -1801.5554   -23181.475   -25077.329    1895.8532    1.1610133    30.985945    30.985945    30.985945    29750.497 
 4796000    294.62553   -2487.4792   -23236.249   -25086.665    1850.4153    1.1610133    30.985945    30.985945    30.985945    29750.497 
 4797000    307.45912   -2722.2539   -23153.273   -25084.291    1931.0175    1.1610133    30.985945    30.985945    30.985945    29750.497 
 4798000    294.87921   -2851.7059   -23250.639   -25102.648    1852.0085    1.1610133    30.985945    30.985945    30.985945    29750.497 
 4799000    297.20228   -3121.7485    -23278.61   -25145.209    1866.5988    1.1610133    30.985945    30.985945    30.985945    29750.497 
 4800000    294.07075   -2085.1409   -23262.519    -25109.45     1846.931    1.1610133    30.985945    30.985945    30.985945    29750.497 
 4801000    284.06892   -2522.1057   -23347.507   -25131.621    1784.1138    1.1610133    30.985945    30.985945    30.985945    29750.497 
 4802000    299.34566   -2677.2814    -23209.16   -25089.221    1880.0604    1.1610133    30.985945    30.985945    30.985945    29750.497 
 4803000    306.12925   -3527.2236   -23173.946   -25096.611    1922.6652    1.1610133    30.985945    30.985945    30.985945    29750.497 
 4804000    298.51019   -1908.2899   -23187.125   -25061.938    1874.8132    1.1610133    30.985945    30.985945    30.985945    29750.497 
 4805000    295.39537   -2646.8578   -23263.219   -25118.469    1855.2504    1.1610133    30.985945    30.985945    30.985945    29750.497 
 4806000    297.07163   -1888.8629   -23269.857   -25135.635    1865.7782    1.1610133    30.985945    30.985945    30.985945    29750.497 
 4807000    296.20005    -3635.147   -23193.006    -25053.31    1860.3042    1.1610133    30.985945    30.985945    30.985945    29750.497 
 4808000    301.69602    -3370.102   -23240.509   -25135.331     1894.822    1.1610133    30.985945    30.985945    30.985945    29750.497 
 4809000    301.75363   -1875.6018   -23197.101   -25092.285    1895.1838    1.1610133    30.985945    30.985945    30.985945    29750.497 
 4810000     299.0314   -2123.5319   -23202.655   -25080.742    1878.0866    1.1610133    30.985945    30.985945    30.985945    29750.497 
 4811000    301.86764    -2712.311   -23206.153   -25102.053    1895.8999    1.1610133    30.985945    30.985945    30.985945    29750.497 
 4812000    296.08066   -2768.2743   -23208.476   -25068.031    1859.5543    1.1610133    30.985945    30.985945    30.985945    29750.497 
 4813000    286.03567   -2755.1607   -23294.184   -25090.651    1796.4661    1.1610133    30.985945    30.985945    30.985945    29750.497 
 4814000    294.79164   -2943.6011   -23327.259   -25178.718    1851.4586    1.1610133    30.985945    30.985945    30.985945    29750.497 
 4815000    304.91106   -2129.0614   -23177.817   -25092.831    1915.0143    1.1610133    30.985945    30.985945    30.985945    29750.497 
 4816000     301.0738   -2317.7017   -23232.537   -25123.451    1890.9141    1.1610133    30.985945    30.985945    30.985945    29750.497 
 4817000    299.76242   -2553.6751   -23237.149   -25119.827    1882.6779    1.1610133    30.985945    30.985945    30.985945    29750.497 
 4818000    300.09535   -1930.8772   -23277.564   -25162.333    1884.7689    1.1610133    30.985945    30.985945    30.985945    29750.497 
 4819000     307.3783   -1429.9752    -23219.42    -25149.93    1930.5099    1.1610133    30.985945    30.985945    30.985945    29750.497 
 4820000    293.96921   -1792.6721   -23303.279   -25149.573    1846.2933    1.1610133    30.985945    30.985945    30.985945    29750.497 
 4821000    303.31352   -2860.9712   -23176.838   -25081.819    1904.9808    1.1610133    30.985945    30.985945    30.985945    29750.497 
 4822000    298.91825   -1892.1551   -23237.381   -25114.757     1877.376    1.1610133    30.985945    30.985945    30.985945    29750.497 
 4823000    309.29648   -2272.7951   -23304.047   -25246.604    1942.5572    1.1610133    30.985945    30.985945    30.985945    29750.497 
 4824000    298.45446   -1696.9385   -23207.212   -25081.675    1874.4631    1.1610133    30.985945    30.985945    30.985945    29750.497 
 4825000    295.98242   -2939.9705   -23223.793    -25082.73    1858.9374    1.1610133    30.985945    30.985945    30.985945    29750.497 
 4826000    303.01579   -2227.7946   -23299.729    -25202.84    1903.1109    1.1610133    30.985945    30.985945    30.985945    29750.497 
 4827000    295.28365   -3349.6863   -23201.966   -25056.515    1854.5487    1.1610133    30.985945    30.985945    30.985945    29750.497 
 4828000    296.13779   -2847.5119   -23312.701   -25172.614    1859.9131    1.1610133    30.985945    30.985945    30.985945    29750.497 
 4829000    297.39297   -1548.5942   -23283.517   -25151.314    1867.7964    1.1610133    30.985945    30.985945    30.985945    29750.497 
 4830000    302.45117    -2943.848   -23209.975    -25109.54    1899.5648    1.1610133    30.985945    30.985945    30.985945    29750.497 
 4831000    302.55944   -2810.7831   -23245.903   -25146.148    1900.2448    1.1610133    30.985945    30.985945    30.985945    29750.497 
 4832000    291.09353   -2282.0521   -23325.567     -25153.8    1828.2324    1.1610133    30.985945    30.985945    30.985945    29750.497 
 4833000    301.86816    -2775.171   -23276.889   -25172.792    1895.9031    1.1610133    30.985945    30.985945    30.985945    29750.497 
 4834000    296.09963   -2258.4494     -23266.9   -25126.574    1859.6735    1.1610133    30.985945    30.985945    30.985945    29750.497 
 4835000    286.14592   -2155.1215   -23273.698   -25070.856    1797.1586    1.1610133    30.985945    30.985945    30.985945    29750.497 
 4836000    297.80846   -2556.7831   -23128.836   -24999.242    1870.4059    1.1610133    30.985945    30.985945    30.985945    29750.497 
 4837000    300.62419   -2879.0984   -23191.633   -25079.723    1888.0903    1.1610133    30.985945    30.985945    30.985945    29750.497 
 4838000    289.97646   -1970.6652   -23355.863    -25177.08    1821.2165    1.1610133    30.985945    30.985945    30.985945    29750.497 
 4839000    299.02191   -3123.0442   -23299.093    -25177.12    1878.0271    1.1610133    30.985945    30.985945    30.985945    29750.497 
 4840000    306.92416   -1406.7769   -23278.304   -25205.961    1927.6577    1.1610133    30.985945    30.985945    30.985945    29750.497 
 4841000    296.66131   -2185.3635   -23270.449    -25133.65    1863.2012    1.1610133    30.985945    30.985945    30.985945    29750.497 
 4842000    299.81485    -2275.906   -23274.516   -25157.523    1883.0072    1.1610133    30.985945    30.985945    30.985945    29750.497 
 4843000    295.26444   -2289.6441   -23367.478   -25221.906     1854.428    1.1610133    30.985945    30.985945    30.985945    29750.497 
 4844000    292.83618   -2064.6655   -23378.868   -25218.046    1839.1772    1.1610133    30.985945    30.985945    30.985945    29750.497 
 4845000    298.11358   -2167.1496   -23295.936   -25168.258    1872.3222    1.1610133    30.985945    30.985945    30.985945    29750.497 
 4846000    309.93495   -2192.5153   -23115.911   -25062.478    1946.5671    1.1610133    30.985945    30.985945    30.985945    29750.497 
 4847000    297.63118   -3097.5503    -23311.04   -25180.332    1869.2925    1.1610133    30.985945    30.985945    30.985945    29750.497 
 4848000    299.66572   -1928.1028   -23187.731   -25069.801    1882.0706    1.1610133    30.985945    30.985945    30.985945    29750.497 
 4849000    300.85097   -3185.2071   -23209.252   -25098.767    1889.5146    1.1610133    30.985945    30.985945    30.985945    29750.497 
 4850000    301.32328   -2705.6598   -23160.394   -25052.875     1892.481    1.1610133    30.985945    30.985945    30.985945    29750.497 
 4851000    302.72751   -2340.6799   -23257.069   -25158.369    1901.3003    1.1610133    30.985945    30.985945    30.985945    29750.497 
 4852000    297.96572    -3209.373   -23233.121   -25104.514    1871.3936    1.1610133    30.985945    30.985945    30.985945    29750.497 
 4853000     295.2183   -2419.1888   -23235.616   -25089.754    1854.1383    1.1610133    30.985945    30.985945    30.985945    29750.497 
 4854000    293.07194    -2815.181   -23263.314   -25103.972    1840.6579    1.1610133    30.985945    30.985945    30.985945    29750.497 
 4855000    309.19914    -2598.771   -23189.027   -25130.973    1941.9459    1.1610133    30.985945    30.985945    30.985945    29750.497 
 4856000    306.99475   -2087.0717   -23186.316   -25114.417     1928.101    1.1610133    30.985945    30.985945    30.985945    29750.497 
 4857000    301.33487    -2272.989   -23323.919   -25216.472    1892.5538    1.1610133    30.985945    30.985945    30.985945    29750.497 
 4858000    298.34503   -1412.7202   -23322.279   -25196.055    1873.7759    1.1610133    30.985945    30.985945    30.985945    29750.497 
 4859000    295.17475   -2100.9866   -23299.306    -25153.17    1853.8647    1.1610133    30.985945    30.985945    30.985945    29750.497 
 4860000    293.25438    -1551.995   -23343.995   -25185.799    1841.8037    1.1610133    30.985945    30.985945    30.985945    29750.497 
 4861000    298.79265   -2943.2861   -23318.711   -25195.298    1876.5872    1.1610133    30.985945    30.985945    30.985945    29750.497 
 4862000    304.58257   -2991.9493   -23309.523   -25222.474    1912.9512    1.1610133    30.985945    30.985945    30.985945    29750.497 
 4863000    294.36721    -2171.809   -23383.868   -25232.661    1848.7929    1.1610133    30.985945    30.985945    30.985945    29750.497 
 4864000    298.78594   -2083.2952   -23264.077   -25140.622     1876.545    1.1610133    30.985945    30.985945    30.985945    29750.497 
 4865000    308.76465    -2173.297   -23261.531   -25200.748     1939.217    1.1610133    30.985945    30.985945    30.985945    29750.497 
 4866000    300.05163   -2157.0774   -23236.504   -25120.998    1884.4943    1.1610133    30.985945    30.985945    30.985945    29750.497 
 4867000    298.78414   -2359.1099   -23266.746    -25143.28    1876.5337    1.1610133    30.985945    30.985945    30.985945    29750.497 
 4868000    299.08591   -2585.5559   -23247.289   -25125.718     1878.429    1.1610133    30.985945    30.985945    30.985945    29750.497 
 4869000    295.53849    -2888.309   -23302.551     -25158.7    1856.1492    1.1610133    30.985945    30.985945    30.985945    29750.497 
 4870000     303.0361   -1947.6169   -23268.512    -25171.75    1903.2385    1.1610133    30.985945    30.985945    30.985945    29750.497 
 4871000    292.82594    -2466.109   -23325.822   -25164.935    1839.1129    1.1610133    30.985945    30.985945    30.985945    29750.497 
 4872000    302.95544   -2473.6582   -23376.501   -25279.233    1902.7318    1.1610133    30.985945    30.985945    30.985945    29750.497 
 4873000    298.72798   -3051.7024   -23328.146   -25204.327     1876.181    1.1610133    30.985945    30.985945    30.985945    29750.497 
 4874000    296.11403   -3187.4959   -23377.624   -25237.388     1859.764    1.1610133    30.985945    30.985945    30.985945    29750.497 
 4875000    289.83679   -2153.7803   -23329.045   -25149.384    1820.3393    1.1610133    30.985945    30.985945    30.985945    29750.497 
 4876000    291.30115    -2195.841   -23358.915   -25188.451    1829.5363    1.1610133    30.985945    30.985945    30.985945    29750.497 
 4877000    292.42829   -3151.3594   -23304.097   -25140.713    1836.6154    1.1610133    30.985945    30.985945    30.985945    29750.497 
 4878000    304.00608   -2877.2747   -23161.516   -25070.846    1909.3305    1.1610133    30.985945    30.985945    30.985945    29750.497 
 4879000    300.54754   -2246.5721   -23239.086   -25126.695    1887.6089    1.1610133    30.985945    30.985945    30.985945    29750.497 
 4880000    303.11278   -2922.8661   -23211.388   -25115.108    1903.7201    1.1610133    30.985945    30.985945    30.985945    29750.497 
 4881000    298.80334   -2592.3617   -23215.347   -25092.001    1876.6543    1.1610133    30.985945    30.985945    30.985945    29750.497 
 4882000    294.36853   -2728.8715   -23292.364   -25141.165    1848.8012    1.1610133    30.985945    30.985945    30.985945    29750.497 
 4883000    299.27658   -2239.9129   -23267.284   -25146.911    1879.6266    1.1610133    30.985945    30.985945    30.985945    29750.497 
 4884000    297.30677   -2277.0375   -23281.661   -25148.916     1867.255    1.1610133    30.985945    30.985945    30.985945    29750.497 
 4885000    296.20611   -3176.9396   -23200.691   -25061.033    1860.3423    1.1610133    30.985945    30.985945    30.985945    29750.497 
 4886000    295.60233   -2437.2684   -23251.699   -25108.249    1856.5502    1.1610133    30.985945    30.985945    30.985945    29750.497 
 4887000    295.01406   -2822.6407   -23318.784   -25171.639    1852.8555    1.1610133    30.985945    30.985945    30.985945    29750.497 
 4888000    306.28241   -2173.7313   -23267.088   -25190.716    1923.6271    1.1610133    30.985945    30.985945    30.985945    29750.497 
 4889000    292.84062   -2790.9523   -23286.836   -25126.041    1839.2051    1.1610133    30.985945    30.985945    30.985945    29750.497 
 4890000    298.80464   -2088.8485    -23273.07   -25149.733    1876.6625    1.1610133    30.985945    30.985945    30.985945    29750.497 
 4891000    306.21342   -3223.9999   -23185.662   -25108.856    1923.1939    1.1610133    30.985945    30.985945    30.985945    29750.497 
 4892000    293.59279   -2734.2341   -23285.631    -25129.56    1843.9291    1.1610133    30.985945    30.985945    30.985945    29750.497 
 4893000    306.27679   -2150.0474   -23151.808   -25075.399    1923.5918    1.1610133    30.985945    30.985945    30.985945    29750.497 
 4894000    299.36803   -2211.6511   -23232.913   -25113.114    1880.2009    1.1610133    30.985945    30.985945    30.985945    29750.497 
 4895000    308.51107   -2448.9701   -23209.212   -25146.837    1937.6244    1.1610133    30.985945    30.985945    30.985945    29750.497 
 4896000    297.08196   -2354.4816   -23259.083   -25124.926    1865.8431    1.1610133    30.985945    30.985945    30.985945    29750.497 
 4897000     300.7594   -1735.4267   -23233.397   -25122.337    1888.9395    1.1610133    30.985945    30.985945    30.985945    29750.497 
 4898000    293.44548   -1741.5579   -23313.919   -25156.923    1843.0039    1.1610133    30.985945    30.985945    30.985945    29750.497 
 4899000    295.54737   -2230.8983   -23272.388   -25128.593     1856.205    1.1610133    30.985945    30.985945    30.985945    29750.497 
 4900000    299.90882   -2167.7136   -23280.291   -25163.888    1883.5974    1.1610133    30.985945    30.985945    30.985945    29750.497 
 4901000    296.81166    -2945.976   -23203.295   -25067.441    1864.1455    1.1610133    30.985945    30.985945    30.985945    29750.497 
 4902000    303.61387    -3439.608   -23231.279   -25138.147    1906.8672    1.1610133    30.985945    30.985945    30.985945    29750.497 
 4903000    303.20758   -2331.0372   -23275.075   -25179.391    1904.3155    1.1610133    30.985945    30.985945    30.985945    29750.497 
 4904000    301.82961   -2713.7295   -23218.432   -25114.093     1895.661    1.1610133    30.985945    30.985945    30.985945    29750.497 
 4905000    295.76406   -2465.5696   -23250.804    -25108.37    1857.5659    1.1610133    30.985945    30.985945    30.985945    29750.497 
 4906000    304.87206   -2612.6084   -23178.948   -25093.718    1914.7693    1.1610133    30.985945    30.985945    30.985945    29750.497 
 4907000    304.01228   -1824.2737   -23177.678   -25087.047    1909.3695    1.1610133    30.985945    30.985945    30.985945    29750.497 
 4908000      291.216   -2168.7408    -23312.19   -25141.192    1829.0015    1.1610133    30.985945    30.985945    30.985945    29750.497 
 4909000    303.83056   -1793.9758   -23145.046   -25053.274    1908.2281    1.1610133    30.985945    30.985945    30.985945    29750.497 
 4910000     296.0179    -2953.122   -23236.115   -25095.275    1859.1602    1.1610133    30.985945    30.985945    30.985945    29750.497 
 4911000    296.12264   -2282.1895   -23278.338   -25138.156     1859.818    1.1610133    30.985945    30.985945    30.985945    29750.497 
 4912000    292.33246   -2831.7791   -23312.797   -25148.811    1836.0135    1.1610133    30.985945    30.985945    30.985945    29750.497 
 4913000    301.96298   -3011.2807   -23288.584   -25185.082    1896.4987    1.1610133    30.985945    30.985945    30.985945    29750.497 
 4914000    296.47162   -3381.9745    -23222.87    -25084.88    1862.0098    1.1610133    30.985945    30.985945    30.985945    29750.497 
 4915000    299.42912   -2749.2473   -23240.136   -25120.721    1880.5846    1.1610133    30.985945    30.985945    30.985945    29750.497 
 4916000    303.05344   -3279.2026   -23193.278   -25096.625    1903.3474    1.1610133    30.985945    30.985945    30.985945    29750.497 
 4917000    297.39691   -2314.3067   -23339.518   -25207.339    1867.8211    1.1610133    30.985945    30.985945    30.985945    29750.497 
 4918000    305.71453   -2336.8327   -23199.522   -25119.583    1920.0605    1.1610133    30.985945    30.985945    30.985945    29750.497 
 4919000    299.60715    -1959.233   -23260.709   -25142.412    1881.7027    1.1610133    30.985945    30.985945    30.985945    29750.497 
 4920000    296.66816   -3376.9569   -23309.785   -25173.029    1863.2442    1.1610133    30.985945    30.985945    30.985945    29750.497 
 4921000    298.03805   -2127.6137   -23187.629   -25059.477    1871.8479    1.1610133    30.985945    30.985945    30.985945    29750.497 
 4922000    300.76688   -2207.5244   -23252.007   -25140.993    1888.9865    1.1610133    30.985945    30.985945    30.985945    29750.497 
 4923000    286.96955    -2089.428   -23382.854   -25185.186    1802.3314    1.1610133    30.985945    30.985945    30.985945    29750.497 
 4924000    301.88788   -3461.8682   -23241.198   -25137.225     1896.027    1.1610133    30.985945    30.985945    30.985945    29750.497 
 4925000    301.82349   -2625.5047   -23269.285   -25164.908    1895.6226    1.1610133    30.985945    30.985945    30.985945    29750.497 
 4926000    290.30587   -2064.2395   -23294.326   -25117.611    1823.2854    1.1610133    30.985945    30.985945    30.985945    29750.497 
 4927000    288.38881   -3435.3195   -23348.591   -25159.837    1811.2452    1.1610133    30.985945    30.985945    30.985945    29750.497 
 4928000    306.43576   -2427.7088   -23195.365   -25119.955    1924.5902    1.1610133    30.985945    30.985945    30.985945    29750.497 
 4929000    300.97476   -2805.9124   -23210.922   -25101.214    1890.2921    1.1610133    30.985945    30.985945    30.985945    29750.497 
 4930000    298.55761   -2838.0932   -23269.925   -25145.036     1875.111    1.1610133    30.985945    30.985945    30.985945    29750.497 
 4931000    286.87958   -1987.6645   -23388.434     -25190.2    1801.7664    1.1610133    30.985945    30.985945    30.985945    29750.497 
 4932000    295.33972    -2622.728   -23312.747   -25167.648    1854.9008    1.1610133    30.985945    30.985945    30.985945    29750.497 
 4933000    293.54076   -2867.4037   -23310.411   -25154.013    1843.6023    1.1610133    30.985945    30.985945    30.985945    29750.497 
 4934000    308.47314   -2986.0398   -23128.731   -25066.117    1937.3862    1.1610133    30.985945    30.985945    30.985945    29750.497 
 4935000    297.67626   -1974.1198   -23184.002   -25053.578    1869.5756    1.1610133    30.985945    30.985945    30.985945    29750.497 
 4936000    303.43977   -2884.1803   -23254.777   -25160.551    1905.7737    1.1610133    30.985945    30.985945    30.985945    29750.497 
 4937000    291.79875   -2025.6993   -23287.508    -25120.17    1832.6616    1.1610133    30.985945    30.985945    30.985945    29750.497 
 4938000    299.66594   -2243.1472   -23228.702   -25110.774    1882.0719    1.1610133    30.985945    30.985945    30.985945    29750.497 
 4939000    302.27127   -2980.2919    -23156.43   -25054.865    1898.4349    1.1610133    30.985945    30.985945    30.985945    29750.497 
 4940000    292.82293    -2226.666   -23267.967   -25107.061     1839.094    1.1610133    30.985945    30.985945    30.985945    29750.497 
 4941000    296.68135   -2746.8216   -23232.995   -25096.322     1863.327    1.1610133    30.985945    30.985945    30.985945    29750.497 
 4942000    299.35937   -2626.7457   -23231.188   -25111.334    1880.1465    1.1610133    30.985945    30.985945    30.985945    29750.497 
 4943000    294.40883   -3174.7055   -23309.661   -25158.715    1849.0543    1.1610133    30.985945    30.985945    30.985945    29750.497 
 4944000    293.07408   -3041.1596   -23354.561   -25195.232    1840.6713    1.1610133    30.985945    30.985945    30.985945    29750.497 
 4945000    292.96774   -2045.8369   -23308.428   -25148.432    1840.0034    1.1610133    30.985945    30.985945    30.985945    29750.497 
 4946000    296.63812    -2377.668   -23285.734    -25148.79    1863.0555    1.1610133    30.985945    30.985945    30.985945    29750.497 
 4947000    301.67694   -2552.7767   -23317.332   -25212.034    1894.7021    1.1610133    30.985945    30.985945    30.985945    29750.497 
 4948000    295.05374   -2926.4051   -23355.286   -25208.391    1853.1047    1.1610133    30.985945    30.985945    30.985945    29750.497 
 4949000    301.99192   -3211.6972   -23268.908   -25165.588    1896.6804    1.1610133    30.985945    30.985945    30.985945    29750.497 
 4950000    299.10757   -2124.9149   -23264.354   -25142.919    1878.5651    1.1610133    30.985945    30.985945    30.985945    29750.497 
 4951000     301.1495   -3470.0379   -23341.468   -25232.858    1891.3896    1.1610133    30.985945    30.985945    30.985945    29750.497 
 4952000    292.07019    -2757.007   -23371.334   -25205.701    1834.3664    1.1610133    30.985945    30.985945    30.985945    29750.497 
 4953000     298.0213   -2750.8711   -23275.005   -25146.747    1871.7427    1.1610133    30.985945    30.985945    30.985945    29750.497 
 4954000    302.91202   -2249.2238   -23323.108   -25225.567    1902.4591    1.1610133    30.985945    30.985945    30.985945    29750.497 
 4955000    304.93062     -2915.24   -23139.173    -25054.31    1915.1371    1.1610133    30.985945    30.985945    30.985945    29750.497 
 4956000    290.96794   -2373.8069    -23336.82   -25164.264    1827.4436    1.1610133    30.985945    30.985945    30.985945    29750.497 
 4957000    303.99203   -1833.7438   -23244.735   -25153.977    1909.2423    1.1610133    30.985945    30.985945    30.985945    29750.497 
 4958000    294.60315    -2509.935   -23371.381   -25221.656    1850.2748    1.1610133    30.985945    30.985945    30.985945    29750.497 
 4959000    298.63604   -2930.1917   -23264.538   -25140.141    1875.6036    1.1610133    30.985945    30.985945    30.985945    29750.497 
 4960000    296.68405   -3197.4131   -23280.677   -25144.021     1863.344    1.1610133    30.985945    30.985945    30.985945    29750.497 
 4961000    305.94619   -2059.9932   -23253.308   -25174.823    1921.5155    1.1610133    30.985945    30.985945    30.985945    29750.497 
 4962000    310.51929   -1899.9321   -23159.932    -25110.17    1950.2371    1.1610133    30.985945    30.985945    30.985945    29750.497 
 4963000    311.81881   -2694.8076   -23160.904   -25119.303    1958.3989    1.1610133    30.985945    30.985945    30.985945    29750.497 
 4964000    300.51273   -2571.2957   -23228.748   -25116.138    1887.3903    1.1610133    30.985945    30.985945    30.985945    29750.497 
 4965000    298.07737   -2033.8844   -23259.084   -25131.179    1872.0948    1.1610133    30.985945    30.985945    30.985945    29750.497 
 4966000    296.56724   -2576.2221   -23258.556   -25121.167    1862.6103    1.1610133    30.985945    30.985945    30.985945    29750.497 
 4967000    302.05166    -2171.962   -23242.229   -25139.285    1897.0556    1.1610133    30.985945    30.985945    30.985945    29750.497 
 4968000    297.66355    -2538.457   -23253.779   -25123.275    1869.4958    1.1610133    30.985945    30.985945    30.985945    29750.497 
 4969000    299.51235   -3134.6372   -23303.353    -25184.46    1881.1073    1.1610133    30.985945    30.985945    30.985945    29750.497 
 4970000    300.36208   -2462.5938   -23265.548   -25151.992    1886.4441    1.1610133    30.985945    30.985945    30.985945    29750.497 
 4971000     305.8665    -2273.298   -23226.483   -25147.498     1921.015    1.1610133    30.985945    30.985945    30.985945    29750.497 
 4972000    306.04523   -3141.3436    -23247.03   -25169.168    1922.1375    1.1610133    30.985945    30.985945    30.985945    29750.497 
 4973000    299.48752   -2539.1578   -23244.129    -25125.08    1880.9513    1.1610133    30.985945    30.985945    30.985945    29750.497 
 4974000    296.40544   -1949.6942   -23334.701   -25196.295    1861.5942    1.1610133    30.985945    30.985945    30.985945    29750.497 
 4975000    301.02759   -3101.8849   -23232.357   -25122.981    1890.6239    1.1610133    30.985945    30.985945    30.985945    29750.497 
 4976000    299.89827   -3516.1905   -23229.059    -25112.59    1883.5311    1.1610133    30.985945    30.985945    30.985945    29750.497 
 4977000     298.3866   -2820.8263   -23316.008   -25190.045    1874.0369    1.1610133    30.985945    30.985945    30.985945    29750.497 
 4978000    295.30461   -1336.3403   -23294.709   -25149.389    1854.6803    1.1610133    30.985945    30.985945    30.985945    29750.497 
 4979000    301.61065   -1941.9002   -23267.696   -25161.982    1894.2858    1.1610133    30.985945    30.985945    30.985945    29750.497 
 4980000     299.3665    -2330.597   -23258.764   -25138.955    1880.1913    1.1610133    30.985945    30.985945    30.985945    29750.497 
 4981000    293.10758    -2298.982    -23198.48   -25039.362    1840.8817    1.1610133    30.985945    30.985945    30.985945    29750.497 
 4982000    302.83021   -2563.1688   -23215.009   -25116.954    1901.9454    1.1610133    30.985945    30.985945    30.985945    29750.497 
 4983000    302.02528   -2463.4131   -23220.987   -25117.877    1896.8899    1.1610133    30.985945    30.985945    30.985945    29750.497 
 4984000    301.87378   -2099.4172   -23205.164   -25101.102    1895.9384    1.1610133    30.985945    30.985945    30.985945    29750.497 
 4985000    297.99969      -2661.4   -23259.751   -25131.358    1871.6069    1.1610133    30.985945    30.985945    30.985945    29750.497 
 4986000    302.38052   -2151.0108   -23278.006   -25177.127     1899.121    1.1610133    30.985945    30.985945    30.985945    29750.497 
 4987000    292.79671   -2930.5738   -23277.036   -25115.965    1838.9293    1.1610133    30.985945    30.985945    30.985945    29750.497 
 4988000    290.26334   -3018.1873   -23339.399   -25162.418    1823.0183    1.1610133    30.985945    30.985945    30.985945    29750.497 
 4989000    295.87782   -2717.4594   -23315.567   -25173.847    1858.2804    1.1610133    30.985945    30.985945    30.985945    29750.497 
 4990000    289.67555   -2517.3424   -23336.102   -25155.429    1819.3266    1.1610133    30.985945    30.985945    30.985945    29750.497 
 4991000     296.0498   -2326.5937   -23335.133   -25194.494    1859.3605    1.1610133    30.985945    30.985945    30.985945    29750.497 
 4992000    297.27561   -2927.7024    -23233.15   -25100.209    1867.0593    1.1610133    30.985945    30.985945    30.985945    29750.497 
 4993000    301.03239   -2356.9607   -23260.778   -25151.432     1890.654    1.1610133    30.985945    30.985945    30.985945    29750.497 
 4994000    296.20139   -1815.1698   -23221.948    -25082.26    1860.3126    1.1610133    30.985945    30.985945    30.985945    29750.497 
 4995000    292.17448   -2501.1092   -23298.164   -25133.185    1835.0214    1.1610133    30.985945    30.985945    30.985945    29750.497 
 4996000    300.04709   -2994.3914   -23325.313   -25209.778    1884.4658    1.1610133    30.985945    30.985945    30.985945    29750.497 
 4997000    293.60166   -2000.0037   -23330.571   -25174.556    1843.9848    1.1610133    30.985945    30.985945    30.985945    29750.497 
 4998000    306.86962    -2194.597    -23190.67   -25117.985    1927.3152    1.1610133    30.985945    30.985945    30.985945    29750.497 
 4999000    298.17845   -2637.4495   -23241.771     -25114.5    1872.7297    1.1610133    30.985945    30.985945    30.985945    29750.497 
 5000000    300.31207   -2837.7043   -23262.537   -25148.667      1886.13    1.1610133    30.985945    30.985945    30.985945    29750.497 
 5001000    301.70617   -2148.8964   -23308.677   -25203.563    1894.8857    1.1610133    30.985945    30.985945    30.985945    29750.497 
 5002000    300.32035   -1624.7219   -23173.364   -25059.546     1886.182    1.1610133    30.985945    30.985945    30.985945    29750.497 
 5003000    301.31333   -2586.3115   -23288.029   -25180.447    1892.4185    1.1610133    30.985945    30.985945    30.985945    29750.497 
 5004000    299.93799    -3327.847   -23226.365   -25110.145    1883.7806    1.1610133    30.985945    30.985945    30.985945    29750.497 
 5005000    297.52724   -2713.0838   -23225.121   -25093.761    1868.6397    1.1610133    30.985945    30.985945    30.985945    29750.497 
 5006000    308.06428   -2317.9773   -23321.448   -25256.266    1934.8183    1.1610133    30.985945    30.985945    30.985945    29750.497 
 5007000    298.39597   -2556.2896   -23268.302   -25142.398    1874.0958    1.1610133    30.985945    30.985945    30.985945    29750.497 
 5008000    297.49341    -2778.259   -23292.121   -25160.548    1868.4273    1.1610133    30.985945    30.985945    30.985945    29750.497 
 5009000    302.97425   -2633.4714   -23192.077   -25094.927      1902.85    1.1610133    30.985945    30.985945    30.985945    29750.497 
 5010000    294.72803   -3484.6226   -23304.824   -25155.883     1851.059    1.1610133    30.985945    30.985945    30.985945    29750.497 
 5011000    292.42646   -3005.9154   -23396.972   -25233.576    1836.6039    1.1610133    30.985945    30.985945    30.985945    29750.497 
 5012000    297.13156   -3210.0284   -23284.044   -25150.199    1866.1546    1.1610133    30.985945    30.985945    30.985945    29750.497 
 5013000    290.48325   -1785.1114   -23226.616   -25051.015    1824.3995    1.1610133    30.985945    30.985945    30.985945    29750.497 
 5014000    298.47963   -1982.4098   -23349.869   -25224.491    1874.6212    1.1610133    30.985945    30.985945    30.985945    29750.497 
 5015000    291.81592   -1864.5554   -23328.112   -25160.881    1832.7694    1.1610133    30.985945    30.985945    30.985945    29750.497 
 5016000    302.51529   -1504.0651   -23330.086   -25230.054    1899.9675    1.1610133    30.985945    30.985945    30.985945    29750.497 
 5017000    306.36818   -2209.4452    -23219.81   -25143.976    1924.1658    1.1610133    30.985945    30.985945    30.985945    29750.497 
 5018000    307.58579   -2477.9015   -23236.965   -25168.779    1931.8131    1.1610133    30.985945    30.985945    30.985945    29750.497 
 5019000    300.36632   -2963.2407   -23233.813   -25120.284    1886.4707    1.1610133    30.985945    30.985945    30.985945    29750.497 
 5020000    294.12263   -2962.2987   -23273.791   -25121.048    1847.2568    1.1610133    30.985945    30.985945    30.985945    29750.497 
 5021000    297.08021   -2912.1256   -23171.317   -25037.149    1865.8321    1.1610133    30.985945    30.985945    30.985945    29750.497 
 5022000    295.73947   -2590.0593   -23234.804   -25092.216    1857.4115    1.1610133    30.985945    30.985945    30.985945    29750.497 
 5023000      301.246   -1796.2835   -23228.626   -25120.621    1891.9956    1.1610133    30.985945    30.985945    30.985945    29750.497 
 5024000    299.21962   -2184.7459   -23211.983   -25091.251    1879.2688    1.1610133    30.985945    30.985945    30.985945    29750.497 
 5025000    295.70147    -2249.841   -23277.345   -25134.518    1857.1728    1.1610133    30.985945    30.985945    30.985945    29750.497 
 5026000    293.73567   -2538.6158   -23258.811   -25103.637    1844.8265    1.1610133    30.985945    30.985945    30.985945    29750.497 
 5027000    307.29904   -2018.2741   -23192.813   -25122.826    1930.0121    1.1610133    30.985945    30.985945    30.985945    29750.497 
 5028000    294.54118     -2318.71   -23258.714     -25108.6    1849.8856    1.1610133    30.985945    30.985945    30.985945    29750.497 
 5029000    298.35021   -1578.4374   -23246.931    -25120.74    1873.8084    1.1610133    30.985945    30.985945    30.985945    29750.497 
 5030000    298.36215   -2678.0573   -23326.738   -25200.622    1873.8834    1.1610133    30.985945    30.985945    30.985945    29750.497 
 5031000     296.4302   -2324.6433   -23306.834   -25168.584    1861.7496    1.1610133    30.985945    30.985945    30.985945    29750.497 
 5032000    301.06516   -3273.8177   -23315.149   -25206.009    1890.8598    1.1610133    30.985945    30.985945    30.985945    29750.497 
 5033000    304.48034     -3207.44   -23274.335   -25186.644    1912.3091    1.1610133    30.985945    30.985945    30.985945    29750.497 
 5034000    296.04024   -1354.8651    -23317.17    -25176.47    1859.3005    1.1610133    30.985945    30.985945    30.985945    29750.497 
 5035000    293.07602   -2649.2022   -23307.034   -25147.717    1840.6835    1.1610133    30.985945    30.985945    30.985945    29750.497 
 5036000    305.43058   -3930.3406   -23188.375   -25106.652    1918.2771    1.1610133    30.985945    30.985945    30.985945    29750.497 
 5037000    302.16731   -3280.3276   -23252.481   -25150.263     1897.782    1.1610133    30.985945    30.985945    30.985945    29750.497 
 5038000    300.51057   -2022.3043   -23227.296   -25114.672    1887.3767    1.1610133    30.985945    30.985945    30.985945    29750.497 
 5039000    304.47823    -2509.803   -23246.426   -25158.722    1912.2958    1.1610133    30.985945    30.985945    30.985945    29750.497 
 5040000     299.7725   -2884.6146   -23312.782   -25195.524    1882.7412    1.1610133    30.985945    30.985945    30.985945    29750.497 
 5041000     303.0682   -2721.6317   -23140.265   -25043.705    1903.4401    1.1610133    30.985945    30.985945    30.985945    29750.497 
 5042000    292.09012   -3119.1337   -23284.635   -25119.126    1834.4915    1.1610133    30.985945    30.985945    30.985945    29750.497 
 5043000    286.42901    -2925.872   -23394.072   -25193.008    1798.9365    1.1610133    30.985945    30.985945    30.985945    29750.497 
 5044000    304.91026     -2384.98   -23220.366   -25135.375    1915.0093    1.1610133    30.985945    30.985945    30.985945    29750.497 
 5045000    288.74281   -2132.2173   -23310.174   -25123.643    1813.4685    1.1610133    30.985945    30.985945    30.985945    29750.497 
 5046000    293.23277   -3058.8763     -23223.8   -25065.468     1841.668    1.1610133    30.985945    30.985945    30.985945    29750.497 
 5047000    302.98156   -1753.9945   -23229.336   -25132.232    1902.8959    1.1610133    30.985945    30.985945    30.985945    29750.497 
 5048000    300.49304   -2357.4473   -23262.151   -25149.418    1887.2666    1.1610133    30.985945    30.985945    30.985945    29750.497 
 5049000    295.80449    -2522.993   -23268.634   -25126.454    1857.8199    1.1610133    30.985945    30.985945    30.985945    29750.497 
 5050000    297.29853   -1754.3858   -23259.881   -25127.085    1867.2033    1.1610133    30.985945    30.985945    30.985945    29750.497 
 5051000     299.7532   -1841.6526   -23254.138   -25136.758      1882.62    1.1610133    30.985945    30.985945    30.985945    29750.497 
 5052000    300.35646   -2345.5202   -23304.323   -25190.732    1886.4088    1.1610133    30.985945    30.985945    30.985945    29750.497 
 5053000    296.88251   -2902.2333   -23366.545   -25231.135    1864.5904    1.1610133    30.985945    30.985945    30.985945    29750.497 
 5054000    305.59259   -2299.3541   -23285.676    -25204.97    1919.2946    1.1610133    30.985945    30.985945    30.985945    29750.497 
 5055000    319.14872   -2469.3684   -23180.218   -25184.653    2004.4348    1.1610133    30.985945    30.985945    30.985945    29750.497 
 5056000    294.11325   -2862.9203   -23313.619   -25160.817    1847.1979    1.1610133    30.985945    30.985945    30.985945    29750.497 
 5057000    301.88609   -2891.1422   -23209.935   -25105.951    1896.0158    1.1610133    30.985945    30.985945    30.985945    29750.497 
 5058000    299.06783   -1106.1821   -23239.758   -25118.073    1878.3155    1.1610133    30.985945    30.985945    30.985945    29750.497 
 5059000    298.27222   -2028.3344   -23319.435   -25192.753    1873.3186    1.1610133    30.985945    30.985945    30.985945    29750.497 
 5060000    294.24018   -2178.8388   -23293.439   -25141.434    1847.9951    1.1610133    30.985945    30.985945    30.985945    29750.497 
 5061000     295.2695   -3051.4066   -23294.123   -25148.583    1854.4598    1.1610133    30.985945    30.985945    30.985945    29750.497 
 5062000    297.65471   -2996.3229   -23349.314   -25218.755    1869.4403    1.1610133    30.985945    30.985945    30.985945    29750.497 
 5063000    298.73659   -2421.1007   -23290.273   -25166.508    1876.2351    1.1610133    30.985945    30.985945    30.985945    29750.497 
 5064000    295.15916   -2417.7468   -23274.789   -25128.556    1853.7668    1.1610133    30.985945    30.985945    30.985945    29750.497 
 5065000    297.78436   -2261.8414   -23316.407   -25186.662    1870.2546    1.1610133    30.985945    30.985945    30.985945    29750.497 
 5066000    299.35487   -2311.8586   -23318.219   -25198.337    1880.1182    1.1610133    30.985945    30.985945    30.985945    29750.497 
 5067000    302.21673   -2894.7482    -23242.52   -25140.613    1898.0924    1.1610133    30.985945    30.985945    30.985945    29750.497 
 5068000    300.30139   -2523.3396   -23208.214   -25094.277     1886.063    1.1610133    30.985945    30.985945    30.985945    29750.497 
 5069000    287.06155   -2129.8701   -23296.651   -25099.561    1802.9092    1.1610133    30.985945    30.985945    30.985945    29750.497 
 5070000    304.92767   -1619.9298   -23264.454   -25179.573    1915.1186    1.1610133    30.985945    30.985945    30.985945    29750.497 
 5071000    294.51365   -2453.8902   -23309.863   -25159.576    1849.7127    1.1610133    30.985945    30.985945    30.985945    29750.497 
 5072000    305.60955   -2719.1478   -23281.516   -25200.917    1919.4012    1.1610133    30.985945    30.985945    30.985945    29750.497 
 5073000      291.656   -2440.7161   -23319.212   -25150.977     1831.765    1.1610133    30.985945    30.985945    30.985945    29750.497 
 5074000    294.73128   -2626.4304    -23327.04    -25178.12    1851.0795    1.1610133    30.985945    30.985945    30.985945    29750.497 
 5075000    305.18485   -2942.5476   -23241.767     -25158.5    1916.7338    1.1610133    30.985945    30.985945    30.985945    29750.497 
 5076000    290.14372   -2466.6924   -23303.242   -25125.509     1822.267    1.1610133    30.985945    30.985945    30.985945    29750.497 
 5077000    302.63484    -2279.077    -23256.61   -25157.328    1900.7183    1.1610133    30.985945    30.985945    30.985945    29750.497 
 5078000    300.51963   -2816.6665   -23265.172   -25152.606    1887.4336    1.1610133    30.985945    30.985945    30.985945    29750.497 
 5079000     305.6219   -2357.6526   -23262.632   -25182.111    1919.4788    1.1610133    30.985945    30.985945    30.985945    29750.497 
 5080000    303.88265   -2747.4718   -23238.409   -25146.964    1908.5552    1.1610133    30.985945    30.985945    30.985945    29750.497 
 5081000    292.26525   -2700.2079   -23377.499    -25213.09    1835.5914    1.1610133    30.985945    30.985945    30.985945    29750.497 
 5082000    295.75362   -2512.6824   -23383.894   -25241.395    1857.5004    1.1610133    30.985945    30.985945    30.985945    29750.497 
 5083000    294.89805   -2892.5087   -23336.041   -25188.168    1852.1269    1.1610133    30.985945    30.985945    30.985945    29750.497 
 5084000    293.83479   -3020.7406   -23364.728   -25210.177     1845.449    1.1610133    30.985945    30.985945    30.985945    29750.497 
 5085000     303.1489   -2227.6749    -23314.21   -25218.157    1903.9469    1.1610133    30.985945    30.985945    30.985945    29750.497 
 5086000    305.30303   -2372.5828   -23296.149   -25213.625    1917.4761    1.1610133    30.985945    30.985945    30.985945    29750.497 
 5087000     304.2267   -1391.7106   -23326.592   -25237.308    1910.7161    1.1610133    30.985945    30.985945    30.985945    29750.497 
 5088000    298.39182   -2564.3686   -23345.725   -25219.795    1874.0697    1.1610133    30.985945    30.985945    30.985945    29750.497 
 5089000    301.84685   -2045.2228     -23241.1    -25136.87    1895.7693    1.1610133    30.985945    30.985945    30.985945    29750.497 
 5090000    303.45177   -2388.8039   -23319.061    -25224.91    1905.8491    1.1610133    30.985945    30.985945    30.985945    29750.497 
 5091000    298.18656   -2112.8927   -23205.323   -25078.104    1872.7806    1.1610133    30.985945    30.985945    30.985945    29750.497 
 5092000    297.26666   -3212.5685   -23323.863   -25190.866    1867.0031    1.1610133    30.985945    30.985945    30.985945    29750.497 
 5093000    297.78323   -2637.4084   -23185.449   -25055.696    1870.2475    1.1610133    30.985945    30.985945    30.985945    29750.497 
 5094000    292.93027    -2074.485   -23395.713   -25235.481    1839.7681    1.1610133    30.985945    30.985945    30.985945    29750.497 
 5095000    302.64458   -2347.9744   -23191.324   -25092.103    1900.7795    1.1610133    30.985945    30.985945    30.985945    29750.497 
 5096000    307.03999   -2015.1975   -23236.456   -25164.841    1928.3852    1.1610133    30.985945    30.985945    30.985945    29750.497 
 5097000    303.99574   -2503.9507   -23236.348   -25145.613    1909.2655    1.1610133    30.985945    30.985945    30.985945    29750.497 
 5098000     297.3417   -3585.7783   -23291.554   -25159.028    1867.4744    1.1610133    30.985945    30.985945    30.985945    29750.497 
 5099000    298.98808   -2946.9605   -23306.147   -25183.961    1877.8146    1.1610133    30.985945    30.985945    30.985945    29750.497 
 5100000    311.79472   -1622.4522   -23245.876   -25204.124    1958.2476    1.1610133    30.985945    30.985945    30.985945    29750.497 
 5101000    300.32847   -3079.2493   -23226.358   -25112.591     1886.233    1.1610133    30.985945    30.985945    30.985945    29750.497 
 5102000    296.52294   -2916.5227   -23268.317   -25130.649    1862.3321    1.1610133    30.985945    30.985945    30.985945    29750.497 
 5103000     299.1341   -2353.4651   -23265.921   -25144.652    1878.7317    1.1610133    30.985945    30.985945    30.985945    29750.497 
 5104000    287.96666   -2819.6026    -23383.45   -25192.044    1808.5938    1.1610133    30.985945    30.985945    30.985945    29750.497 
 5105000    303.92146   -2329.6859   -23258.709   -25167.508     1908.799    1.1610133    30.985945    30.985945    30.985945    29750.497 
 5106000    296.26082   -2381.4812   -23320.878   -25181.564    1860.6858    1.1610133    30.985945    30.985945    30.985945    29750.497 
 5107000    292.55026    -2711.972   -23374.567   -25211.948    1837.3815    1.1610133    30.985945    30.985945    30.985945    29750.497 
 5108000      292.955   -1712.6034    -23329.36   -25169.283    1839.9234    1.1610133    30.985945    30.985945    30.985945    29750.497 
 5109000    295.79644   -2079.5097   -23353.321    -25211.09    1857.7693    1.1610133    30.985945    30.985945    30.985945    29750.497 
 5110000    303.43912    -2008.892   -23262.104   -25167.874    1905.7696    1.1610133    30.985945    30.985945    30.985945    29750.497 
 5111000    295.03222   -2699.2247   -23318.079   -25171.049    1852.9695    1.1610133    30.985945    30.985945    30.985945    29750.497 
 5112000    299.97996   -2866.0659   -23333.854   -25217.898    1884.0442    1.1610133    30.985945    30.985945    30.985945    29750.497 
 5113000    295.62259   -3077.1339   -23352.935   -25209.612    1856.6774    1.1610133    30.985945    30.985945    30.985945    29750.497 
 5114000    300.17646   -2998.6204   -23249.395   -25134.673    1885.2783    1.1610133    30.985945    30.985945    30.985945    29750.497 
 5115000      303.084   -2296.5024   -23265.799   -25169.338    1903.5393    1.1610133    30.985945    30.985945    30.985945    29750.497 
 5116000    305.95338   -2835.5156   -23309.698   -25231.259    1921.5607    1.1610133    30.985945    30.985945    30.985945    29750.497 
 5117000    302.59833   -2246.7467   -23253.969   -25154.458     1900.489    1.1610133    30.985945    30.985945    30.985945    29750.497 
 5118000    296.82504   -3718.0536   -23307.305   -25171.534    1864.2295    1.1610133    30.985945    30.985945    30.985945    29750.497 
 5119000     307.1344   -2813.7619    -23219.62   -25148.598    1928.9781    1.1610133    30.985945    30.985945    30.985945    29750.497 
 5120000    301.86772   -2311.6525   -23259.862   -25155.763    1895.9004    1.1610133    30.985945    30.985945    30.985945    29750.497 
 5121000    308.35004   -2964.7005   -23128.671   -25065.284     1936.613    1.1610133    30.985945    30.985945    30.985945    29750.497 
 5122000    302.28275   -2652.8574   -23254.432   -25152.939     1898.507    1.1610133    30.985945    30.985945    30.985945    29750.497 
 5123000    302.67822   -2626.5051   -23223.889    -25124.88    1900.9907    1.1610133    30.985945    30.985945    30.985945    29750.497 
 5124000    293.01093    -1652.118   -23368.019   -25208.293    1840.2747    1.1610133    30.985945    30.985945    30.985945    29750.497 
 5125000    296.37411   -2435.5245   -23303.257   -25164.654    1861.3974    1.1610133    30.985945    30.985945    30.985945    29750.497 
 5126000    288.48825    -2341.551   -23318.421    -25130.29    1811.8697    1.1610133    30.985945    30.985945    30.985945    29750.497 
 5127000    311.07189   -1447.3413   -23159.709   -25113.417    1953.7078    1.1610133    30.985945    30.985945    30.985945    29750.497 
 5128000    300.71739    -1858.163   -23259.342   -25148.017    1888.6757    1.1610133    30.985945    30.985945    30.985945    29750.497 
 5129000    299.15858   -2066.9486   -23269.946   -25148.832    1878.8854    1.1610133    30.985945    30.985945    30.985945    29750.497 
 5130000    297.61958   -2407.9531   -23240.738   -25109.958    1869.2196    1.1610133    30.985945    30.985945    30.985945    29750.497 
 5131000     300.1864   -2386.4948   -23320.834   -25206.175    1885.3407    1.1610133    30.985945    30.985945    30.985945    29750.497 
 5132000    296.65297   -1785.2722   -23441.409   -25304.558    1863.1488    1.1610133    30.985945    30.985945    30.985945    29750.497 
 5133000    291.22007   -1982.9565   -23198.501   -25027.529    1829.0271    1.1610133    30.985945    30.985945    30.985945    29750.497 
 5134000    299.80769   -3042.8931   -23239.797   -25122.759    1882.9622    1.1610133    30.985945    30.985945    30.985945    29750.497 
 5135000    309.91471    -3066.206   -23298.317   -25244.757      1946.44    1.1610133    30.985945    30.985945    30.985945    29750.497 
 5136000    306.13603   -2184.4096   -23228.623    -25151.33    1922.7078    1.1610133    30.985945    30.985945    30.985945    29750.497 
 5137000    291.24665     -3265.68   -23259.752   -25088.946     1829.194    1.1610133    30.985945    30.985945    30.985945    29750.497 
 5138000    301.78107   -2009.7951   -23154.957   -25050.313    1895.3562    1.1610133    30.985945    30.985945    30.985945    29750.497 
 5139000    301.61232   -1099.3275   -23235.307   -25129.603    1894.2963    1.1610133    30.985945    30.985945    30.985945    29750.497 
 5140000    308.67523   -2571.9543   -23229.058   -25167.713    1938.6554    1.1610133    30.985945    30.985945    30.985945    29750.497 
 5141000    295.05694   -2812.2371   -23231.619   -25084.744    1853.1248    1.1610133    30.985945    30.985945    30.985945    29750.497 
 5142000     301.3593   -2633.8761   -23168.672   -25061.379    1892.7072    1.1610133    30.985945    30.985945    30.985945    29750.497 
 5143000    298.07413   -2016.7318   -23175.484   -25047.558    1872.0745    1.1610133    30.985945    30.985945    30.985945    29750.497 
 5144000    299.79402   -3446.1574   -23200.767   -25083.643    1882.8764    1.1610133    30.985945    30.985945    30.985945    29750.497 
 5145000    286.77639   -2746.9471   -23243.198   -25044.316    1801.1182    1.1610133    30.985945    30.985945    30.985945    29750.497 
 5146000    292.73963   -2796.5753   -23258.257   -25096.828    1838.5708    1.1610133    30.985945    30.985945    30.985945    29750.497 
 5147000    294.58733   -2337.1845   -23380.901   -25231.076    1850.1754    1.1610133    30.985945    30.985945    30.985945    29750.497 
 5148000    297.93419    -1840.875   -23235.002   -25106.198    1871.1956    1.1610133    30.985945    30.985945    30.985945    29750.497 
 5149000     301.2727   -2745.5163   -23289.977   -25182.141    1892.1633    1.1610133    30.985945    30.985945    30.985945    29750.497 
 5150000    306.02435   -1579.8289   -23134.841   -25056.847    1922.0064    1.1610133    30.985945    30.985945    30.985945    29750.497 
 5151000    295.97737   -2696.4247   -23330.601   -25189.506    1858.9056    1.1610133    30.985945    30.985945    30.985945    29750.497 
 5152000    302.33555   -2643.1101   -23194.475   -25093.314    1898.8386    1.1610133    30.985945    30.985945    30.985945    29750.497 
 5153000    303.16621   -2380.2584   -23203.263   -25107.319    1904.0556    1.1610133    30.985945    30.985945    30.985945    29750.497 
 5154000    287.92655    -2171.372   -23324.181   -25132.523    1808.3419    1.1610133    30.985945    30.985945    30.985945    29750.497 
 5155000    296.22819   -2720.1622   -23303.181   -25163.662    1860.4809    1.1610133    30.985945    30.985945    30.985945    29750.497 
 5156000    304.59946    -1870.168   -23158.128   -25071.185    1913.0573    1.1610133    30.985945    30.985945    30.985945    29750.497 
 5157000    298.56866   -3130.7109   -23182.485   -25057.666    1875.1804    1.1610133    30.985945    30.985945    30.985945    29750.497 
 5158000    301.71017   -2629.1974   -23150.092   -25045.003    1894.9109    1.1610133    30.985945    30.985945    30.985945    29750.497 
 5159000    291.51355   -1840.9706   -23337.059   -25167.929    1830.8703    1.1610133    30.985945    30.985945    30.985945    29750.497 
 5160000    303.18299   -2145.0964   -23221.258   -25125.419     1904.161    1.1610133    30.985945    30.985945    30.985945    29750.497 
 5161000    290.54081   -2665.8443   -23309.799    -25134.56     1824.761    1.1610133    30.985945    30.985945    30.985945    29750.497 
 5162000     302.2542     -2377.45   -23167.217   -25065.545    1898.3277    1.1610133    30.985945    30.985945    30.985945    29750.497 
 5163000     297.2152   -1986.1232   -23205.237   -25071.916    1866.6799    1.1610133    30.985945    30.985945    30.985945    29750.497 
 5164000    292.94453      -2533.1   -23289.137   -25128.995    1839.8577    1.1610133    30.985945    30.985945    30.985945    29750.497 
 5165000    297.11302   -2871.7171   -23382.669   -25248.707    1866.0381    1.1610133    30.985945    30.985945    30.985945    29750.497 
 5166000    301.43207   -2256.4548   -23277.351   -25170.515    1893.1642    1.1610133    30.985945    30.985945    30.985945    29750.497 
 5167000    301.03769   -3050.7732   -23246.073    -25136.76    1890.6873    1.1610133    30.985945    30.985945    30.985945    29750.497 
 5168000    298.75778   -2588.7301   -23294.627   -25170.995    1876.3682    1.1610133    30.985945    30.985945    30.985945    29750.497 
 5169000    295.23248   -2826.1033   -23333.554   -25187.781    1854.2273    1.1610133    30.985945    30.985945    30.985945    29750.497 
 5170000    292.65745   -1557.6459   -23269.509   -25107.563    1838.0547    1.1610133    30.985945    30.985945    30.985945    29750.497 
 5171000    299.75979   -1220.4991   -23202.929   -25085.591    1882.6614    1.1610133    30.985945    30.985945    30.985945    29750.497 
 5172000    298.24815   -2816.8758   -23272.137   -25145.305    1873.1674    1.1610133    30.985945    30.985945    30.985945    29750.497 
 5173000     299.3183   -2827.3682   -23312.615   -25192.503    1879.8886    1.1610133    30.985945    30.985945    30.985945    29750.497 
 5174000    294.27205   -2776.1042    -23264.38   -25112.575    1848.1953    1.1610133    30.985945    30.985945    30.985945    29750.497 
 5175000    303.08671   -2920.9134   -23223.915   -25127.472    1903.5563    1.1610133    30.985945    30.985945    30.985945    29750.497 
 5176000    299.58624   -1532.6611   -23252.751   -25134.323    1881.5714    1.1610133    30.985945    30.985945    30.985945    29750.497 
 5177000    296.99928   -2559.6827    -23304.63   -25169.954    1865.3238    1.1610133    30.985945    30.985945    30.985945    29750.497 
 5178000      303.532   -1579.3249   -23256.564   -25162.917     1906.353    1.1610133    30.985945    30.985945    30.985945    29750.497 
 5179000    297.43588   -2541.4448   -23370.848   -25238.914    1868.0659    1.1610133    30.985945    30.985945    30.985945    29750.497 
 5180000    300.60796   -2532.5044   -23293.712     -25181.7    1887.9884    1.1610133    30.985945    30.985945    30.985945    29750.497 
 5181000    291.85394   -2075.8177   -23320.354   -25153.362    1833.0082    1.1610133    30.985945    30.985945    30.985945    29750.497 
 5182000    300.54661   -1835.9363   -23229.391   -25116.994     1887.603    1.1610133    30.985945    30.985945    30.985945    29750.497 
 5183000    301.60666   -2601.8504   -23293.519    -25187.78    1894.2608    1.1610133    30.985945    30.985945    30.985945    29750.497 
 5184000    306.63091   -2602.6263   -23271.674    -25197.49    1925.8159    1.1610133    30.985945    30.985945    30.985945    29750.497 
 5185000    286.26032   -3077.9656   -23420.782   -25218.659    1797.8771    1.1610133    30.985945    30.985945    30.985945    29750.497 
 5186000    299.32261   -2839.9587   -23382.104    -25262.02    1879.9157    1.1610133    30.985945    30.985945    30.985945    29750.497 
 5187000    301.49495   -2122.2362   -23273.538   -25167.097    1893.5592    1.1610133    30.985945    30.985945    30.985945    29750.497 
 5188000    296.95957   -2609.2341   -23254.988   -25120.062    1865.0744    1.1610133    30.985945    30.985945    30.985945    29750.497 
 5189000    298.92494   -1811.1208   -23238.328   -25115.746     1877.418    1.1610133    30.985945    30.985945    30.985945    29750.497 
 5190000    296.05272   -2684.9653   -23284.014   -25143.393    1859.3789    1.1610133    30.985945    30.985945    30.985945    29750.497 
 5191000      293.067   -2300.1631   -23407.161   -25247.788    1840.6268    1.1610133    30.985945    30.985945    30.985945    29750.497 
 5192000    298.54244   -2394.5938   -23339.265    -25214.28    1875.0157    1.1610133    30.985945    30.985945    30.985945    29750.497 
 5193000    292.48959    -2790.915   -23336.872   -25173.872    1837.0004    1.1610133    30.985945    30.985945    30.985945    29750.497 
 5194000    293.49809   -3138.5378   -23317.788   -25161.122    1843.3344    1.1610133    30.985945    30.985945    30.985945    29750.497 
 5195000    303.99145   -2190.7839   -23313.746   -25222.984    1909.2386    1.1610133    30.985945    30.985945    30.985945    29750.497 
 5196000    301.24701   -2736.6077   -23352.824   -25244.826     1892.002    1.1610133    30.985945    30.985945    30.985945    29750.497 
 5197000    295.86405   -2432.3111   -23300.871   -25159.065    1858.1939    1.1610133    30.985945    30.985945    30.985945    29750.497 
 5198000    303.35086   -3011.5536   -23248.798   -25154.013    1905.2153    1.1610133    30.985945    30.985945    30.985945    29750.497 
 5199000    302.43281   -2962.5428   -23240.998   -25140.448    1899.4495    1.1610133    30.985945    30.985945    30.985945    29750.497 
 5200000    306.48396    -1794.911   -23156.707     -25081.6     1924.893    1.1610133    30.985945    30.985945    30.985945    29750.497 
 5201000    294.43509   -2057.2545   -23238.599   -25087.818    1849.2192    1.1610133    30.985945    30.985945    30.985945    29750.497 
 5202000    301.16168   -2932.3257   -23314.564    -25206.03    1891.4661    1.1610133    30.985945    30.985945    30.985945    29750.497 
 5203000     293.2265   -3248.2192   -23327.771     -25169.4    1841.6286    1.1610133    30.985945    30.985945    30.985945    29750.497 
 5204000    290.19219   -2109.1605   -23374.105   -25196.676    1822.5714    1.1610133    30.985945    30.985945    30.985945    29750.497 
 5205000    300.02701   -3277.5342   -23264.634   -25148.974    1884.3397    1.1610133    30.985945    30.985945    30.985945    29750.497 
 5206000    297.18437   -2217.0671   -23264.243   -25130.729    1866.4863    1.1610133    30.985945    30.985945    30.985945    29750.497 
 5207000    303.96462   -2398.2576   -23265.513   -25174.583    1909.0701    1.1610133    30.985945    30.985945    30.985945    29750.497 
 5208000    289.96112   -2995.8397   -23376.774   -25197.894    1821.1202    1.1610133    30.985945    30.985945    30.985945    29750.497 
 5209000    305.60667   -2476.3425   -23257.765   -25177.148    1919.3831    1.1610133    30.985945    30.985945    30.985945    29750.497 
 5210000    283.01275   -1965.7012   -23290.509   -25067.989    1777.4805    1.1610133    30.985945    30.985945    30.985945    29750.497 
 5211000    298.63671   -2125.6989   -23297.739   -25173.347    1875.6078    1.1610133    30.985945    30.985945    30.985945    29750.497 
 5212000    296.78052   -2649.0494   -23312.983   -25176.933    1863.9499    1.1610133    30.985945    30.985945    30.985945    29750.497 
 5213000    295.34661   -2030.6787   -23325.352   -25180.296    1854.9441    1.1610133    30.985945    30.985945    30.985945    29750.497 
 5214000    304.02923   -2399.2988   -23298.058   -25207.534    1909.4759    1.1610133    30.985945    30.985945    30.985945    29750.497 
 5215000    295.21943   -1505.0742   -23337.974   -25192.119    1854.1453    1.1610133    30.985945    30.985945    30.985945    29750.497 
 5216000    297.25247   -2022.0973   -23331.018   -25197.932     1866.914    1.1610133    30.985945    30.985945    30.985945    29750.497 
 5217000     293.1029   -2322.8393   -23334.403   -25175.255    1840.8523    1.1610133    30.985945    30.985945    30.985945    29750.497 
 5218000    298.09414    -2469.257   -23295.452   -25167.652    1872.2001    1.1610133    30.985945    30.985945    30.985945    29750.497 
 5219000    296.48756   -2436.5259    -23255.52    -25117.63    1862.1099    1.1610133    30.985945    30.985945    30.985945    29750.497 
 5220000    292.91672   -3018.3039   -23385.777    -25225.46     1839.683    1.1610133    30.985945    30.985945    30.985945    29750.497 
 5221000    300.98593   -2289.3352   -23352.963   -25243.325    1890.3622    1.1610133    30.985945    30.985945    30.985945    29750.497 
 5222000    301.83576   -2674.8476   -23246.783   -25142.483    1895.6996    1.1610133    30.985945    30.985945    30.985945    29750.497 
 5223000    300.76851   -2461.8496   -23246.043    -25135.04    1888.9967    1.1610133    30.985945    30.985945    30.985945    29750.497 
 5224000    297.59373   -2709.6005   -23283.546   -25152.604    1869.0573    1.1610133    30.985945    30.985945    30.985945    29750.497 
 5225000    288.24827   -2378.9425   -23309.859   -25120.222    1810.3625    1.1610133    30.985945    30.985945    30.985945    29750.497 
 5226000     294.6547   -3038.3448   -23215.493   -25066.091    1850.5985    1.1610133    30.985945    30.985945    30.985945    29750.497 
 5227000    293.20038   -2646.9311   -23277.176   -25118.641    1841.4646    1.1610133    30.985945    30.985945    30.985945    29750.497 
 5228000    295.77201   -2447.9986   -23302.062   -25159.678    1857.6158    1.1610133    30.985945    30.985945    30.985945    29750.497 
 5229000    298.92406   -2896.7057   -23307.563   -25184.976    1877.4125    1.1610133    30.985945    30.985945    30.985945    29750.497 
 5230000    291.44563    -2045.257   -23258.054   -25088.498    1830.4437    1.1610133    30.985945    30.985945    30.985945    29750.497 
 5231000    306.17978   -1753.8072   -23258.473   -25181.455    1922.9825    1.1610133    30.985945    30.985945    30.985945    29750.497 
 5232000    297.83379    -1857.083     -23219.3   -25089.865     1870.565    1.1610133    30.985945    30.985945    30.985945    29750.497 
 5233000    306.02067   -1931.5553   -23271.464   -25193.447    1921.9833    1.1610133    30.985945    30.985945    30.985945    29750.497 
 5234000    299.45127   -3090.5376   -23273.474   -25154.197    1880.7237    1.1610133    30.985945    30.985945    30.985945    29750.497 
 5235000    300.97137   -2994.8301   -23214.184   -25104.454    1890.2708    1.1610133    30.985945    30.985945    30.985945    29750.497 
 5236000     296.9247   -1294.6227   -23297.109   -25161.964    1864.8554    1.1610133    30.985945    30.985945    30.985945    29750.497 
 5237000      293.076   -2854.2444   -23340.292   -25180.976    1840.6834    1.1610133    30.985945    30.985945    30.985945    29750.497 
 5238000    297.08071   -2435.5575   -23339.474    -25205.31    1865.8353    1.1610133    30.985945    30.985945    30.985945    29750.497 
 5239000    300.32645   -2880.6879   -23361.582   -25247.802    1886.2203    1.1610133    30.985945    30.985945    30.985945    29750.497 
 5240000    303.91757   -2730.5566   -23238.632   -25147.406    1908.7746    1.1610133    30.985945    30.985945    30.985945    29750.497 
 5241000    307.21061   -2778.3175   -23230.491   -25159.947    1929.4568    1.1610133    30.985945    30.985945    30.985945    29750.497 
 5242000    296.76611   -2693.3825   -23376.537   -25240.396    1863.8593    1.1610133    30.985945    30.985945    30.985945    29750.497 
 5243000    304.09779   -2274.2499    -23206.27   -25116.176    1909.9065    1.1610133    30.985945    30.985945    30.985945    29750.497 
 5244000    299.62944   -2400.3226   -23249.608   -25131.451    1881.8427    1.1610133    30.985945    30.985945    30.985945    29750.497 
 5245000     298.2946   -2763.3746    -23304.35   -25177.809    1873.4591    1.1610133    30.985945    30.985945    30.985945    29750.497 
 5246000    300.44462   -2557.9504   -23325.793   -25212.755    1886.9625    1.1610133    30.985945    30.985945    30.985945    29750.497 
 5247000    296.81091   -1873.9076   -23221.197   -25085.338    1864.1408    1.1610133    30.985945    30.985945    30.985945    29750.497 
 5248000    291.71904   -2192.9001   -23413.194   -25245.355    1832.1609    1.1610133    30.985945    30.985945    30.985945    29750.497 
 5249000    305.61833   -2495.1654   -23380.473   -25299.929    1919.4563    1.1610133    30.985945    30.985945    30.985945    29750.497 
 5250000    302.68764    -2157.086   -23356.308   -25257.358    1901.0499    1.1610133    30.985945    30.985945    30.985945    29750.497 
 5251000    295.94164   -2922.1243   -23338.409    -25197.09    1858.6812    1.1610133    30.985945    30.985945    30.985945    29750.497 
 5252000    288.89162   -2461.6937   -23372.479   -25186.882    1814.4031    1.1610133    30.985945    30.985945    30.985945    29750.497 
 5253000    297.44471   -2065.5347   -23381.709    -25249.83    1868.1214    1.1610133    30.985945    30.985945    30.985945    29750.497 
 5254000    295.24192   -2370.1593   -23354.925   -25209.211    1854.2866    1.1610133    30.985945    30.985945    30.985945    29750.497 
 5255000    294.13385   -1663.4344   -23358.153   -25205.481    1847.3273    1.1610133    30.985945    30.985945    30.985945    29750.497 
 5256000    305.93771   -2323.2988   -23196.976   -25118.438    1921.4622    1.1610133    30.985945    30.985945    30.985945    29750.497 
 5257000    308.84351   -1186.6359   -23234.535   -25174.248    1939.7123    1.1610133    30.985945    30.985945    30.985945    29750.497 
 5258000    298.53992   -2625.9673   -23318.507   -25193.507    1874.9999    1.1610133    30.985945    30.985945    30.985945    29750.497 
 5259000    299.56655   -2959.3488   -23384.115   -25265.563    1881.4477    1.1610133    30.985945    30.985945    30.985945    29750.497 
 5260000    296.84689   -3189.4192   -23346.405   -25210.772    1864.3667    1.1610133    30.985945    30.985945    30.985945    29750.497 
 5261000    293.78871   -2645.5704   -23229.481   -25074.641    1845.1596    1.1610133    30.985945    30.985945    30.985945    29750.497 
 5262000    309.72588   -3589.1072   -23198.353   -25143.607    1945.2541    1.1610133    30.985945    30.985945    30.985945    29750.497 
 5263000    301.33536   -2761.4644   -23291.905   -25184.462    1892.5569    1.1610133    30.985945    30.985945    30.985945    29750.497 
 5264000    298.99924   -1855.1103    -23304.62   -25182.504    1877.8847    1.1610133    30.985945    30.985945    30.985945    29750.497 
 5265000    289.20635   -2260.2334   -23432.002   -25248.382    1816.3798    1.1610133    30.985945    30.985945    30.985945    29750.497 
 5266000    304.11648   -2713.2123   -23347.858   -25257.882    1910.0238    1.1610133    30.985945    30.985945    30.985945    29750.497 
 5267000    302.77378   -3160.3551   -23251.329    -25152.92    1901.5909    1.1610133    30.985945    30.985945    30.985945    29750.497 
 5268000    296.34639   -3588.7263   -23345.459   -25206.682    1861.2233    1.1610133    30.985945    30.985945    30.985945    29750.497 
 5269000    298.79464   -1370.1719   -23254.891   -25131.491    1876.5997    1.1610133    30.985945    30.985945    30.985945    29750.497 
 5270000    296.27876   -2798.8115   -23225.006   -25085.804    1860.7985    1.1610133    30.985945    30.985945    30.985945    29750.497 
 5271000    302.79518   -2623.5247   -23303.351   -25205.076    1901.7253    1.1610133    30.985945    30.985945    30.985945    29750.497 
 5272000    303.48078   -2653.3969    -23184.72   -25090.751    1906.0313    1.1610133    30.985945    30.985945    30.985945    29750.497 
 5273000    301.14309   -2531.0808   -23283.773   -25175.122    1891.3493    1.1610133    30.985945    30.985945    30.985945    29750.497 
 5274000    296.59146   -2186.6464   -23405.733   -25268.495    1862.7625    1.1610133    30.985945    30.985945    30.985945    29750.497 
 5275000    294.52677   -1275.1162    -23230.21   -25080.005    1849.7951    1.1610133    30.985945    30.985945    30.985945    29750.497 
 5276000    287.37894   -2133.4492   -23334.801   -25139.703    1804.9026    1.1610133    30.985945    30.985945    30.985945    29750.497 
 5277000    298.09609   -1873.7483   -23251.605   -25123.817    1872.2124    1.1610133    30.985945    30.985945    30.985945    29750.497 
 5278000    301.99455   -2381.3856   -23222.703     -25119.4     1896.697    1.1610133    30.985945    30.985945    30.985945    29750.497 
 5279000    297.47224   -2277.0802   -23292.458   -25160.753    1868.2943    1.1610133    30.985945    30.985945    30.985945    29750.497 
 5280000    296.48483   -2781.3316   -23227.084   -25089.177    1862.0928    1.1610133    30.985945    30.985945    30.985945    29750.497 
 5281000    298.62732   -2263.0843   -23271.189   -25146.738    1875.5488    1.1610133    30.985945    30.985945    30.985945    29750.497 
 5282000    306.12848   -1871.5681   -23268.074   -25190.735    1922.6604    1.1610133    30.985945    30.985945    30.985945    29750.497 
 5283000    301.65074   -1974.5941   -23243.568   -25138.105    1894.5376    1.1610133    30.985945    30.985945    30.985945    29750.497 
 5284000    292.88939    -1320.715   -23291.592   -25131.103    1839.5114    1.1610133    30.985945    30.985945    30.985945    29750.497 
 5285000    299.04565   -478.48959   -23350.715   -25228.891    1878.1762    1.1610133    30.985945    30.985945    30.985945    29750.497 
 5286000    301.07407    -1929.882   -23247.384     -25138.3    1890.9158    1.1610133    30.985945    30.985945    30.985945    29750.497 
 5287000    296.36318   -2250.7279   -23310.082    -25171.41    1861.3287    1.1610133    30.985945    30.985945    30.985945    29750.497 
 5288000     297.3234   -2995.5775   -23252.649   -25120.009    1867.3595    1.1610133    30.985945    30.985945    30.985945    29750.497 
 5289000    293.17539   -2456.0092   -23348.852   -25190.159    1841.3076    1.1610133    30.985945    30.985945    30.985945    29750.497 
 5290000    296.01922   -3093.0224   -23281.446   -25140.615    1859.1685    1.1610133    30.985945    30.985945    30.985945    29750.497 
 5291000    300.75167   -2409.0362   -23195.195   -25084.086    1888.8909    1.1610133    30.985945    30.985945    30.985945    29750.497 
 5292000    298.86591   -2397.9905   -23265.543    -25142.59    1877.0473    1.1610133    30.985945    30.985945    30.985945    29750.497 
 5293000    292.87471   -2137.3051   -23355.589   -25195.008    1839.4192    1.1610133    30.985945    30.985945    30.985945    29750.497 
 5294000    294.32173   -2579.1113   -23326.575   -25175.082    1848.5073    1.1610133    30.985945    30.985945    30.985945    29750.497 
 5295000    297.22863   -2283.7452   -23273.561   -25140.325    1866.7642    1.1610133    30.985945    30.985945    30.985945    29750.497 
 5296000    302.18272   -2647.1933   -23197.733   -25095.612    1897.8787    1.1610133    30.985945    30.985945    30.985945    29750.497 
 5297000    298.56793   -2586.0568   -23254.819   -25129.995    1875.1758    1.1610133    30.985945    30.985945    30.985945    29750.497 
 5298000    298.10667   -2704.7132   -23346.489   -25218.768    1872.2788    1.1610133    30.985945    30.985945    30.985945    29750.497 
 5299000    298.88622    -3452.709   -23306.063   -25183.238    1877.1749    1.1610133    30.985945    30.985945    30.985945    29750.497 
 5300000    298.86541   -1989.4939   -23266.798   -25143.842    1877.0442    1.1610133    30.985945    30.985945    30.985945    29750.497 
 5301000    298.52331   -2307.8497   -23240.108   -25115.004    1874.8956    1.1610133    30.985945    30.985945    30.985945    29750.497 
 5302000    304.62374   -2145.4872    -23314.09     -25227.3    1913.2097    1.1610133    30.985945    30.985945    30.985945    29750.497 
 5303000    308.27819   -2578.8766   -23235.388    -25171.55    1936.1618    1.1610133    30.985945    30.985945    30.985945    29750.497 
 5304000    293.95087   -2050.6018   -23325.682    -25171.86     1846.178    1.1610133    30.985945    30.985945    30.985945    29750.497 
 5305000    300.94626   -2407.5864     -23197.2   -25087.313    1890.1131    1.1610133    30.985945    30.985945    30.985945    29750.497 
 5306000    297.13507   -1874.9516   -23230.911   -25097.088    1866.1767    1.1610133    30.985945    30.985945    30.985945    29750.497 
 5307000    305.51528   -2679.9819   -23181.937   -25100.747    1918.8091    1.1610133    30.985945    30.985945    30.985945    29750.497 
 5308000    296.99491   -2013.3144   -23263.414   -25128.711    1865.2964    1.1610133    30.985945    30.985945    30.985945    29750.497 
 5309000    301.45307   -4306.9257   -23221.505   -25114.801    1893.2961    1.1610133    30.985945    30.985945    30.985945    29750.497 
 5310000    293.41642   -1694.5245   -23260.122   -25102.944    1842.8214    1.1610133    30.985945    30.985945    30.985945    29750.497 
 5311000    298.31721    -2795.906   -23229.438   -25103.039    1873.6011    1.1610133    30.985945    30.985945    30.985945    29750.497 
 5312000    301.76361   -2789.0334   -23186.939   -25082.186    1895.2465    1.1610133    30.985945    30.985945    30.985945    29750.497 
 5313000    299.96671   -2570.3146   -23275.073   -25159.034     1883.961    1.1610133    30.985945    30.985945    30.985945    29750.497 
 5314000    301.06886    -2492.315    -23237.97   -25128.853    1890.8831    1.1610133    30.985945    30.985945    30.985945    29750.497 
 5315000    301.37797   -2721.4652    -23249.79   -25142.615    1892.8245    1.1610133    30.985945    30.985945    30.985945    29750.497 
 5316000    300.00136   -2155.8774   -23174.846   -25059.025    1884.1786    1.1610133    30.985945    30.985945    30.985945    29750.497 
 5317000    299.38324   -2922.5136   -23316.242   -25196.538    1880.2964    1.1610133    30.985945    30.985945    30.985945    29750.497 
 5318000    293.37073   -1561.2519   -23299.019   -25141.553    1842.5345    1.1610133    30.985945    30.985945    30.985945    29750.497 
 5319000    301.83438    -2160.886   -23204.658   -25100.349     1895.691    1.1610133    30.985945    30.985945    30.985945    29750.497 
 5320000    298.03717   -2574.8483    -23108.26   -24980.102    1871.8423    1.1610133    30.985945    30.985945    30.985945    29750.497 
 5321000    295.67619   -2894.6384   -23308.254   -25165.268     1857.014    1.1610133    30.985945    30.985945    30.985945    29750.497 
 5322000    309.36472   -2278.6138   -23071.492   -25014.478    1942.9858    1.1610133    30.985945    30.985945    30.985945    29750.497 
 5323000    299.44067   -3375.4582   -23284.316   -25164.973    1880.6571    1.1610133    30.985945    30.985945    30.985945    29750.497 
 5324000    295.44878   -2606.5669   -23317.638   -25173.223    1855.5858    1.1610133    30.985945    30.985945    30.985945    29750.497 
 5325000    299.47302   -2548.2545   -23127.789   -25008.649    1880.8603    1.1610133    30.985945    30.985945    30.985945    29750.497 
 5326000    289.73308    -3192.826   -23338.092    -25157.78     1819.688    1.1610133    30.985945    30.985945    30.985945    29750.497 
 5327000    295.07273   -2523.0829    -23259.13   -25112.354     1853.224    1.1610133    30.985945    30.985945    30.985945    29750.497 
 5328000    299.55474   -2303.2866   -23262.263   -25143.637    1881.3735    1.1610133    30.985945    30.985945    30.985945    29750.497 
 5329000    305.08052   -2465.4041   -23216.633   -25132.712    1916.0786    1.1610133    30.985945    30.985945    30.985945    29750.497 
 5330000    306.55044   -2071.2221   -23180.763   -25106.073    1925.3105    1.1610133    30.985945    30.985945    30.985945    29750.497 
 5331000    301.09278   -2846.0533   -23269.863   -25160.896    1891.0333    1.1610133    30.985945    30.985945    30.985945    29750.497 
 5332000    298.04573   -1771.2696   -23307.558   -25179.454    1871.8961    1.1610133    30.985945    30.985945    30.985945    29750.497 
 5333000    295.05441   -2511.0337   -23272.018   -25125.127    1853.1089    1.1610133    30.985945    30.985945    30.985945    29750.497 
 5334000    295.74228   -3231.6129   -23294.261    -25151.69    1857.4291    1.1610133    30.985945    30.985945    30.985945    29750.497 
 5335000    296.96452   -3604.2033   -23289.846   -25154.951    1865.1055    1.1610133    30.985945    30.985945    30.985945    29750.497 
 5336000    304.97859   -2874.1242   -23166.041   -25081.479    1915.4384    1.1610133    30.985945    30.985945    30.985945    29750.497 
 5337000    304.22605   -3000.4626   -23142.025   -25052.737     1910.712    1.1610133    30.985945    30.985945    30.985945    29750.497 
 5338000    294.59387   -2325.5681    -23265.04   -25115.256    1850.2165    1.1610133    30.985945    30.985945    30.985945    29750.497 
 5339000    305.93965    -2064.229   -23179.139   -25100.613    1921.4744    1.1610133    30.985945    30.985945    30.985945    29750.497 
 5340000     296.5944    -2395.794   -23355.611   -25218.392    1862.7809    1.1610133    30.985945    30.985945    30.985945    29750.497 
 5341000    298.11547   -2437.8546   -23353.796    -25226.13    1872.3341    1.1610133    30.985945    30.985945    30.985945    29750.497 
 5342000    300.76201   -2912.0368   -23269.485   -25158.441    1888.9559    1.1610133    30.985945    30.985945    30.985945    29750.497 
 5343000    296.20529   -3017.3505   -23336.553    -25196.89    1860.3371    1.1610133    30.985945    30.985945    30.985945    29750.497 
 5344000    304.69127   -2593.8366   -23179.843   -25093.477    1913.6339    1.1610133    30.985945    30.985945    30.985945    29750.497 
 5345000    297.85747   -2384.7002   -23322.926   -25193.639    1870.7138    1.1610133    30.985945    30.985945    30.985945    29750.497 
 5346000    280.57304   -1775.4902   -23307.285   -25069.443    1762.1577    1.1610133    30.985945    30.985945    30.985945    29750.497 
 5347000    292.19628   -2386.1499   -23386.338   -25221.496    1835.1583    1.1610133    30.985945    30.985945    30.985945    29750.497 
 5348000     294.5398   -1816.4672   -23254.634    -25104.51    1849.8769    1.1610133    30.985945    30.985945    30.985945    29750.497 
 5349000    300.27345    -2956.361   -23303.002   -25188.889    1885.8874    1.1610133    30.985945    30.985945    30.985945    29750.497 
 5350000    305.02387   -1532.5868   -23232.829   -25148.551    1915.7228    1.1610133    30.985945    30.985945    30.985945    29750.497 
 5351000    296.45373   -2853.5268   -23333.995   -25195.892    1861.8974    1.1610133    30.985945    30.985945    30.985945    29750.497 
 5352000    293.75206   -2886.5837   -23349.627   -25194.556    1844.9294    1.1610133    30.985945    30.985945    30.985945    29750.497 
 5353000     303.6951   -2758.2252    -23252.35   -25159.727    1907.3774    1.1610133    30.985945    30.985945    30.985945    29750.497 
 5354000     297.0382   -2064.4128   -23359.294   -25224.863    1865.5682    1.1610133    30.985945    30.985945    30.985945    29750.497 
 5355000    305.75343   -2470.8897   -23255.597   -25175.902    1920.3048    1.1610133    30.985945    30.985945    30.985945    29750.497 
 5356000    304.04412   -3155.1958   -23269.335   -25178.904    1909.5694    1.1610133    30.985945    30.985945    30.985945    29750.497 
 5357000    297.60132   -1843.2459   -23184.751   -25053.856    1869.1049    1.1610133    30.985945    30.985945    30.985945    29750.497 
 5358000    305.92502   -2867.0704   -23268.626   -25190.009    1921.3825    1.1610133    30.985945    30.985945    30.985945    29750.497 
 5359000    304.00988    -2272.618   -23257.351   -25166.705    1909.3544    1.1610133    30.985945    30.985945    30.985945    29750.497 
 5360000    307.61496    -1934.651   -23200.645   -25132.641    1931.9963    1.1610133    30.985945    30.985945    30.985945    29750.497 
 5361000    298.86763   -2228.2423   -23298.497   -25175.555    1877.0581    1.1610133    30.985945    30.985945    30.985945    29750.497 
 5362000    301.21556   -2354.7218   -23228.026    -25119.83    1891.8045    1.1610133    30.985945    30.985945    30.985945    29750.497 
 5363000    290.84049    -3086.625   -23307.917    -25134.56    1826.6431    1.1610133    30.985945    30.985945    30.985945    29750.497 
 5364000    289.07172   -2911.8805   -23346.751   -25162.286    1815.5343    1.1610133    30.985945    30.985945    30.985945    29750.497 
 5365000     295.2122   -2436.5725   -23392.903   -25247.003    1854.0999    1.1610133    30.985945    30.985945    30.985945    29750.497 
 5366000    288.72669     -2667.01   -23380.546   -25193.913    1813.3673    1.1610133    30.985945    30.985945    30.985945    29750.497 
 5367000    306.53575   -2459.9825   -23207.036   -25132.255    1925.2183    1.1610133    30.985945    30.985945    30.985945    29750.497 
 5368000     297.5464   -2681.3383   -23270.507   -25139.267      1868.76    1.1610133    30.985945    30.985945    30.985945    29750.497 
 5369000    294.72339   -2869.7325   -23331.954   -25182.984      1851.03    1.1610133    30.985945    30.985945    30.985945    29750.497 
 5370000    285.34205   -2093.3151   -23386.494   -25178.604    1792.1098    1.1610133    30.985945    30.985945    30.985945    29750.497 
 5371000     293.8405   -2726.5956   -23374.735    -25220.22    1845.4849    1.1610133    30.985945    30.985945    30.985945    29750.497 
 5372000    305.74742   -1917.8633   -23242.678   -25162.945    1920.2671    1.1610133    30.985945    30.985945    30.985945    29750.497 
 5373000    294.89485   -2627.2431   -23357.159   -25209.266    1852.1068    1.1610133    30.985945    30.985945    30.985945    29750.497 
 5374000    304.28343   -1577.9997   -23185.273   -25096.345    1911.0724    1.1610133    30.985945    30.985945    30.985945    29750.497 
 5375000    292.35144   -2746.1378   -23314.787   -25150.919    1836.1327    1.1610133    30.985945    30.985945    30.985945    29750.497 
 5376000    297.51113   -1134.4271   -23303.918   -25172.456    1868.5385    1.1610133    30.985945    30.985945    30.985945    29750.497 
 5377000    302.50688   -2787.1823   -23235.259   -25135.174    1899.9147    1.1610133    30.985945    30.985945    30.985945    29750.497 
 5378000    297.69152   -2863.6776   -23254.724   -25124.396    1869.6714    1.1610133    30.985945    30.985945    30.985945    29750.497 
 5379000    294.91776   -2027.1859   -23311.972   -25164.223    1852.2507    1.1610133    30.985945    30.985945    30.985945    29750.497 
 5380000    297.57421   -2100.1777   -23214.502   -25083.437    1868.9347    1.1610133    30.985945    30.985945    30.985945    29750.497 
 5381000    297.02715   -3333.7333   -23373.956   -25239.455    1865.4989    1.1610133    30.985945    30.985945    30.985945    29750.497 
 5382000     297.0144   -2831.2546   -23290.097   -25155.516    1865.4188    1.1610133    30.985945    30.985945    30.985945    29750.497 
 5383000    291.43651   -2484.4107   -23327.906   -25158.292    1830.3865    1.1610133    30.985945    30.985945    30.985945    29750.497 
 5384000    295.02075   -2838.1646   -23247.205   -25100.103    1852.8975    1.1610133    30.985945    30.985945    30.985945    29750.497 
 5385000    292.40789   -2359.9885   -23338.501   -25174.988    1836.4873    1.1610133    30.985945    30.985945    30.985945    29750.497 
 5386000    293.61712    -2962.984   -23335.445   -25179.527     1844.082    1.1610133    30.985945    30.985945    30.985945    29750.497 
 5387000      295.182   -2873.4826   -23340.722   -25194.632    1853.9103    1.1610133    30.985945    30.985945    30.985945    29750.497 
 5388000    295.72262   -1799.8002   -23356.659   -25213.965    1857.3057    1.1610133    30.985945    30.985945    30.985945    29750.497 
 5389000    302.95557   -3316.5958   -23269.565   -25172.297    1902.7327    1.1610133    30.985945    30.985945    30.985945    29750.497 
 5390000    296.98926   -2355.4034   -23248.988   -25114.249    1865.2609    1.1610133    30.985945    30.985945    30.985945    29750.497 
 5391000    292.80029   -2254.6727   -23370.718    -25209.67    1838.9518    1.1610133    30.985945    30.985945    30.985945    29750.497 
 5392000    292.81312    -3286.864   -23325.542   -25164.574    1839.0324    1.1610133    30.985945    30.985945    30.985945    29750.497 
 5393000     298.9633   -2775.4353   -23283.526   -25161.185     1877.659    1.1610133    30.985945    30.985945    30.985945    29750.497 
 5394000    289.34558   -2010.1018   -23364.413   -25181.667    1817.2543    1.1610133    30.985945    30.985945    30.985945    29750.497 
 5395000    300.81277   -2942.7283   -23218.983   -25108.258    1889.2747    1.1610133    30.985945    30.985945    30.985945    29750.497 
 5396000    298.96494   -1918.4028   -23286.697   -25164.366    1877.6693    1.1610133    30.985945    30.985945    30.985945    29750.497 
 5397000    295.69931   -2264.9443   -23337.408   -25194.567    1857.1593    1.1610133    30.985945    30.985945    30.985945    29750.497 
 5398000    296.20808    -3038.003   -23346.274   -25206.629    1860.3546    1.1610133    30.985945    30.985945    30.985945    29750.497 
 5399000    295.92833   -2242.1901    -23348.68   -25207.278    1858.5976    1.1610133    30.985945    30.985945    30.985945    29750.497 
 5400000    295.46516   -2148.0849   -23194.249   -25049.937    1855.6887    1.1610133    30.985945    30.985945    30.985945    29750.497 
 5401000    301.41041   -2136.7794    -23244.51   -25137.538    1893.0282    1.1610133    30.985945    30.985945    30.985945    29750.497 
 5402000    302.74462     -2854.82   -23240.618   -25142.025    1901.4078    1.1610133    30.985945    30.985945    30.985945    29750.497 
 5403000     296.0729   -2957.7293   -23225.719   -25085.225    1859.5056    1.1610133    30.985945    30.985945    30.985945    29750.497 
 5404000    299.16997   -2973.4612   -23222.916   -25101.873     1878.957    1.1610133    30.985945    30.985945    30.985945    29750.497 
 5405000    292.66459   -2567.1219   -23309.769   -25147.868    1838.0995    1.1610133    30.985945    30.985945    30.985945    29750.497 
 5406000    301.33836    -2419.914   -23304.967   -25197.543    1892.5757    1.1610133    30.985945    30.985945    30.985945    29750.497 
 5407000    300.73929   -2858.9852   -23299.068   -25187.881    1888.8132    1.1610133    30.985945    30.985945    30.985945    29750.497 
 5408000    302.74852   -3115.2214   -23277.319   -25178.751    1901.4323    1.1610133    30.985945    30.985945    30.985945    29750.497 
 5409000    300.73768   -2623.9209   -23263.193   -25151.996    1888.8031    1.1610133    30.985945    30.985945    30.985945    29750.497 
 5410000    299.74628   -1961.3999   -23240.462   -25123.039    1882.5765    1.1610133    30.985945    30.985945    30.985945    29750.497 
 5411000    298.84265   -2331.3366    -23432.65   -25309.551    1876.9012    1.1610133    30.985945    30.985945    30.985945    29750.497 
 5412000    303.81289   -2253.6969   -23355.003    -25263.12    1908.1172    1.1610133    30.985945    30.985945    30.985945    29750.497 
 5413000    297.54117   -2223.2352   -23336.536   -25205.263    1868.7272    1.1610133    30.985945    30.985945    30.985945    29750.497 
 5414000    297.31981    -2232.161   -23325.771   -25193.108    1867.3369    1.1610133    30.985945    30.985945    30.985945    29750.497 
 5415000    303.21175   -2571.0183   -23271.501   -25175.843    1904.3417    1.1610133    30.985945    30.985945    30.985945    29750.497 
 5416000    302.57892   -2663.7789   -23220.239   -25120.606    1900.3671    1.1610133    30.985945    30.985945    30.985945    29750.497 
 5417000    300.40889   -1203.6613   -23322.605   -25209.343    1886.7381    1.1610133    30.985945    30.985945    30.985945    29750.497 
 5418000    291.24826   -1904.4669   -23282.335   -25111.539    1829.2041    1.1610133    30.985945    30.985945    30.985945    29750.497 
 5419000    291.00524   -2677.4797    -23336.53   -25164.207    1827.6778    1.1610133    30.985945    30.985945    30.985945    29750.497 
 5420000    308.92852    -2601.545   -23266.168   -25206.414    1940.2462    1.1610133    30.985945    30.985945    30.985945    29750.497 
 5421000     303.3587   -2142.5911   -23290.333   -25195.597    1905.2646    1.1610133    30.985945    30.985945    30.985945    29750.497 
 5422000    298.79691   -2255.4651     -23344.7   -25221.314     1876.614    1.1610133    30.985945    30.985945    30.985945    29750.497 
 5423000    303.44604   -1420.1597   -23181.004   -25086.817    1905.8131    1.1610133    30.985945    30.985945    30.985945    29750.497 
 5424000    301.81652   -1572.8122   -23268.404   -25163.982    1895.5788    1.1610133    30.985945    30.985945    30.985945    29750.497 
 5425000     297.7019    -2366.073   -23319.292   -25189.029    1869.7367    1.1610133    30.985945    30.985945    30.985945    29750.497 
 5426000    294.53802   -3489.8772   -23360.701   -25210.567    1849.8657    1.1610133    30.985945    30.985945    30.985945    29750.497 
 5427000    298.15439   -2696.6307   -23346.864   -25219.443    1872.5785    1.1610133    30.985945    30.985945    30.985945    29750.497 
 5428000    301.19815    -2938.119   -23267.069   -25158.765    1891.6951    1.1610133    30.985945    30.985945    30.985945    29750.497 
 5429000    290.74134   -2170.1846   -23329.433   -25155.454    1826.0204    1.1610133    30.985945    30.985945    30.985945    29750.497 
 5430000    293.33553    -2059.885   -23278.507   -25120.821    1842.3134    1.1610133    30.985945    30.985945    30.985945    29750.497 
 5431000    299.17833   -3248.7267   -23315.391     -25194.4    1879.0095    1.1610133    30.985945    30.985945    30.985945    29750.497 
 5432000    293.63565   -2641.8079   -23383.565   -25227.763    1844.1983    1.1610133    30.985945    30.985945    30.985945    29750.497 
 5433000    298.20621   -2731.1199   -23379.779   -25252.683     1872.904    1.1610133    30.985945    30.985945    30.985945    29750.497 
 5434000    290.89699   -2231.4009   -23302.004   -25129.002     1826.998    1.1610133    30.985945    30.985945    30.985945    29750.497 
 5435000    298.68728   -3104.9152   -23297.242   -25173.168    1875.9254    1.1610133    30.985945    30.985945    30.985945    29750.497 
 5436000     295.8771   -2623.2211   -23368.251   -25226.526    1858.2759    1.1610133    30.985945    30.985945    30.985945    29750.497 
 5437000    297.07268   -3064.3159   -23320.186   -25185.971    1865.7848    1.1610133    30.985945    30.985945    30.985945    29750.497 
 5438000     295.5248   -3048.4638   -23323.141   -25179.204    1856.0632    1.1610133    30.985945    30.985945    30.985945    29750.497 
 5439000    293.94841   -2868.0308   -23307.309   -25153.472    1846.1626    1.1610133    30.985945    30.985945    30.985945    29750.497 
 5440000    308.42151   -2978.3753   -23274.611   -25211.673    1937.0619    1.1610133    30.985945    30.985945    30.985945    29750.497 
 5441000    283.42164   -2697.0185   -23363.484   -25143.533    1780.0485    1.1610133    30.985945    30.985945    30.985945    29750.497 
 5442000    296.88952    -2254.756   -23294.301   -25158.936    1864.6345    1.1610133    30.985945    30.985945    30.985945    29750.497 
 5443000    300.82826   -2169.2122   -23225.259   -25114.631     1889.372    1.1610133    30.985945    30.985945    30.985945    29750.497 
 5444000    298.87162   -2293.7267   -23408.154   -25285.238    1877.0832    1.1610133    30.985945    30.985945    30.985945    29750.497 
 5445000    307.19905    -2416.821   -23170.259   -25099.643    1929.3841    1.1610133    30.985945    30.985945    30.985945    29750.497 
 5446000    295.02286   -2853.6245   -23300.101   -25153.012    1852.9108    1.1610133    30.985945    30.985945    30.985945    29750.497 
 5447000    301.07862    -2940.089   -23282.299   -25173.243    1890.9444    1.1610133    30.985945    30.985945    30.985945    29750.497 
 5448000    308.73949   -2594.3782   -23175.793   -25114.852     1939.059    1.1610133    30.985945    30.985945    30.985945    29750.497 
 5449000    297.15267   -2597.9937   -23348.389   -25214.676    1866.2872    1.1610133    30.985945    30.985945    30.985945    29750.497 
 5450000    308.94306   -2766.9859   -23225.298   -25165.636    1940.3375    1.1610133    30.985945    30.985945    30.985945    29750.497 
 5451000    301.23095   -1274.9908   -23212.649   -25104.551    1891.9011    1.1610133    30.985945    30.985945    30.985945    29750.497 
 5452000    303.09413   -1975.8228   -23253.344   -25156.946    1903.6029    1.1610133    30.985945    30.985945    30.985945    29750.497 
 5453000    297.97603   -2411.5178   -23300.487   -25171.945    1871.4584    1.1610133    30.985945    30.985945    30.985945    29750.497 
 5454000    293.23906   -2154.4985   -23358.307   -25200.015    1841.7075    1.1610133    30.985945    30.985945    30.985945    29750.497 
 5455000    297.60543   -3047.0299   -23313.443   -25182.574    1869.1308    1.1610133    30.985945    30.985945    30.985945    29750.497 
 5456000    300.22768   -2097.1495   -23287.034   -25172.634       1885.6    1.1610133    30.985945    30.985945    30.985945    29750.497 
 5457000    301.57719   -1859.7168   -23259.709   -25153.784    1894.0757    1.1610133    30.985945    30.985945    30.985945    29750.497 
 5458000    297.17931   -2462.6858   -23253.476   -25119.931    1866.4545    1.1610133    30.985945    30.985945    30.985945    29750.497 
 5459000    293.50591   -2139.9937   -23318.535   -25161.918    1843.3835    1.1610133    30.985945    30.985945    30.985945    29750.497 
 5460000     296.9232   -2949.8466   -23261.067   -25125.913     1864.846    1.1610133    30.985945    30.985945    30.985945    29750.497 
 5461000    301.16441   -2532.2029   -23261.643   -25153.126    1891.4832    1.1610133    30.985945    30.985945    30.985945    29750.497 
 5462000    298.95541   -3339.5891    -23328.26    -25205.87    1877.6094    1.1610133    30.985945    30.985945    30.985945    29750.497 
 5463000    295.00202   -3072.7008   -23279.979   -25132.759    1852.7799    1.1610133    30.985945    30.985945    30.985945    29750.497 
 5464000    297.29895   -3366.7232    -23324.99   -25192.195    1867.2059    1.1610133    30.985945    30.985945    30.985945    29750.497 
 5465000    296.94337   -2716.7241   -23312.566   -25177.539    1864.9727    1.1610133    30.985945    30.985945    30.985945    29750.497 
 5466000    305.10058   -3275.4829   -23329.068   -25245.273    1916.2046    1.1610133    30.985945    30.985945    30.985945    29750.497 
 5467000     302.9006   -1921.5744   -23285.193   -25187.581    1902.3874    1.1610133    30.985945    30.985945    30.985945    29750.497 
 5468000    296.27363   -2608.8436   -23228.886   -25089.652    1860.7663    1.1610133    30.985945    30.985945    30.985945    29750.497 
 5469000    289.52199   -2833.5898   -23380.111   -25198.473    1818.3622    1.1610133    30.985945    30.985945    30.985945    29750.497 
 5470000    293.38096   -3170.4763   -23280.399   -25122.998    1842.5987    1.1610133    30.985945    30.985945    30.985945    29750.497 
 5471000    306.11682   -2540.7173   -23256.574   -25179.161    1922.5871    1.1610133    30.985945    30.985945    30.985945    29750.497 
 5472000    297.28281    -2068.155   -23327.744   -25194.848    1867.1046    1.1610133    30.985945    30.985945    30.985945    29750.497 
 5473000    301.83847     -2235.24   -23304.399   -25200.116    1895.7167    1.1610133    30.985945    30.985945    30.985945    29750.497 
 5474000    296.21382   -2993.8494   -23382.497   -25242.887    1860.3907    1.1610133    30.985945    30.985945    30.985945    29750.497 
 5475000    300.80438    -2292.509   -23316.605   -25205.827     1889.222    1.1610133    30.985945    30.985945    30.985945    29750.497 
 5476000    297.66328   -2295.1273   -23333.733   -25203.227    1869.4941    1.1610133    30.985945    30.985945    30.985945    29750.497 
 5477000    300.83538   -2732.3085   -23389.957   -25279.374    1889.4167    1.1610133    30.985945    30.985945    30.985945    29750.497 
 5478000    300.70704   -1928.0213     -23289.7   -25178.311    1888.6106    1.1610133    30.985945    30.985945    30.985945    29750.497 
 5479000    293.24327    -2253.179   -23335.687   -25177.421     1841.734    1.1610133    30.985945    30.985945    30.985945    29750.497 
 5480000    292.58361   -1889.1335   -23326.885   -25164.476    1837.5909    1.1610133    30.985945    30.985945    30.985945    29750.497 
 5481000    296.76957   -3290.7166   -23287.553   -25151.434    1863.8811    1.1610133    30.985945    30.985945    30.985945    29750.497 
 5482000      301.817   -2562.4677   -23285.276   -25180.857    1895.5818    1.1610133    30.985945    30.985945    30.985945    29750.497 
 5483000    296.50685    -2561.956   -23356.672   -25218.903     1862.231    1.1610133    30.985945    30.985945    30.985945    29750.497 
 5484000    298.24407   -3653.8743   -23247.884   -25121.026    1873.1418    1.1610133    30.985945    30.985945    30.985945    29750.497 
 5485000    297.91013   -2094.0168   -23297.675   -25168.719    1871.0444    1.1610133    30.985945    30.985945    30.985945    29750.497 
 5486000    301.42001   -2747.2033   -23179.525   -25072.613    1893.0885    1.1610133    30.985945    30.985945    30.985945    29750.497 
 5487000     303.9935   -2688.2892   -23263.292   -25172.543    1909.2514    1.1610133    30.985945    30.985945    30.985945    29750.497 
 5488000    290.35578    -1879.567   -23340.947   -25164.546    1823.5989    1.1610133    30.985945    30.985945    30.985945    29750.497 
 5489000    296.91891   -2985.7372   -23302.863   -25167.682     1864.819    1.1610133    30.985945    30.985945    30.985945    29750.497 
 5490000    295.24171   -2637.2717   -23285.068   -25139.353    1854.2853    1.1610133    30.985945    30.985945    30.985945    29750.497 
 5491000    303.61132    -2205.569   -23248.825   -25155.676    1906.8512    1.1610133    30.985945    30.985945    30.985945    29750.497 
 5492000    308.71215   -2339.5551   -23191.619   -25130.506    1938.8873    1.1610133    30.985945    30.985945    30.985945    29750.497 
 5493000    295.35201    -2440.226   -23281.862    -25136.84     1854.978    1.1610133    30.985945    30.985945    30.985945    29750.497 
 5494000    300.20255   -2524.4941   -23310.108    -25195.55    1885.4421    1.1610133    30.985945    30.985945    30.985945    29750.497 
 5495000    301.12593   -2807.7577    -23421.36   -25312.602    1891.2415    1.1610133    30.985945    30.985945    30.985945    29750.497 
 5496000    294.12411   -3061.2732   -23334.493   -25181.759    1847.2661    1.1610133    30.985945    30.985945    30.985945    29750.497 
 5497000     301.2161   -2760.8287   -23276.893   -25168.701    1891.8078    1.1610133    30.985945    30.985945    30.985945    29750.497 
 5498000     301.8421   -3650.2681   -23325.137   -25220.876    1895.7395    1.1610133    30.985945    30.985945    30.985945    29750.497 
 5499000    291.58665   -3143.7732   -23214.787   -25046.116    1831.3294    1.1610133    30.985945    30.985945    30.985945    29750.497 
 5500000    300.70486    -1714.226   -23177.681   -25066.278    1888.5969    1.1610133    30.985945    30.985945    30.985945    29750.497 
 5501000    296.05395   -2586.4773   -23221.264   -25080.651    1859.3866    1.1610133    30.985945    30.985945    30.985945    29750.497 
 5502000    307.02687    -2162.115    -23140.22   -25068.523    1928.3028    1.1610133    30.985945    30.985945    30.985945    29750.497 
 5503000    300.91913   -2629.0541   -23258.308   -25148.251    1889.9427    1.1610133    30.985945    30.985945    30.985945    29750.497 
 5504000    306.94383   -2424.0219   -23149.737   -25077.518    1927.7812    1.1610133    30.985945    30.985945    30.985945    29750.497 
 5505000    304.20154   -3585.0246   -23300.506   -25211.064    1910.5581    1.1610133    30.985945    30.985945    30.985945    29750.497 
 5506000    295.29218    -2408.602   -23358.698     -25213.3    1854.6022    1.1610133    30.985945    30.985945    30.985945    29750.497 
 5507000    296.16773   -3484.7029   -23274.192   -25134.293    1860.1012    1.1610133    30.985945    30.985945    30.985945    29750.497 
 5508000    302.41096   -3151.6495   -23364.616   -25263.929    1899.3122    1.1610133    30.985945    30.985945    30.985945    29750.497 
 5509000    299.82019   -1920.5713   -23318.732   -25201.773    1883.0407    1.1610133    30.985945    30.985945    30.985945    29750.497 
 5510000    300.04513   -1872.3082   -23292.674   -25177.127    1884.4535    1.1610133    30.985945    30.985945    30.985945    29750.497 
 5511000    300.63837   -2544.1371   -23318.963   -25207.142    1888.1793    1.1610133    30.985945    30.985945    30.985945    29750.497 
 5512000    291.22237   -3494.6441   -23361.824   -25190.866    1829.0415    1.1610133    30.985945    30.985945    30.985945    29750.497 
 5513000    304.74078   -2481.3071    -23269.01   -25182.955    1913.9448    1.1610133    30.985945    30.985945    30.985945    29750.497 
 5514000    299.15274    -2535.678   -23405.616   -25284.464    1878.8488    1.1610133    30.985945    30.985945    30.985945    29750.497 
 5515000    299.03946   -2719.5264   -23326.676   -25204.813    1878.1373    1.1610133    30.985945    30.985945    30.985945    29750.497 
 5516000    297.67459   -2857.8138   -23358.792   -25228.357    1869.5651    1.1610133    30.985945    30.985945    30.985945    29750.497 
 5517000    298.27476   -2398.8071    -23284.91   -25158.245    1873.3345    1.1610133    30.985945    30.985945    30.985945    29750.497 
 5518000    294.50377   -2757.3977   -23371.607   -25221.258    1849.6506    1.1610133    30.985945    30.985945    30.985945    29750.497 
 5519000    298.43438   -2811.7004   -23248.353    -25122.69    1874.3371    1.1610133    30.985945    30.985945    30.985945    29750.497 
 5520000    304.56277   -3257.0112   -23293.931   -25206.758    1912.8268    1.1610133    30.985945    30.985945    30.985945    29750.497 
 5521000     298.8647   -2343.3062   -23250.937   -25127.976    1877.0397    1.1610133    30.985945    30.985945    30.985945    29750.497 
 5522000    305.08725   -1992.7464   -23315.885   -25232.006    1916.1209    1.1610133    30.985945    30.985945    30.985945    29750.497 
 5523000    299.75837     -1223.24   -23236.534   -25119.186    1882.6525    1.1610133    30.985945    30.985945    30.985945    29750.497 
 5524000    294.19213   -2118.5156   -23238.724   -25086.417    1847.6933    1.1610133    30.985945    30.985945    30.985945    29750.497 
 5525000     305.3196   -2181.9501   -23167.834   -25085.415    1917.5801    1.1610133    30.985945    30.985945    30.985945    29750.497 
 5526000    297.61153   -1741.3562    -23263.13     -25132.3    1869.1691    1.1610133    30.985945    30.985945    30.985945    29750.497 
 5527000    303.29649   -2406.7236   -23272.476   -25177.349    1904.8739    1.1610133    30.985945    30.985945    30.985945    29750.497 
 5528000    298.65572   -2678.1702   -23272.664   -25148.391    1875.7272    1.1610133    30.985945    30.985945    30.985945    29750.497 
 5529000    300.35039   -2510.6708   -23279.564   -25165.935    1886.3707    1.1610133    30.985945    30.985945    30.985945    29750.497 
 5530000    300.59243    -2499.986   -23260.037   -25147.928    1887.8908    1.1610133    30.985945    30.985945    30.985945    29750.497 
 5531000    295.35476   -2323.4105   -23232.244    -25087.24    1854.9953    1.1610133    30.985945    30.985945    30.985945    29750.497 
 5532000    298.23217   -2648.1875    -23220.57   -25093.637    1873.0671    1.1610133    30.985945    30.985945    30.985945    29750.497 
 5533000    296.67018   -2257.0287   -23222.839   -25086.096    1863.2569    1.1610133    30.985945    30.985945    30.985945    29750.497 
 5534000    295.38086    -2818.083   -23263.175   -25118.334    1855.1592    1.1610133    30.985945    30.985945    30.985945    29750.497 
 5535000    288.61891    -2485.712   -23292.336   -25105.026    1812.6903    1.1610133    30.985945    30.985945    30.985945    29750.497 
 5536000     287.8379    -2604.616    -23338.49   -25146.275    1807.7851    1.1610133    30.985945    30.985945    30.985945    29750.497 
 5537000    297.74755   -2726.8764   -23218.892   -25088.915    1870.0234    1.1610133    30.985945    30.985945    30.985945    29750.497 
 5538000    298.29189   -2865.3084   -23187.452   -25060.894    1873.4421    1.1610133    30.985945    30.985945    30.985945    29750.497 
 5539000    290.51934   -2469.3893   -23242.708   -25067.334    1824.6261    1.1610133    30.985945    30.985945    30.985945    29750.497 
 5540000    301.30327   -2420.6554   -23184.505   -25076.861    1892.3553    1.1610133    30.985945    30.985945    30.985945    29750.497 
 5541000    300.78209   -2402.4695   -23213.538    -25102.62     1889.082    1.1610133    30.985945    30.985945    30.985945    29750.497 
 5542000    300.67043   -1888.5141   -23145.658   -25034.039    1888.3807    1.1610133    30.985945    30.985945    30.985945    29750.497 
 5543000    297.73683   -2358.0823    -23234.36   -25104.316     1869.956    1.1610133    30.985945    30.985945    30.985945    29750.497 
 5544000    302.71454   -1816.5542   -23221.522   -25122.741    1901.2189    1.1610133    30.985945    30.985945    30.985945    29750.497 
 5545000    299.18079   -1898.9142   -23302.847   -25181.872    1879.0249    1.1610133    30.985945    30.985945    30.985945    29750.497 
 5546000    295.22606   -2115.1735   -23256.732   -25110.919     1854.187    1.1610133    30.985945    30.985945    30.985945    29750.497 
 5547000    302.51067    -1831.101    -23293.14   -25193.079    1899.9385    1.1610133    30.985945    30.985945    30.985945    29750.497 
 5548000    295.18727   -2332.5633   -23315.078   -25169.021    1853.9434    1.1610133    30.985945    30.985945    30.985945    29750.497 
 5549000    304.24266   -2283.2494   -23191.372   -25102.188    1910.8163    1.1610133    30.985945    30.985945    30.985945    29750.497 
 5550000     296.0765   -2575.6675   -23273.482    -25133.01    1859.5282    1.1610133    30.985945    30.985945    30.985945    29750.497 
 5551000    301.17042   -2185.5136   -23218.972   -25110.493     1891.521    1.1610133    30.985945    30.985945    30.985945    29750.497 
 5552000    297.96035   -2407.7617   -23206.986   -25078.346    1871.3599    1.1610133    30.985945    30.985945    30.985945    29750.497 
 5553000    299.09061   -2779.9799   -23336.105   -25214.563    1878.4585    1.1610133    30.985945    30.985945    30.985945    29750.497 
 5554000     301.3838   -2266.5819   -23229.516   -25122.377    1892.8611    1.1610133    30.985945    30.985945    30.985945    29750.497 
 5555000    288.35961   -2138.1749   -23305.809   -25116.871    1811.0618    1.1610133    30.985945    30.985945    30.985945    29750.497 
 5556000    298.07156   -2081.5844    -23242.15   -25114.208    1872.0584    1.1610133    30.985945    30.985945    30.985945    29750.497 
 5557000    302.13396    -2186.603   -23291.664   -25189.237    1897.5725    1.1610133    30.985945    30.985945    30.985945    29750.497 
 5558000     294.8601   -2877.3859   -23274.979   -25126.867    1851.8885    1.1610133    30.985945    30.985945    30.985945    29750.497 
 5559000    296.78386   -2644.9951   -23399.491   -25263.462    1863.9709    1.1610133    30.985945    30.985945    30.985945    29750.497 
 5560000    298.82929   -2053.5748   -23270.308   -25147.125    1876.8173    1.1610133    30.985945    30.985945    30.985945    29750.497 
 5561000    299.16078   -2098.0789   -23274.677   -25153.576    1878.8993    1.1610133    30.985945    30.985945    30.985945    29750.497 
 5562000    294.84399   -2172.4231   -23212.169   -25063.957    1851.7874    1.1610133    30.985945    30.985945    30.985945    29750.497 
 5563000    298.34183   -2131.7793   -23143.928   -25017.684    1873.7558    1.1610133    30.985945    30.985945    30.985945    29750.497 
 5564000    302.39238   -2607.6073   -23119.103   -25018.298    1899.1955    1.1610133    30.985945    30.985945    30.985945    29750.497 
 5565000    301.43251   -3362.4847   -23184.109   -25077.276     1893.167    1.1610133    30.985945    30.985945    30.985945    29750.497 
 5566000    300.31624   -2116.8574   -23261.362   -25147.519    1886.1562    1.1610133    30.985945    30.985945    30.985945    29750.497 
 5567000    300.57886   -2643.1748    -23244.46   -25132.266    1887.8056    1.1610133    30.985945    30.985945    30.985945    29750.497 
 5568000    291.01274   -1616.2626   -23290.898   -25118.623     1827.725    1.1610133    30.985945    30.985945    30.985945    29750.497 
 5569000    307.36802   -2827.3564   -23218.579   -25149.024    1930.4454    1.1610133    30.985945    30.985945    30.985945    29750.497 
 5570000    300.02943    -1870.884   -23255.923   -25140.278    1884.3549    1.1610133    30.985945    30.985945    30.985945    29750.497 
 5571000     305.0086   -3028.3011   -23244.119   -25159.746    1915.6269    1.1610133    30.985945    30.985945    30.985945    29750.497 
 5572000    297.56153   -2264.0703   -23284.685    -25153.54    1868.8551    1.1610133    30.985945    30.985945    30.985945    29750.497 
 5573000    290.97952   -2631.5129   -23319.901   -25147.417    1827.5163    1.1610133    30.985945    30.985945    30.985945    29750.497 
 5574000    306.81625   -2755.7431   -23315.312   -25242.292    1926.9799    1.1610133    30.985945    30.985945    30.985945    29750.497 
 5575000    298.82748   -1033.0592   -23225.627   -25102.433    1876.8059    1.1610133    30.985945    30.985945    30.985945    29750.497 
 5576000    305.14733   -2928.5501   -23191.748   -25108.247    1916.4982    1.1610133    30.985945    30.985945    30.985945    29750.497 
 5577000    300.39559   -1994.8994   -23198.422   -25085.077    1886.6546    1.1610133    30.985945    30.985945    30.985945    29750.497 
 5578000    299.83047    -1471.613   -23226.233   -25109.338    1883.1053    1.1610133    30.985945    30.985945    30.985945    29750.497 
 5579000    305.78413   -2142.9879   -23097.028   -25017.526    1920.4977    1.1610133    30.985945    30.985945    30.985945    29750.497 
 5580000    302.10734   -2060.6948   -23227.366   -25124.771    1897.4053    1.1610133    30.985945    30.985945    30.985945    29750.497 
 5581000    293.70227   -3141.6975   -23287.258   -25131.874    1844.6167    1.1610133    30.985945    30.985945    30.985945    29750.497 
 5582000    301.92084   -3339.9212   -23293.596    -25189.83     1896.234    1.1610133    30.985945    30.985945    30.985945    29750.497 
 5583000    305.03604   -3125.7375   -23269.836   -25185.635    1915.7992    1.1610133    30.985945    30.985945    30.985945    29750.497 
 5584000     302.6291     -2554.08   -23242.955   -25143.638    1900.6823    1.1610133    30.985945    30.985945    30.985945    29750.497 
 5585000     300.1303   -2604.2782   -23297.519   -25182.507    1884.9884    1.1610133    30.985945    30.985945    30.985945    29750.497 
 5586000    298.64946   -2914.7894   -23318.844   -25194.532    1875.6879    1.1610133    30.985945    30.985945    30.985945    29750.497 
 5587000    300.88133   -2762.5936   -23219.256   -25108.961    1889.7053    1.1610133    30.985945    30.985945    30.985945    29750.497 
 5588000    296.14614   -2773.2937   -23285.071   -25145.036    1859.9656    1.1610133    30.985945    30.985945    30.985945    29750.497 
 5589000    289.19835   -2348.2842   -23337.575   -25153.904    1816.3296    1.1610133    30.985945    30.985945    30.985945    29750.497 
 5590000    307.46233   -3031.8007   -23171.401   -25102.438    1931.0377    1.1610133    30.985945    30.985945    30.985945    29750.497 
 5591000    307.68206   -2228.0519   -23219.892    -25152.31    1932.4177    1.1610133    30.985945    30.985945    30.985945    29750.497 
 5592000    302.33609   -1926.9746   -23290.426   -25189.268     1898.842    1.1610133    30.985945    30.985945    30.985945    29750.497 
 5593000     292.4783    -1700.166   -23328.356   -25165.285    1836.9295    1.1610133    30.985945    30.985945    30.985945    29750.497 
 5594000    295.82044    -2390.479    -23368.22    -25226.14      1857.92    1.1610133    30.985945    30.985945    30.985945    29750.497 
 5595000    295.62889   -1891.8065    -23402.44   -25259.157     1856.717    1.1610133    30.985945    30.985945    30.985945    29750.497 
 5596000    297.20797    -2321.682   -23354.588   -25221.222    1866.6345    1.1610133    30.985945    30.985945    30.985945    29750.497 
 5597000    289.19508   -1695.6613   -23369.344   -25185.653     1816.309    1.1610133    30.985945    30.985945    30.985945    29750.497 
 5598000    301.39973   -1783.2673   -23316.319    -25209.28    1892.9611    1.1610133    30.985945    30.985945    30.985945    29750.497 
 5599000    301.52748   -3033.4507    -23338.52   -25232.284    1893.7635    1.1610133    30.985945    30.985945    30.985945    29750.497 
 5600000    302.01342   -2331.8601   -23298.818   -25195.633    1896.8155    1.1610133    30.985945    30.985945    30.985945    29750.497 
 5601000    299.76309    -1790.492   -23301.001   -25183.683    1882.6821    1.1610133    30.985945    30.985945    30.985945    29750.497 
 5602000    305.11708   -2437.0912    -23234.39   -25150.698    1916.3082    1.1610133    30.985945    30.985945    30.985945    29750.497 
 5603000    293.79275   -1976.5032   -23251.469   -25096.654     1845.185    1.1610133    30.985945    30.985945    30.985945    29750.497 
 5604000    305.79015   -2238.6752   -23117.527   -25038.062    1920.5354    1.1610133    30.985945    30.985945    30.985945    29750.497 
 5605000    294.43339   -2820.5723    -23308.14   -25157.349    1849.2086    1.1610133    30.985945    30.985945    30.985945    29750.497 
 5606000    293.31191   -2450.8645   -23281.014   -25123.179     1842.165    1.1610133    30.985945    30.985945    30.985945    29750.497 
 5607000     302.5451   -3328.9347   -23265.278   -25165.433    1900.1547    1.1610133    30.985945    30.985945    30.985945    29750.497 
 5608000    301.22385   -2312.9772   -23282.398   -25174.254    1891.8565    1.1610133    30.985945    30.985945    30.985945    29750.497 
 5609000    298.49647   -3409.2988   -23314.054   -25188.781     1874.727    1.1610133    30.985945    30.985945    30.985945    29750.497 
 5610000    295.62239   -2355.0605    -23333.32   -25189.996    1856.6762    1.1610133    30.985945    30.985945    30.985945    29750.497 
 5611000    295.33806   -3173.7012    -23323.61     -25178.5    1854.8904    1.1610133    30.985945    30.985945    30.985945    29750.497 
 5612000    299.98425   -2575.0054   -23188.736   -25072.808    1884.0711    1.1610133    30.985945    30.985945    30.985945    29750.497 
 5613000    293.93543   -2286.6331       -23307   -25153.081    1846.0811    1.1610133    30.985945    30.985945    30.985945    29750.497 
 5614000    299.61844   -2780.0581   -23269.304   -25151.077    1881.7736    1.1610133    30.985945    30.985945    30.985945    29750.497 
 5615000    291.56776   -3004.5165   -23270.036   -25101.247    1831.2108    1.1610133    30.985945    30.985945    30.985945    29750.497 
 5616000    302.40553   -2453.6158   -23267.709   -25166.987    1899.2781    1.1610133    30.985945    30.985945    30.985945    29750.497 
 5617000    299.36488   -2288.6145   -23306.332   -25186.513    1880.1811    1.1610133    30.985945    30.985945    30.985945    29750.497 
 5618000    296.24716    -2262.159   -23306.338   -25166.938       1860.6    1.1610133    30.985945    30.985945    30.985945    29750.497 
 5619000     296.3702   -2893.0477   -23424.796   -25286.169    1861.3728    1.1610133    30.985945    30.985945    30.985945    29750.497 
 5620000    292.81476   -2570.8661   -23394.289   -25233.332    1839.0426    1.1610133    30.985945    30.985945    30.985945    29750.497 
 5621000    300.50355   -1920.5492   -23341.553   -25228.885    1887.3326    1.1610133    30.985945    30.985945    30.985945    29750.497 
 5622000    300.38834   -1476.1032   -23200.187   -25086.796     1886.609    1.1610133    30.985945    30.985945    30.985945    29750.497 
 5623000    307.14482   -2723.0784    -23275.07   -25204.113    1929.0435    1.1610133    30.985945    30.985945    30.985945    29750.497 
 5624000    308.55348   -2559.2487   -23287.922   -25225.813    1937.8907    1.1610133    30.985945    30.985945    30.985945    29750.497 
 5625000    297.84656   -2154.7714   -23297.859   -25168.504    1870.6452    1.1610133    30.985945    30.985945    30.985945    29750.497 
 5626000    294.47796   -3070.2695   -23293.838   -25143.327    1849.4885    1.1610133    30.985945    30.985945    30.985945    29750.497 
 5627000    299.68421   -3160.9556   -23311.731   -25193.917    1882.1867    1.1610133    30.985945    30.985945    30.985945    29750.497 
 5628000    294.61832     -3096.78   -23340.269   -25190.639      1850.37    1.1610133    30.985945    30.985945    30.985945    29750.497 
 5629000    297.56905   -2447.8923   -23209.513   -25078.415    1868.9023    1.1610133    30.985945    30.985945    30.985945    29750.497 
 5630000     297.7011   -2376.3138   -23271.945   -25141.676    1869.7316    1.1610133    30.985945    30.985945    30.985945    29750.497 
 5631000    287.82919   -2039.5608    -23347.36    -25155.09    1807.7305    1.1610133    30.985945    30.985945    30.985945    29750.497 
 5632000    297.09388    -2894.014    -23309.27   -25175.188    1865.9179    1.1610133    30.985945    30.985945    30.985945    29750.497 
 5633000    300.54056   -2349.5452   -23304.262   -25191.827    1887.5651    1.1610133    30.985945    30.985945    30.985945    29750.497 
 5634000    297.46321   -2495.9136   -23393.923   -25262.161    1868.2375    1.1610133    30.985945    30.985945    30.985945    29750.497 
 5635000    287.74385   -2845.4256   -23376.984   -25184.178    1807.1945    1.1610133    30.985945    30.985945    30.985945    29750.497 
 5636000    296.99837   -3094.4437   -23328.134   -25193.452    1865.3181    1.1610133    30.985945    30.985945    30.985945    29750.497 
 5637000    289.55215   -2442.6348   -23372.194   -25190.746    1818.5516    1.1610133    30.985945    30.985945    30.985945    29750.497 
 5638000    302.68689   -2461.9278    -23290.98   -25192.025    1901.0452    1.1610133    30.985945    30.985945    30.985945    29750.497 
 5639000    309.05757   -1993.3466   -23158.325   -25099.381    1941.0567    1.1610133    30.985945    30.985945    30.985945    29750.497 
 5640000    299.15243    -1874.246   -23229.732   -25108.579    1878.8468    1.1610133    30.985945    30.985945    30.985945    29750.497 
 5641000    301.75492    -2112.921   -23253.554   -25148.746    1895.1919    1.1610133    30.985945    30.985945    30.985945    29750.497 
 5642000    295.88969   -2238.1157   -23263.225    -25121.58     1858.355    1.1610133    30.985945    30.985945    30.985945    29750.497 
 5643000    301.86228   -1787.6525   -23272.694    -25168.56    1895.8662    1.1610133    30.985945    30.985945    30.985945    29750.497 
 5644000     298.7605   -3195.8289   -23336.452   -25212.837    1876.3853    1.1610133    30.985945    30.985945    30.985945    29750.497 
 5645000    288.87333   -3031.7114   -23296.209   -25110.497    1814.2882    1.1610133    30.985945    30.985945    30.985945    29750.497 
 5646000    313.71259   -2841.2494   -23109.828   -25080.121    1970.2929    1.1610133    30.985945    30.985945    30.985945    29750.497 
 5647000     304.0412    -3211.643   -23279.215   -25188.766    1909.5511    1.1610133    30.985945    30.985945    30.985945    29750.497 
 5648000    295.14388   -2605.7069   -23328.167   -25181.838    1853.6708    1.1610133    30.985945    30.985945    30.985945    29750.497 
 5649000    297.99567   -2901.5561   -23399.276   -25270.857    1871.5817    1.1610133    30.985945    30.985945    30.985945    29750.497 
 5650000    295.40365   -2072.7677   -23312.557    -25167.86    1855.3023    1.1610133    30.985945    30.985945    30.985945    29750.497 
 5651000    292.19475   -3070.5944   -23357.541   -25192.689    1835.1486    1.1610133    30.985945    30.985945    30.985945    29750.497 
 5652000    299.25082   -2897.8011   -23235.826   -25115.291    1879.4648    1.1610133    30.985945    30.985945    30.985945    29750.497 
 5653000    298.00455    -1363.912   -23304.434   -25176.072    1871.6375    1.1610133    30.985945    30.985945    30.985945    29750.497 
 5654000    302.73671   -2541.7551   -23145.223   -25046.581    1901.3581    1.1610133    30.985945    30.985945    30.985945    29750.497 
 5655000    300.55978    -2225.392   -23331.688   -25219.374    1887.6857    1.1610133    30.985945    30.985945    30.985945    29750.497 
 5656000    302.52056   -2930.7071   -23325.816   -25225.816    1900.0006    1.1610133    30.985945    30.985945    30.985945    29750.497 
 5657000    294.87136   -2119.9878   -23407.261    -25259.22    1851.9593    1.1610133    30.985945    30.985945    30.985945    29750.497 
 5658000    296.25957   -2692.5732   -23287.244   -25147.922     1860.678    1.1610133    30.985945    30.985945    30.985945    29750.497 
 5659000    297.71883    -3481.731   -23355.303   -25225.146     1869.843    1.1610133    30.985945    30.985945    30.985945    29750.497 
 5660000     293.4572   -3347.8096   -23343.863   -25186.941    1843.0775    1.1610133    30.985945    30.985945    30.985945    29750.497 
 5661000    292.00255   -3047.3783    -23337.57   -25171.512    1833.9415    1.1610133    30.985945    30.985945    30.985945    29750.497 
 5662000      306.527   -1626.7027   -23317.726    -25242.89    1925.1633    1.1610133    30.985945    30.985945    30.985945    29750.497 
 5663000    302.38004   -2695.8299   -23246.891   -25146.009     1899.118    1.1610133    30.985945    30.985945    30.985945    29750.497 
 5664000    299.38511   -2666.1693   -23221.901   -25102.209    1880.3082    1.1610133    30.985945    30.985945    30.985945    29750.497 
 5665000    290.62793   -2624.0285   -23384.726   -25210.034    1825.3081    1.1610133    30.985945    30.985945    30.985945    29750.497 
 5666000    303.46822   -2334.8783   -23262.333   -25168.285    1905.9524    1.1610133    30.985945    30.985945    30.985945    29750.497 
 5667000    306.80918   -2468.0341   -23240.472   -25167.408    1926.9355    1.1610133    30.985945    30.985945    30.985945    29750.497 
 5668000    293.68937   -2851.8761   -23363.161   -25207.697    1844.5357    1.1610133    30.985945    30.985945    30.985945    29750.497 
 5669000    289.91828    -1659.322   -23397.516   -25218.367    1820.8511    1.1610133    30.985945    30.985945    30.985945    29750.497 
 5670000    297.21016    -2393.067   -23284.858   -25151.507    1866.6483    1.1610133    30.985945    30.985945    30.985945    29750.497 
 5671000    290.24051   -3066.3349   -23409.352   -25232.227    1822.8749    1.1610133    30.985945    30.985945    30.985945    29750.497 
 5672000    303.82009   -2172.1214   -23312.178    -25220.34    1908.1623    1.1610133    30.985945    30.985945    30.985945    29750.497 
 5673000    303.08958   -2652.0624   -23241.885    -25145.46    1903.5744    1.1610133    30.985945    30.985945    30.985945    29750.497 
 5674000    310.36864   -2308.5843   -23153.144   -25102.435     1949.291    1.1610133    30.985945    30.985945    30.985945    29750.497 
 5675000    301.08182   -2313.0397   -23290.812   -25181.776    1890.9645    1.1610133    30.985945    30.985945    30.985945    29750.497 
 5676000     300.2077   -2432.6085   -23300.537   -25186.012    1885.4745    1.1610133    30.985945    30.985945    30.985945    29750.497 
 5677000    302.15422   -1788.3365   -23358.957   -25256.656    1897.6997    1.1610133    30.985945    30.985945    30.985945    29750.497 
 5678000    296.81958   -2180.7702   -23391.109   -25255.304    1864.1952    1.1610133    30.985945    30.985945    30.985945    29750.497 
 5679000    299.94062   -2576.9637   -23239.665   -25123.463    1883.7971    1.1610133    30.985945    30.985945    30.985945    29750.497 
 5680000    295.91905   -2813.7377    -23357.37    -25215.91    1858.5394    1.1610133    30.985945    30.985945    30.985945    29750.497 
 5681000    304.32341   -1220.4696   -23328.999   -25240.322    1911.3235    1.1610133    30.985945    30.985945    30.985945    29750.497 
 5682000    302.74872   -3100.9483   -23379.106   -25280.539    1901.4336    1.1610133    30.985945    30.985945    30.985945    29750.497 
 5683000    301.42025   -3227.4785   -23341.231   -25234.321      1893.09    1.1610133    30.985945    30.985945    30.985945    29750.497 
 5684000    293.37829   -3000.1328   -23356.523   -25199.105    1842.5819    1.1610133    30.985945    30.985945    30.985945    29750.497 
 5685000    297.47446    -2542.785   -23315.185   -25183.493    1868.3082    1.1610133    30.985945    30.985945    30.985945    29750.497 
 5686000    306.12553   -2475.5731     -23257.7   -25180.342    1922.6419    1.1610133    30.985945    30.985945    30.985945    29750.497 
 5687000    286.78118    -3242.577   -23359.681   -25160.829    1801.1484    1.1610133    30.985945    30.985945    30.985945    29750.497 
 5688000    304.23903   -2643.3126   -23255.621   -25166.415    1910.7936    1.1610133    30.985945    30.985945    30.985945    29750.497 
 5689000    308.57693   -2823.5253   -23222.551   -25160.589     1938.038    1.1610133    30.985945    30.985945    30.985945    29750.497 
 5690000    287.50346   -2068.4863   -23373.449   -25179.134    1805.6847    1.1610133    30.985945    30.985945    30.985945    29750.497 
 5691000    300.05162   -1818.8831   -23275.356    -25159.85    1884.4942    1.1610133    30.985945    30.985945    30.985945    29750.497 
 5692000    297.14875   -2061.9224   -23370.631   -25236.893    1866.2626    1.1610133    30.985945    30.985945    30.985945    29750.497 
 5693000    301.65616   -2467.9203   -23338.901   -25233.473    1894.5717    1.1610133    30.985945    30.985945    30.985945    29750.497 
 5694000    296.63026   -2737.1787   -23326.092   -25189.099    1863.0061    1.1610133    30.985945    30.985945    30.985945    29750.497 
 5695000    294.73849    -2653.796   -23227.759   -25078.884    1851.1248    1.1610133    30.985945    30.985945    30.985945    29750.497 
 5696000    305.42632   -2603.2759   -23306.495   -25224.746    1918.2504    1.1610133    30.985945    30.985945    30.985945    29750.497 
 5697000    292.74836   -1802.1911   -23277.816   -25116.442    1838.6256    1.1610133    30.985945    30.985945    30.985945    29750.497 
 5698000    308.35799   -2818.1139   -23265.706   -25202.369    1936.6629    1.1610133    30.985945    30.985945    30.985945    29750.497 
 5699000    301.96812   -2017.4505   -23390.602   -25287.133    1896.5309    1.1610133    30.985945    30.985945    30.985945    29750.497 
 5700000     301.9485   -2316.1812   -23271.156   -25167.564    1896.4077    1.1610133    30.985945    30.985945    30.985945    29750.497 
 5701000    304.38446   -2689.0179   -23288.222   -25199.929    1911.7069    1.1610133    30.985945    30.985945    30.985945    29750.497 
 5702000    299.90643    -2724.297    -23297.34   -25180.922    1883.5823    1.1610133    30.985945    30.985945    30.985945    29750.497 
 5703000    294.27628   -2209.7711   -23381.063   -25229.285    1848.2218    1.1610133    30.985945    30.985945    30.985945    29750.497 
 5704000    310.63007   -2932.0262   -23331.113   -25282.045    1950.9329    1.1610133    30.985945    30.985945    30.985945    29750.497 
 5705000    311.51736   -2471.1451    -23285.51   -25242.015    1956.5056    1.1610133    30.985945    30.985945    30.985945    29750.497 
 5706000     300.7444   -2306.9593   -23393.178   -25282.023    1888.8453    1.1610133    30.985945    30.985945    30.985945    29750.497 
 5707000    295.07749   -2446.1929   -23321.781   -25175.035    1853.2539    1.1610133    30.985945    30.985945    30.985945    29750.497 
 5708000    297.20115     -3433.71   -23278.954   -25145.546    1866.5916    1.1610133    30.985945    30.985945    30.985945    29750.497 
 5709000    304.95921    -2726.324   -23312.192   -25227.509    1915.3167    1.1610133    30.985945    30.985945    30.985945    29750.497 
 5710000      295.733    -3664.879    -23384.42    -25241.79    1857.3708    1.1610133    30.985945    30.985945    30.985945    29750.497 
 5711000    293.22781   -3410.9174   -23395.566   -25237.203    1841.6368    1.1610133    30.985945    30.985945    30.985945    29750.497 
 5712000    300.99623   -3203.9332   -23277.045   -25167.472    1890.4269    1.1610133    30.985945    30.985945    30.985945    29750.497 
 5713000    306.67227   -3354.1281   -23258.613   -25184.688    1926.0757    1.1610133    30.985945    30.985945    30.985945    29750.497 
 5714000    298.40462   -2022.0842   -23241.236   -25115.387    1874.1501    1.1610133    30.985945    30.985945    30.985945    29750.497 
 5715000    298.92033   -2376.4241   -23288.899   -25166.288    1877.3891    1.1610133    30.985945    30.985945    30.985945    29750.497 
 5716000     307.8705   -2248.6251   -23280.243   -25213.844    1933.6012    1.1610133    30.985945    30.985945    30.985945    29750.497 
 5717000    298.16274   -2888.6836   -23335.601   -25208.232     1872.631    1.1610133    30.985945    30.985945    30.985945    29750.497 
 5718000    302.68584   -3543.1341   -23321.658   -25222.697    1901.0386    1.1610133    30.985945    30.985945    30.985945    29750.497 
 5719000    297.75073   -2177.3359   -23228.241   -25098.285    1870.0433    1.1610133    30.985945    30.985945    30.985945    29750.497 
 5720000    290.28888   -1582.2797   -23329.107   -25152.286    1823.1787    1.1610133    30.985945    30.985945    30.985945    29750.497 
 5721000    299.24391    -2015.183   -23450.963   -25330.384    1879.4214    1.1610133    30.985945    30.985945    30.985945    29750.497 
 5722000    299.47686   -2905.3359   -23306.269   -25187.153    1880.8844    1.1610133    30.985945    30.985945    30.985945    29750.497 
 5723000    298.60203   -2009.3762    -23372.07    -25247.46      1875.39    1.1610133    30.985945    30.985945    30.985945    29750.497 
 5724000    293.30167   -2561.4175   -23339.679   -25181.779    1842.1007    1.1610133    30.985945    30.985945    30.985945    29750.497 
 5725000    296.03607   -3416.9522   -23344.964   -25204.239    1859.2743    1.1610133    30.985945    30.985945    30.985945    29750.497 
 5726000    299.77947   -3737.5277   -23395.475    -25278.26     1882.785    1.1610133    30.985945    30.985945    30.985945    29750.497 
 5727000    298.93488   -2629.5606   -23346.885   -25224.366    1877.4805    1.1610133    30.985945    30.985945    30.985945    29750.497 
 5728000    303.26476   -2491.6101   -23397.834   -25302.508    1904.6746    1.1610133    30.985945    30.985945    30.985945    29750.497 
 5729000    304.06091   -3112.7448    -23298.78   -25208.455    1909.6749    1.1610133    30.985945    30.985945    30.985945    29750.497 
 5730000    283.28584    -3440.983   -23317.447   -25096.643    1779.1956    1.1610133    30.985945    30.985945    30.985945    29750.497 
 5731000    300.89574   -2590.7228   -23327.491   -25217.286    1889.7958    1.1610133    30.985945    30.985945    30.985945    29750.497 
 5732000    299.87535    -3472.272   -23312.372    -25195.76    1883.3871    1.1610133    30.985945    30.985945    30.985945    29750.497 
 5733000    303.95786    -2551.354   -23194.905   -25103.932    1909.0277    1.1610133    30.985945    30.985945    30.985945    29750.497 
 5734000     295.7669   -1366.7855   -23319.737   -25177.321    1857.5838    1.1610133    30.985945    30.985945    30.985945    29750.497 
 5735000    299.37313   -2437.7673    -23226.31   -25106.543     1880.233    1.1610133    30.985945    30.985945    30.985945    29750.497 
 5736000    308.72523   -1808.9283   -23188.049   -25127.018    1938.9694    1.1610133    30.985945    30.985945    30.985945    29750.497 
 5737000    292.40066   -1594.7481   -23225.594   -25062.036    1836.4419    1.1610133    30.985945    30.985945    30.985945    29750.497 
 5738000     301.9671   -2556.5681    -23202.01   -25098.534    1896.5245    1.1610133    30.985945    30.985945    30.985945    29750.497 
 5739000    299.49633   -1935.9768   -23269.217   -25150.223    1881.0067    1.1610133    30.985945    30.985945    30.985945    29750.497 
 5740000    299.76875   -2269.1298   -23197.722    -25080.44    1882.7177    1.1610133    30.985945    30.985945    30.985945    29750.497 
 5741000    302.11748   -2389.4867   -23264.642   -25162.111     1897.469    1.1610133    30.985945    30.985945    30.985945    29750.497 
 5742000    300.10865   -3010.3553   -23299.759   -25184.611    1884.8524    1.1610133    30.985945    30.985945    30.985945    29750.497 
 5743000    296.35137   -1835.9238   -23311.972   -25173.227    1861.2546    1.1610133    30.985945    30.985945    30.985945    29750.497 
 5744000    294.65098    -1378.806   -23395.373   -25245.948    1850.5751    1.1610133    30.985945    30.985945    30.985945    29750.497 
 5745000    305.80168    -2491.655   -23214.553   -25135.161    1920.6078    1.1610133    30.985945    30.985945    30.985945    29750.497 
 5746000    284.77705   -2508.7578   -23398.272   -25186.834    1788.5613    1.1610133    30.985945    30.985945    30.985945    29750.497 
 5747000    295.80308   -1953.9392   -23242.017   -25099.828     1857.811    1.1610133    30.985945    30.985945    30.985945    29750.497 
 5748000    290.07741   -2610.4111   -23272.025   -25093.876    1821.8506    1.1610133    30.985945    30.985945    30.985945    29750.497 
 5749000    301.25852   -2137.6458   -23273.309   -25165.383    1892.0743    1.1610133    30.985945    30.985945    30.985945    29750.497 
 5750000    299.49531    -2694.697   -23250.005   -25131.005    1881.0003    1.1610133    30.985945    30.985945    30.985945    29750.497 
 5751000    294.79846   -2694.1986   -23291.147   -25142.648    1851.5014    1.1610133    30.985945    30.985945    30.985945    29750.497 
 5752000    298.20064   -1958.5024   -23271.477   -25144.346     1872.869    1.1610133    30.985945    30.985945    30.985945    29750.497 
 5753000    299.97215    -2713.262   -23331.078   -25215.073    1883.9951    1.1610133    30.985945    30.985945    30.985945    29750.497 
 5754000    302.14692   -2254.5947   -23232.318   -25129.972    1897.6539    1.1610133    30.985945    30.985945    30.985945    29750.497 
 5755000    300.43792   -2555.8264    -23306.28     -25193.2    1886.9204    1.1610133    30.985945    30.985945    30.985945    29750.497 
 5756000    296.68036   -2201.7961    -23311.06   -25174.381    1863.3208    1.1610133    30.985945    30.985945    30.985945    29750.497 
 5757000     296.2935    -3062.563   -23365.027   -25225.919    1860.8911    1.1610133    30.985945    30.985945    30.985945    29750.497 
 5758000    294.31118    -2721.759   -23245.182   -25093.623     1848.441    1.1610133    30.985945    30.985945    30.985945    29750.497 
 5759000    293.33239   -1332.3615   -23365.574   -25207.867    1842.2937    1.1610133    30.985945    30.985945    30.985945    29750.497 
 5760000    297.57417   -2085.4046   -23291.779   -25160.713    1868.9345    1.1610133    30.985945    30.985945    30.985945    29750.497 
 5761000    290.73418   -3058.0123   -23345.491   -25171.466    1825.9755    1.1610133    30.985945    30.985945    30.985945    29750.497 
 5762000    287.73669    -1971.993   -23412.373   -25219.523    1807.1495    1.1610133    30.985945    30.985945    30.985945    29750.497 
 5763000    299.16956   -2537.1043   -23291.593   -25170.547    1878.9544    1.1610133    30.985945    30.985945    30.985945    29750.497 
 5764000    296.27925   -1905.9014   -23267.782   -25128.584    1860.8016    1.1610133    30.985945    30.985945    30.985945    29750.497 
 5765000    290.66546   -2918.7116    -23354.16   -25179.704    1825.5438    1.1610133    30.985945    30.985945    30.985945    29750.497 
 5766000     291.2903   -1700.7933   -23386.505   -25215.973    1829.4682    1.1610133    30.985945    30.985945    30.985945    29750.497 
 5767000    301.46208   -2693.8217   -23357.965   -25251.318    1893.3527    1.1610133    30.985945    30.985945    30.985945    29750.497 
 5768000    311.37982   -2448.5874   -23137.025   -25092.667    1955.6418    1.1610133    30.985945    30.985945    30.985945    29750.497 
 5769000    304.18692   -2528.0966   -23229.006   -25139.473    1910.4662    1.1610133    30.985945    30.985945    30.985945    29750.497 
 5770000    302.16335   -2094.7623   -23257.203    -25154.96    1897.7571    1.1610133    30.985945    30.985945    30.985945    29750.497 
 5771000    302.77611   -3378.1845   -23228.133   -25129.739    1901.6056    1.1610133    30.985945    30.985945    30.985945    29750.497 
 5772000    294.61546   -2841.8464   -23309.566   -25159.918    1850.3521    1.1610133    30.985945    30.985945    30.985945    29750.497 
 5773000    308.61484   -2339.3104   -23198.129   -25136.405    1938.2761    1.1610133    30.985945    30.985945    30.985945    29750.497 
 5774000    297.08716   -1981.7267   -23303.134   -25169.009    1865.8757    1.1610133    30.985945    30.985945    30.985945    29750.497 
 5775000    303.67616   -3149.8491   -23327.938   -25235.196    1907.2584    1.1610133    30.985945    30.985945    30.985945    29750.497 
 5776000    301.20767   -3637.5775   -23358.883   -25250.638    1891.7549    1.1610133    30.985945    30.985945    30.985945    29750.497 
 5777000    302.06515   -3114.8756   -23348.382   -25245.522    1897.1403    1.1610133    30.985945    30.985945    30.985945    29750.497 
 5778000    301.14504   -3077.5132   -23247.531   -25138.892    1891.3615    1.1610133    30.985945    30.985945    30.985945    29750.497 
 5779000    301.52487   -2967.2241   -23253.224   -25146.971    1893.7471    1.1610133    30.985945    30.985945    30.985945    29750.497 
 5780000     307.6001    -2186.796   -23207.164   -25139.067     1931.903    1.1610133    30.985945    30.985945    30.985945    29750.497 
 5781000    306.12574   -2963.7882   -23301.802   -25224.445    1922.6432    1.1610133    30.985945    30.985945    30.985945    29750.497 
 5782000    291.47296   -2483.9606   -23351.092   -25181.708    1830.6154    1.1610133    30.985945    30.985945    30.985945    29750.497 
 5783000    299.90866   -2029.8524   -23244.752   -25128.348    1883.5964    1.1610133    30.985945    30.985945    30.985945    29750.497 
 5784000    297.43148   -2931.5127   -23426.608   -25294.647    1868.0383    1.1610133    30.985945    30.985945    30.985945    29750.497 
 5785000    302.49326   -2406.0352   -23363.391    -25263.22    1899.8291    1.1610133    30.985945    30.985945    30.985945    29750.497 
 5786000     292.6172   -2688.5683   -23306.495   -25144.297    1837.8018    1.1610133    30.985945    30.985945    30.985945    29750.497 
 5787000    304.99035   -1908.9114   -23282.884   -25198.397    1915.5122    1.1610133    30.985945    30.985945    30.985945    29750.497 
 5788000    301.79173   -2169.7662   -23257.019   -25152.442    1895.4231    1.1610133    30.985945    30.985945    30.985945    29750.497 
 5789000    298.22268   -2801.0315   -23276.713   -25149.721    1873.0075    1.1610133    30.985945    30.985945    30.985945    29750.497 
 5790000    305.13901   -1700.1923   -23292.442   -25208.887    1916.4459    1.1610133    30.985945    30.985945    30.985945    29750.497 
 5791000    296.07959   -2031.8957   -23350.939   -25210.487    1859.5476    1.1610133    30.985945    30.985945    30.985945    29750.497 
 5792000    293.64153   -2379.7381   -23301.003   -25145.239    1844.2352    1.1610133    30.985945    30.985945    30.985945    29750.497 
 5793000    292.79575   -3213.9662   -23396.083   -25235.006    1838.9232    1.1610133    30.985945    30.985945    30.985945    29750.497 
 5794000    299.83332   -2475.1176    -23237.88   -25121.004    1883.1232    1.1610133    30.985945    30.985945    30.985945    29750.497 
 5795000    304.17313   -2400.2938   -23209.465   -25119.844    1910.3796    1.1610133    30.985945    30.985945    30.985945    29750.497 
 5796000    295.20442    -2064.638   -23354.795   -25208.847    1854.0511    1.1610133    30.985945    30.985945    30.985945    29750.497 
 5797000    290.42983    -2318.161   -23341.354   -25165.418    1824.0639    1.1610133    30.985945    30.985945    30.985945    29750.497 
 5798000    304.08162   -2076.6597   -23312.299   -25222.104    1909.8049    1.1610133    30.985945    30.985945    30.985945    29750.497 
 5799000    297.35564   -2620.4727   -23398.065   -25265.627     1867.562    1.1610133    30.985945    30.985945    30.985945    29750.497 
 5800000    289.39643   -2761.3179   -23372.905   -25190.478    1817.5736    1.1610133    30.985945    30.985945    30.985945    29750.497 
 5801000     288.5198   -2368.3992   -23379.048   -25191.116    1812.0679    1.1610133    30.985945    30.985945    30.985945    29750.497 
 5802000    306.96926   -2811.0834   -23246.561   -25174.502    1927.9409    1.1610133    30.985945    30.985945    30.985945    29750.497 
 5803000    296.33329   -2659.5463   -23318.233   -25179.374     1861.141    1.1610133    30.985945    30.985945    30.985945    29750.497 
 5804000    297.13231   -2852.0742   -23317.439   -25183.598    1866.1593    1.1610133    30.985945    30.985945    30.985945    29750.497 
 5805000    300.62061   -2461.7914   -23287.479   -25175.547    1888.0678    1.1610133    30.985945    30.985945    30.985945    29750.497 
 5806000    299.09769   -3018.7176   -23246.791   -25125.294     1878.503    1.1610133    30.985945    30.985945    30.985945    29750.497 
 5807000    298.38223   -2303.0687   -23170.706   -25044.716    1874.0095    1.1610133    30.985945    30.985945    30.985945    29750.497 
 5808000     301.1724   -2830.9711   -23299.764   -25191.298    1891.5334    1.1610133    30.985945    30.985945    30.985945    29750.497 
 5809000    304.15768   -2453.0662   -23261.017     -25171.3    1910.2826    1.1610133    30.985945    30.985945    30.985945    29750.497 
 5810000    299.37102   -3096.2483   -23224.708   -25104.928    1880.2197    1.1610133    30.985945    30.985945    30.985945    29750.497 
 5811000    299.75146   -2502.4012   -23233.574   -25116.183     1882.609    1.1610133    30.985945    30.985945    30.985945    29750.497 
 5812000    290.91082   -2101.9334    -23202.07   -25029.154    1827.0849    1.1610133    30.985945    30.985945    30.985945    29750.497 
 5813000    301.29511   -2975.9484   -23257.671   -25149.975     1892.304    1.1610133    30.985945    30.985945    30.985945    29750.497 
 5814000    293.29096   -2066.5115    -23304.89   -25146.923    1842.0335    1.1610133    30.985945    30.985945    30.985945    29750.497 
 5815000    298.25618   -2489.5838   -23338.143   -25211.361    1873.2179    1.1610133    30.985945    30.985945    30.985945    29750.497 
 5816000    290.10134   -2518.6371   -23380.109    -25202.11    1822.0009    1.1610133    30.985945    30.985945    30.985945    29750.497 
 5817000    302.17492   -1583.3566   -23166.823   -25064.653    1897.8298    1.1610133    30.985945    30.985945    30.985945    29750.497 
 5818000    303.28864   -2837.7821   -23242.574   -25147.399    1904.8245    1.1610133    30.985945    30.985945    30.985945    29750.497 
 5819000    292.84542    -2850.237   -23346.897   -25186.132    1839.2352    1.1610133    30.985945    30.985945    30.985945    29750.497 
 5820000    306.30328    -2290.854   -23186.299   -25110.057    1923.7582    1.1610133    30.985945    30.985945    30.985945    29750.497 
 5821000    295.06456   -1608.8222   -23324.765   -25177.937    1853.1727    1.1610133    30.985945    30.985945    30.985945    29750.497 
 5822000    295.50662    -2396.133   -23200.208   -25056.157    1855.9491    1.1610133    30.985945    30.985945    30.985945    29750.497 
 5823000    287.99731   -2663.0644   -23326.791   -25135.578    1808.7863    1.1610133    30.985945    30.985945    30.985945    29750.497 
 5824000    305.56154   -2462.3183   -23203.658   -25122.758    1919.0997    1.1610133    30.985945    30.985945    30.985945    29750.497 
 5825000    303.90654    -2121.079   -23255.105    -25163.81    1908.7053    1.1610133    30.985945    30.985945    30.985945    29750.497 
 5826000    302.28365   -1252.7131   -23288.466   -25186.978    1898.5126    1.1610133    30.985945    30.985945    30.985945    29750.497 
 5827000     304.7139   -2181.7579   -23173.032   -25086.808     1913.776    1.1610133    30.985945    30.985945    30.985945    29750.497 
 5828000    296.81213   -1960.7275   -23309.094   -25173.242    1864.1484    1.1610133    30.985945    30.985945    30.985945    29750.497 
 5829000    298.08608   -2337.0984   -23179.605   -25051.754    1872.1496    1.1610133    30.985945    30.985945    30.985945    29750.497 
 5830000    302.61341   -2681.6763   -23204.435   -25105.018    1900.5837    1.1610133    30.985945    30.985945    30.985945    29750.497 
 5831000    301.65892   -2204.7921   -23334.149   -25228.738     1894.589    1.1610133    30.985945    30.985945    30.985945    29750.497 
 5832000    297.53998   -1621.3724   -23205.479   -25074.199    1868.7197    1.1610133    30.985945    30.985945    30.985945    29750.497 
 5833000    291.66198   -1566.5684   -23293.574   -25125.376    1831.8026    1.1610133    30.985945    30.985945    30.985945    29750.497 
 5834000    296.23052   -1843.7742   -23192.355   -25052.851    1860.4956    1.1610133    30.985945    30.985945    30.985945    29750.497 
 5835000    306.14368   -1744.4798   -23188.928   -25111.684    1922.7558    1.1610133    30.985945    30.985945    30.985945    29750.497 
 5836000    295.46934   -1691.9293   -23340.061   -25195.776    1855.7149    1.1610133    30.985945    30.985945    30.985945    29750.497 
 5837000    290.76447   -2242.4634   -23319.645    -25145.81    1826.1657    1.1610133    30.985945    30.985945    30.985945    29750.497 
 5838000      296.269   -3227.5076   -23255.162   -25115.899    1860.7373    1.1610133    30.985945    30.985945    30.985945    29750.497 
 5839000    298.83068   -3192.9135   -23210.054    -25086.88     1876.826    1.1610133    30.985945    30.985945    30.985945    29750.497 
 5840000    290.69322   -2336.8829   -23419.232   -25244.951    1825.7182    1.1610133    30.985945    30.985945    30.985945    29750.497 
 5841000    300.11568   -3316.3146   -23363.096   -25247.992    1884.8966    1.1610133    30.985945    30.985945    30.985945    29750.497 
 5842000    297.27439    -2682.556   -23368.226   -25235.278    1867.0517    1.1610133    30.985945    30.985945    30.985945    29750.497 
 5843000    303.37797   -2361.4447   -23286.261   -25191.647    1905.3856    1.1610133    30.985945    30.985945    30.985945    29750.497 
 5844000     302.4807   -2852.2418    -23280.94    -25180.69    1899.7502    1.1610133    30.985945    30.985945    30.985945    29750.497 
 5845000    301.30596   -1914.0235   -23306.006   -25198.378    1892.3722    1.1610133    30.985945    30.985945    30.985945    29750.497 
 5846000     295.9457   -2397.7296   -23325.099   -25183.806    1858.7067    1.1610133    30.985945    30.985945    30.985945    29750.497 
 5847000    300.96059   -1367.4006   -23264.071   -25154.274    1890.2031    1.1610133    30.985945    30.985945    30.985945    29750.497 
 5848000    296.04094     -2712.61   -23467.292   -25326.597    1859.3049    1.1610133    30.985945    30.985945    30.985945    29750.497 
 5849000    292.67002   -2014.8381   -23277.658   -25115.792    1838.1336    1.1610133    30.985945    30.985945    30.985945    29750.497 
 5850000    301.48059    -2925.051   -23262.446   -25155.915     1893.469    1.1610133    30.985945    30.985945    30.985945    29750.497 
 5851000    289.10396   -2578.4413   -23255.561   -25071.298    1815.7367    1.1610133    30.985945    30.985945    30.985945    29750.497 
 5852000     301.2755   -2222.8014   -23313.983   -25206.164    1892.1809    1.1610133    30.985945    30.985945    30.985945    29750.497 
 5853000    309.40473   -1981.9846   -23227.517   -25170.754    1943.2371    1.1610133    30.985945    30.985945    30.985945    29750.497 
 5854000    298.81541   -2204.3653   -23237.044   -25113.774    1876.7302    1.1610133    30.985945    30.985945    30.985945    29750.497 
 5855000     303.5375   -3172.1754   -23318.597   -25224.985    1906.3875    1.1610133    30.985945    30.985945    30.985945    29750.497 
 5856000    302.49438   -2136.3035   -23151.635   -25051.471    1899.8361    1.1610133    30.985945    30.985945    30.985945    29750.497 
 5857000    284.43797   -3075.5951   -23361.257   -25147.689    1786.4317    1.1610133    30.985945    30.985945    30.985945    29750.497 
 5858000    301.07659   -2119.7047   -23338.846   -25229.778    1890.9316    1.1610133    30.985945    30.985945    30.985945    29750.497 
 5859000    299.20525   -2597.8737   -23259.527   -25138.705    1879.1786    1.1610133    30.985945    30.985945    30.985945    29750.497 
 5860000    290.04776   -2678.3275   -23386.769   -25208.433    1821.6643    1.1610133    30.985945    30.985945    30.985945    29750.497 
 5861000    313.96621   -3757.2203   -23272.238   -25244.123    1971.8858    1.1610133    30.985945    30.985945    30.985945    29750.497 
 5862000    313.09249   -2731.2052   -23266.714   -25233.112    1966.3983    1.1610133    30.985945    30.985945    30.985945    29750.497 
 5863000    302.33225   -2240.9705   -23277.792    -25176.61    1898.8179    1.1610133    30.985945    30.985945    30.985945    29750.497 
 5864000    301.44402   -2188.1776   -23255.683   -25148.922    1893.2393    1.1610133    30.985945    30.985945    30.985945    29750.497 
 5865000    288.77539   -2362.8693   -23354.682   -25168.355    1813.6731    1.1610133    30.985945    30.985945    30.985945    29750.497 
 5866000    301.52206   -2935.9063   -23147.919   -25041.649    1893.7294    1.1610133    30.985945    30.985945    30.985945    29750.497 
 5867000    296.54948   -1911.2494   -23275.724   -25138.222    1862.4988    1.1610133    30.985945    30.985945    30.985945    29750.497 
 5868000    296.12771   -2592.5754   -23244.837   -25104.687    1859.8498    1.1610133    30.985945    30.985945    30.985945    29750.497 
 5869000    299.57768   -1830.5202   -23148.049   -25029.566    1881.5176    1.1610133    30.985945    30.985945    30.985945    29750.497 
 5870000    306.71557    -3233.372    -23154.68   -25081.027    1926.3476    1.1610133    30.985945    30.985945    30.985945    29750.497 
 5871000    299.55112   -3549.5253   -23230.206   -25111.557    1881.3508    1.1610133    30.985945    30.985945    30.985945    29750.497 
 5872000    300.08895   -2394.1843   -23181.199   -25065.928    1884.7287    1.1610133    30.985945    30.985945    30.985945    29750.497 
 5873000    294.73224    -2141.745   -23304.158   -25155.243    1851.0855    1.1610133    30.985945    30.985945    30.985945    29750.497 
 5874000    298.28114    -1771.724   -23226.535    -25099.91    1873.3746    1.1610133    30.985945    30.985945    30.985945    29750.497 
 5875000    298.02972   -1610.1104   -23289.243   -25161.038    1871.7956    1.1610133    30.985945    30.985945    30.985945    29750.497 
 5876000    297.21709   -2085.0724   -23265.417   -25132.108    1866.6918    1.1610133    30.985945    30.985945    30.985945    29750.497 
 5877000    310.78086   -2227.5219    -23199.56    -25151.44    1951.8799    1.1610133    30.985945    30.985945    30.985945    29750.497 
 5878000    297.91492   -2847.1554   -23164.433   -25035.508    1871.0745    1.1610133    30.985945    30.985945    30.985945    29750.497 
 5879000    305.05631   -3375.6461   -23226.242   -25142.169    1915.9265    1.1610133    30.985945    30.985945    30.985945    29750.497 
 5880000    296.92462   -2349.0688   -23241.445     -25106.3    1864.8549    1.1610133    30.985945    30.985945    30.985945    29750.497 
 5881000    301.85666   -1812.0506   -23238.272   -25134.103    1895.8309    1.1610133    30.985945    30.985945    30.985945    29750.497 
 5882000    292.70519   -1728.9692    -23304.05   -25142.404    1838.3545    1.1610133    30.985945    30.985945    30.985945    29750.497 
 5883000    299.49429    -3430.756   -23289.147   -25170.141    1880.9939    1.1610133    30.985945    30.985945    30.985945    29750.497 
 5884000     297.1414   -2683.1816   -23358.454   -25224.671    1866.2164    1.1610133    30.985945    30.985945    30.985945    29750.497 
 5885000    301.26991   -2445.2287   -23247.733   -25139.878    1892.1458    1.1610133    30.985945    30.985945    30.985945    29750.497 
 5886000    296.89487   -1487.3042    -23372.38   -25237.048    1864.6681    1.1610133    30.985945    30.985945    30.985945    29750.497 
 5887000    294.53599   -3390.1877   -23340.042   -25189.895     1849.853    1.1610133    30.985945    30.985945    30.985945    29750.497 
 5888000    294.86244   -2196.9316   -23382.589   -25234.493    1851.9032    1.1610133    30.985945    30.985945    30.985945    29750.497 
 5889000    300.36823   -2401.5153   -23233.827    -25120.31    1886.4827    1.1610133    30.985945    30.985945    30.985945    29750.497 
 5890000      295.696   -2360.4341   -23409.129   -25266.268    1857.1384    1.1610133    30.985945    30.985945    30.985945    29750.497 
 5891000    305.79504   -2324.5139   -23322.637   -25243.203    1920.5661    1.1610133    30.985945    30.985945    30.985945    29750.497 
 5892000    302.39249   -2359.0484     -23346.5   -25245.696    1899.1962    1.1610133    30.985945    30.985945    30.985945    29750.497 
 5893000    299.15075   -3175.8189   -23352.642   -25231.479    1878.8363    1.1610133    30.985945    30.985945    30.985945    29750.497 
 5894000    300.96559   -2617.3658   -23326.899   -25217.133    1890.2345    1.1610133    30.985945    30.985945    30.985945    29750.497 
 5895000    295.00781   -2609.0328   -23289.224    -25142.04    1852.8163    1.1610133    30.985945    30.985945    30.985945    29750.497 
 5896000    301.66636   -2915.9394   -23323.283   -25217.919    1894.6357    1.1610133    30.985945    30.985945    30.985945    29750.497 
 5897000    306.28909   -2367.3893   -23251.362   -25175.031    1923.6691    1.1610133    30.985945    30.985945    30.985945    29750.497 
 5898000    300.08572    -2375.811   -23254.946   -25139.654    1884.7084    1.1610133    30.985945    30.985945    30.985945    29750.497 
 5899000    301.28447   -2296.2267   -23249.197   -25141.435    1892.2373    1.1610133    30.985945    30.985945    30.985945    29750.497 
 5900000    309.32037   -2764.1816   -23205.661   -25148.368    1942.7073    1.1610133    30.985945    30.985945    30.985945    29750.497 
 5901000    296.07095   -1541.3481   -23238.871   -25098.365    1859.4934    1.1610133    30.985945    30.985945    30.985945    29750.497 
 5902000    287.73015   -3246.3612   -23309.414   -25116.523    1807.1084    1.1610133    30.985945    30.985945    30.985945    29750.497 
 5903000    304.23041   -1886.0361   -23190.866   -25101.605    1910.7394    1.1610133    30.985945    30.985945    30.985945    29750.497 
 5904000    298.46224   -2108.4482   -23345.396   -25219.908    1874.5121    1.1610133    30.985945    30.985945    30.985945    29750.497 
 5905000    304.92119   -3141.9818   -23175.448   -25090.526    1915.0779    1.1610133    30.985945    30.985945    30.985945    29750.497 
 5906000    299.14862   -2750.6394   -23331.077     -25209.9    1878.8229    1.1610133    30.985945    30.985945    30.985945    29750.497 
 5907000    303.61675    -2629.866   -23215.368   -25122.254    1906.8853    1.1610133    30.985945    30.985945    30.985945    29750.497 
 5908000     301.5928   -2320.1122   -23275.459   -25169.633    1894.1737    1.1610133    30.985945    30.985945    30.985945    29750.497 
 5909000    293.95372   -2750.6143   -23359.838   -25206.034     1846.196    1.1610133    30.985945    30.985945    30.985945    29750.497 
 5910000    304.65877   -2953.1702   -23242.161   -25155.591    1913.4297    1.1610133    30.985945    30.985945    30.985945    29750.497 
 5911000    293.43255   -3076.3589    -23307.01   -25149.933    1842.9227    1.1610133    30.985945    30.985945    30.985945    29750.497 
 5912000    294.31833   -3279.7086   -23358.065   -25206.551     1848.486    1.1610133    30.985945    30.985945    30.985945    29750.497 
 5913000    303.42214   -3171.8449   -23324.059   -25229.722     1905.663    1.1610133    30.985945    30.985945    30.985945    29750.497 
 5914000    307.25711   -2446.4234   -23277.018   -25206.767    1929.7488    1.1610133    30.985945    30.985945    30.985945    29750.497 
 5915000    299.29176   -3252.6768   -23354.966   -25234.688    1879.7219    1.1610133    30.985945    30.985945    30.985945    29750.497 
 5916000      297.461   -3366.0871   -23372.274   -25240.497    1868.2237    1.1610133    30.985945    30.985945    30.985945    29750.497 
 5917000     300.7578   -2086.1894   -23222.864   -25111.793    1888.9294    1.1610133    30.985945    30.985945    30.985945    29750.497 
 5918000    306.04956   -1182.1938   -23276.597   -25198.761    1922.1647    1.1610133    30.985945    30.985945    30.985945    29750.497 
 5919000     297.8049   -2873.0291   -23333.798   -25204.182    1870.3835    1.1610133    30.985945    30.985945    30.985945    29750.497 
 5920000    302.68053   -2504.3758    -23300.73   -25201.735    1901.0053    1.1610133    30.985945    30.985945    30.985945    29750.497 
 5921000    294.49528   -2180.8758   -23316.544   -25166.141    1849.5973    1.1610133    30.985945    30.985945    30.985945    29750.497 
 5922000    306.01774   -2039.1559   -23311.991   -25233.956    1921.9648    1.1610133    30.985945    30.985945    30.985945    29750.497 
 5923000    297.47077   -3181.3664   -23262.769   -25131.054     1868.285    1.1610133    30.985945    30.985945    30.985945    29750.497 
 5924000    297.86753   -2049.3727   -23232.304   -25103.081    1870.7769    1.1610133    30.985945    30.985945    30.985945    29750.497 
 5925000    293.08297   -2753.3181   -23256.465   -25097.192    1840.7272    1.1610133    30.985945    30.985945    30.985945    29750.497 
 5926000    302.25054   -2836.2629    -23279.24   -25177.545    1898.3047    1.1610133    30.985945    30.985945    30.985945    29750.497 
 5927000    303.75077   -2849.8848   -23295.775   -25203.502     1907.727    1.1610133    30.985945    30.985945    30.985945    29750.497 
 5928000    294.97696   -3060.6576   -23353.591   -25206.214    1852.6225    1.1610133    30.985945    30.985945    30.985945    29750.497 
 5929000    304.90783   -2438.0634    -23242.67   -25157.664     1914.994    1.1610133    30.985945    30.985945    30.985945    29750.497 
 5930000    298.01677   -2478.8736   -23284.688   -25156.402    1871.7142    1.1610133    30.985945    30.985945    30.985945    29750.497 
 5931000    304.68831   -2595.1952   -23236.842   -25150.457    1913.6153    1.1610133    30.985945    30.985945    30.985945    29750.497 
 5932000    295.83902    -2743.141   -23240.981   -25099.017    1858.0367    1.1610133    30.985945    30.985945    30.985945    29750.497 
 5933000    296.54314   -2733.6454   -23299.438   -25161.897     1862.459    1.1610133    30.985945    30.985945    30.985945    29750.497 
 5934000    297.86025   -2242.0452   -23302.187   -25172.918    1870.7312    1.1610133    30.985945    30.985945    30.985945    29750.497 
 5935000    299.52622   -2417.1094   -23242.098   -25123.293    1881.1944    1.1610133    30.985945    30.985945    30.985945    29750.497 
 5936000    301.10004   -1459.1607   -23293.205   -25184.284    1891.0789    1.1610133    30.985945    30.985945    30.985945    29750.497 
 5937000    303.72517   -2604.3092   -23265.682   -25173.248    1907.5662    1.1610133    30.985945    30.985945    30.985945    29750.497 
 5938000     293.9828   -2386.3168   -23363.108   -25209.487    1846.3786    1.1610133    30.985945    30.985945    30.985945    29750.497 
 5939000     295.5961   -2464.9131   -23453.753   -25310.264     1856.511    1.1610133    30.985945    30.985945    30.985945    29750.497 
 5940000    308.54359     -3187.11   -23200.373   -25138.202    1937.8286    1.1610133    30.985945    30.985945    30.985945    29750.497 
 5941000    297.86541   -951.53428   -23295.257   -25166.021    1870.7636    1.1610133    30.985945    30.985945    30.985945    29750.497 
 5942000    304.08286   -2908.3127   -23211.955   -25121.768    1909.8127    1.1610133    30.985945    30.985945    30.985945    29750.497 
 5943000    297.49916   -2443.8622   -23264.185   -25132.648    1868.4633    1.1610133    30.985945    30.985945    30.985945    29750.497 
 5944000    298.15567   -2894.2777   -23328.862   -25201.448    1872.5866    1.1610133    30.985945    30.985945    30.985945    29750.497 
 5945000     308.4356   -2105.1207    -23295.64   -25232.791    1937.1504    1.1610133    30.985945    30.985945    30.985945    29750.497 
 5946000    288.08505   -2571.4097    -23412.32   -25221.658    1809.3374    1.1610133    30.985945    30.985945    30.985945    29750.497 
 5947000    302.71243   -1990.7617   -23242.546   -25143.751    1901.2056    1.1610133    30.985945    30.985945    30.985945    29750.497 
 5948000    289.06831    -2644.341   -23351.797   -25167.309    1815.5128    1.1610133    30.985945    30.985945    30.985945    29750.497 
 5949000    299.97618   -2342.4061   -23215.762   -25099.782    1884.0204    1.1610133    30.985945    30.985945    30.985945    29750.497 
 5950000    290.19625   -3117.6528    -23406.92   -25229.517    1822.5969    1.1610133    30.985945    30.985945    30.985945    29750.497 
 5951000     295.7214   -1932.6958   -23304.596   -25161.894     1857.298    1.1610133    30.985945    30.985945    30.985945    29750.497 
 5952000    296.82764   -2568.6334     -23202.3   -25066.546    1864.2458    1.1610133    30.985945    30.985945    30.985945    29750.497 
 5953000    297.64726   -2738.1161   -23231.755   -25101.148    1869.3935    1.1610133    30.985945    30.985945    30.985945    29750.497 
 5954000    295.60084   -2174.6854   -23310.614   -25167.155    1856.5408    1.1610133    30.985945    30.985945    30.985945    29750.497 
 5955000    297.07059   -2537.1832   -23155.662   -25021.433    1865.7717    1.1610133    30.985945    30.985945    30.985945    29750.497 
 5956000    310.28042   -3371.4595   -23210.384   -25159.121    1948.7369    1.1610133    30.985945    30.985945    30.985945    29750.497 
 5957000    305.79048   -2603.2292   -23200.034   -25120.571    1920.5375    1.1610133    30.985945    30.985945    30.985945    29750.497 
 5958000    301.97517    -2243.329   -23231.382   -25127.957    1896.5752    1.1610133    30.985945    30.985945    30.985945    29750.497 
 5959000    294.46349   -3011.9367   -23263.141   -25112.539    1849.3976    1.1610133    30.985945    30.985945    30.985945    29750.497 
 5960000     303.5593   -2670.5313   -23206.703   -25113.227    1906.5245    1.1610133    30.985945    30.985945    30.985945    29750.497 
 5961000    297.21952   -2811.6279   -23258.414   -25125.121     1866.707    1.1610133    30.985945    30.985945    30.985945    29750.497 
 5962000    293.98999   -2446.6995   -23234.524   -25080.948    1846.4238    1.1610133    30.985945    30.985945    30.985945    29750.497 
 5963000     293.0551   -1810.2074   -23251.005   -25091.557    1840.5521    1.1610133    30.985945    30.985945    30.985945    29750.497 
 5964000    297.37879   -3109.3748   -23253.239   -25120.947    1867.7073    1.1610133    30.985945    30.985945    30.985945    29750.497 
 5965000    295.88175   -2089.4328   -23230.273   -25088.578    1858.3051    1.1610133    30.985945    30.985945    30.985945    29750.497 
 5966000    290.48771   -2801.9899   -23272.878   -25097.305    1824.4274    1.1610133    30.985945    30.985945    30.985945    29750.497 
 5967000    296.15153   -2588.0089    -23238.64   -25098.639    1859.9995    1.1610133    30.985945    30.985945    30.985945    29750.497 
 5968000    297.65146   -2003.4456   -23228.754   -25098.174    1869.4199    1.1610133    30.985945    30.985945    30.985945    29750.497 
 5969000      293.353   -2495.3199   -23280.065   -25122.488    1842.4231    1.1610133    30.985945    30.985945    30.985945    29750.497 
 5970000    287.72192   -3086.9903   -23402.377   -25209.434    1807.0567    1.1610133    30.985945    30.985945    30.985945    29750.497 
 5971000    302.84027   -2780.2632   -23283.023   -25185.032    1902.0086    1.1610133    30.985945    30.985945    30.985945    29750.497 
 5972000     296.0725   -3439.1588   -23278.798   -25138.301    1859.5031    1.1610133    30.985945    30.985945    30.985945    29750.497 
 5973000     292.2546   -2923.5786   -23375.791   -25211.316    1835.5246    1.1610133    30.985945    30.985945    30.985945    29750.497 
 5974000    297.69293   -2437.8042   -23245.665   -25115.345    1869.6803    1.1610133    30.985945    30.985945    30.985945    29750.497 
 5975000    294.28807   -2879.6717    -23244.17   -25092.466    1848.2959    1.1610133    30.985945    30.985945    30.985945    29750.497 
 5976000    296.07771   -2348.5584   -23347.233   -25206.769    1859.5359    1.1610133    30.985945    30.985945    30.985945    29750.497 
 5977000    303.96905   -2736.4297   -23202.871   -25111.969    1909.0979    1.1610133    30.985945    30.985945    30.985945    29750.497 
 5978000    297.61578   -2244.0784   -23234.925   -25104.121    1869.1958    1.1610133    30.985945    30.985945    30.985945    29750.497 
 5979000    293.09415   -2429.0602   -23314.676   -25155.473    1840.7974    1.1610133    30.985945    30.985945    30.985945    29750.497 
 5980000    294.73797   -2822.0152   -23323.378   -25174.499    1851.1215    1.1610133    30.985945    30.985945    30.985945    29750.497 
 5981000    300.05494   -3302.1418   -23366.817   -25251.332    1884.5151    1.1610133    30.985945    30.985945    30.985945    29750.497 
 5982000     296.5099   -2079.7693   -23384.972   -25247.222    1862.2502    1.1610133    30.985945    30.985945    30.985945    29750.497 
 5983000    288.84113   -2149.2214   -23392.836   -25206.922     1814.086    1.1610133    30.985945    30.985945    30.985945    29750.497 
 5984000    294.92243   -2751.1191   -23384.347   -25236.627      1852.28    1.1610133    30.985945    30.985945    30.985945    29750.497 
 5985000    297.94562   -1932.8483   -23254.796   -25126.063    1871.2674    1.1610133    30.985945    30.985945    30.985945    29750.497 
 5986000    299.05039   -2442.2359   -23325.923   -25204.129    1878.2059    1.1610133    30.985945    30.985945    30.985945    29750.497 
 5987000     294.3536   -2777.6586   -23258.423    -25107.13    1848.7074    1.1610133    30.985945    30.985945    30.985945    29750.497 
 5988000    291.57784   -2787.3877   -23363.691   -25194.965    1831.2741    1.1610133    30.985945    30.985945    30.985945    29750.497 
 5989000    294.90317   -3012.4885   -23370.779   -25222.938    1852.1591    1.1610133    30.985945    30.985945    30.985945    29750.497 
 5990000    296.05946   -2015.8482   -23247.794   -25107.215    1859.4212    1.1610133    30.985945    30.985945    30.985945    29750.497 
 5991000    287.17272   -2580.4835   -23292.269   -25095.877    1803.6074    1.1610133    30.985945    30.985945    30.985945    29750.497 
 5992000    303.32637   -2357.4146   -23220.316   -25125.378    1905.0615    1.1610133    30.985945    30.985945    30.985945    29750.497 
 5993000    300.65596   -2618.6376    -23288.88    -25177.17    1888.2898    1.1610133    30.985945    30.985945    30.985945    29750.497 
 5994000    298.14741   -1945.0063   -23331.961   -25204.496    1872.5347    1.1610133    30.985945    30.985945    30.985945    29750.497 
 5995000    301.80251   -2600.7286   -23356.695   -25252.186    1895.4908    1.1610133    30.985945    30.985945    30.985945    29750.497 
 5996000    301.39583   -3041.8453    -23339.39   -25232.327    1892.9366    1.1610133    30.985945    30.985945    30.985945    29750.497 
 5997000     297.0199    -2223.412   -23402.463   -25267.916    1865.4533    1.1610133    30.985945    30.985945    30.985945    29750.497 
 5998000    304.83006   -1932.6432    -23238.38   -25152.886    1914.5056    1.1610133    30.985945    30.985945    30.985945    29750.497 
 5999000    296.22415   -2762.8484   -23337.046   -25197.501    1860.4556    1.1610133    30.985945    30.985945    30.985945    29750.497 
 6000000    299.91816   -2724.6023   -23347.684    -25231.34     1883.656    1.1610133    30.985945    30.985945    30.985945    29750.497 
 6000588    303.21178   -2724.4066   -23275.862   -25180.204    1904.3419    1.1610133    30.985945    30.985945    30.985945    29750.497 
Loop time of 26224.5 on 16 procs for 6000000 steps with 3108 atoms

Performance: 19.768 ns/day, 1.214 hours/ns, 228.794 timesteps/s
1583.6% CPU use with 1 MPI tasks x 16 OpenMP threads

MPI task timing breakdown:
Section |  min time  |  avg time  |  max time  |%varavg| %total
---------------------------------------------------------------
Pair    | 8738       | 8738       | 8738       |   0.0 | 33.32
Bond    | 72.542     | 72.542     | 72.542     |   0.0 |  0.28
Kspace  | 12494      | 12494      | 12494      |   0.0 | 47.64
Neigh   | 863.86     | 863.86     | 863.86     |   0.0 |  3.29
Comm    | 1049.8     | 1049.8     | 1049.8     |   0.0 |  4.00
Output  | 55.405     | 55.405     | 55.405     |   0.0 |  0.21
Modify  | 2891.4     | 2891.4     | 2891.4     |   0.0 | 11.03
Other   |            | 59.35      |            |       |  0.23

Nlocal:        3108.00 ave        3108 max        3108 min
Histogram: 1 0 0 0 0 0 0 0 0 0
Nghost:        14298.0 ave       14298 max       14298 min
Histogram: 1 0 0 0 0 0 0 0 0 0
Neighs:    1.17450e+06 ave  1.1745e+06 max  1.1745e+06 min
Histogram: 1 0 0 0 0 0 0 0 0 0

Total # of neighbors = 1174500
Ave neighs/atom = 377.89575
Ave special neighs/atom = 2.0463320
Neighbor list builds = 269975
Dangerous builds = 0

write_data equil.data
System init for write_data ...
PPPM initialization ...
  using 12-bit tables for long-range coulomb (src/kspace.cpp:340)
  G vector (1/distance) = 0.27356808
  grid = 18 18 18
  stencil order = 5
  estimated absolute RMS force accuracy = 0.022456967
  estimated relative force accuracy = 6.762849e-05
  using double precision KISS FFT
  3d grid and FFT values/proc = 15625 5832
Last active /omp style is kspace_style pppm/omp

write_restart   equil.restart
System init for write_restart ...
PPPM initialization ...
  using 12-bit tables for long-range coulomb (src/kspace.cpp:340)
  G vector (1/distance) = 0.27356808
  grid = 18 18 18
  stencil order = 5
  estimated absolute RMS force accuracy = 0.022456967
  estimated relative force accuracy = 6.762849e-05
  using double precision KISS FFT
  3d grid and FFT values/proc = 15625 5832
Last active /omp style is kspace_style pppm/omp


Total wall time: 7:17:11
