19
Coordinates from ORCA-job input
  Ni  -4.37314127291102      1.66765121907759      1.25204830472959
  H   -6.25396510707173      0.11392443178512      2.33584885886512
  H   -5.67358273789775      3.96535068426426      1.61338551997610
  H   -1.80148581315963      1.81052038866473      1.07305352899981
  H   -3.52248839097254      2.76330689121281      3.55328478116032
  H   -3.62339785516932     -0.88958435722565      1.08481180237313
  H   -5.84725400980706      3.55656642547089      0.13473794828174
  O   -5.23439527769437      3.50126798136594      0.88440586789803
  H   -2.25534640526823      3.29159639276654      1.10814061946323
  O   -2.50805841104676      2.41173347876431      0.79029694330866
  H   -3.40390459284672     -0.40418099826721      2.53991880892197
  O   -3.39598261487962     -0.11083148241318      1.61564056832678
  H   -4.95868750163574      2.23723250069596      3.77654612286361
  O   -4.15182535346015      2.08660911062925      3.26035794096197
  H   -6.97723802401192      1.36847838720872      1.78885519658253
  O   -6.20378041031885      0.80025019831846      1.65296203371878
  H   -4.21218871347201      1.68869182785284     -1.40734831416416
  O   -4.59680057037149      1.12129617393847     -0.72221113975683
  H   -5.49066851440485      0.90323693819005     -1.02740329901048
