19
Coordinates from ORCA-job input E -1965.997052393759
  Ni     -4.373141      1.667651      1.252048
  H      -6.253965      0.113924      2.335849
  H      -5.673583      3.965351      1.613386
  H      -1.801486      1.810520      1.073054
  H      -3.522488      2.763307      3.553285
  H      -3.623398     -0.889584      1.084812
  H      -5.847254      3.556566      0.134738
  O      -5.234395      3.501268      0.884406
  H      -2.255346      3.291596      1.108141
  O      -2.508058      2.411733      0.790297
  H      -3.403905     -0.404181      2.539919
  O      -3.395983     -0.110831      1.615641
  H      -4.958688      2.237233      3.776546
  O      -4.151825      2.086609      3.260358
  H      -6.977238      1.368478      1.788855
  O      -6.203780      0.800250      1.652962
  H      -4.212189      1.688692     -1.407348
  O      -4.596801      1.121296     -0.722211
  H      -5.490669      0.903237     -1.027403
19
Coordinates from ORCA-job input E -1965.997089933120
  Ni     -4.373038      1.665851      1.252180
  H      -6.254667      0.112963      2.334242
  H      -5.670758      3.964150      1.615606
  H      -1.799418      1.821418      1.094046
  H      -3.518893      2.762203      3.550852
  H      -3.620468     -0.890431      1.081358
  H      -5.846468      3.556269      0.136371
  O      -5.233308      3.499880      0.885717
  H      -2.264378      3.299075      1.087211
  O      -2.508106      2.409622      0.789524
  H      -3.412759     -0.410916      2.539986
  O      -3.398210     -0.113612      1.617079
  H      -4.955876      2.236884      3.776874
  O      -4.149528      2.085780      3.260045
  H      -6.976917      1.369861      1.790771
  O      -6.204345      0.800890      1.652941
  H      -4.205693      1.682925     -1.406552
  O      -4.598199      1.120391     -0.721849
  H      -5.493162      0.909913     -1.029073
19
Coordinates from ORCA-job input E -1965.997151512198
  Ni     -4.373425      1.661025      1.252804
  H      -6.256257      0.105254      2.323689
  H      -5.663515      3.960991      1.621728
  H      -1.794358      1.850166      1.138853
  H      -3.511256      2.762841      3.542403
  H      -3.610778     -0.892012      1.073501
  H      -5.844412      3.556272      0.140927
  O      -5.230673      3.496343      0.889432
  H      -2.287237      3.314960      1.036867
  O      -2.509181      2.404742      0.788575
  H      -3.438459     -0.429113      2.541865
  O      -3.405002     -0.120559      1.623200
  H      -4.948205      2.236338      3.778193
  O      -4.143486      2.084831      3.259177
  H      -6.975315      1.374082      1.803303
  O      -6.206717      0.803102      1.652499
  H      -4.185016      1.665185     -1.403627
  O      -4.601827      1.118355     -0.720685
  H      -5.499075      0.930312     -1.035371
19
Coordinates from ORCA-job input E -1965.997175328315
  Ni     -4.373918      1.658265      1.253160
  H      -6.257496      0.098042      2.313663
  H      -5.659079      3.959659      1.625320
  H      -1.790928      1.864972      1.154285
  H      -3.509610      2.766810      3.536383
  H      -3.606890     -0.893467      1.071839
  H      -5.843714      3.556948      0.144001
  O      -5.229146      3.494628      0.891580
  H      -2.298987      3.321451      1.014616
  O      -2.510384      2.403007      0.788499
  H      -3.451175     -0.437993      2.544284
  O      -3.409422     -0.124335      1.627728
  H      -4.943670      2.234534      3.779738
  O      -4.139990      2.084848      3.258645
  H      -6.974182      1.376633      1.814260
  O      -6.208707      0.804711      1.651705
  H      -4.172182      1.654651     -1.401802
  O      -4.603476      1.117588     -0.720174
  H      -5.501236      0.942163     -1.040400
19
Coordinates from ORCA-job input E -1965.997204125679
  Ni     -4.374539      1.654275      1.253575
  H      -6.260379      0.087602      2.297864
  H      -5.652358      3.958252      1.630342
  H      -1.784850      1.884253      1.166832
  H      -3.510320      2.775279      3.527448
  H      -3.606346     -0.897380      1.073418
  H      -5.842782      3.558639      0.148765
  O      -5.226553      3.492603      0.894604
  H      -2.314496      3.329017      0.989967
  O      -2.512446      2.401935      0.788638
  H      -3.463430     -0.447605      2.548807
  O      -3.416048     -0.129883      1.633985
  H      -4.936960      2.229349      3.782972
  O      -4.134892      2.084680      3.258021
  H      -6.972913      1.379977      1.829703
  O      -6.212008      0.807166      1.649900
  H      -4.155683      1.641739     -1.399334
  O      -4.604906      1.116988     -0.719808
  H      -5.502283      0.956229     -1.048368
19
Coordinates from ORCA-job input E -1965.997229401565
  Ni     -4.374882      1.650126      1.254014
  H      -6.264688      0.078344      2.282172
  H      -5.645822      3.956958      1.634952
  H      -1.777424      1.902626      1.172220
  H      -3.513719      2.785442      3.518810
  H      -3.612065     -0.903680      1.078571
  H      -5.840609      3.561217      0.153143
  O      -5.223154      3.491035      0.897567
  H      -2.329433      3.335853      0.970820
  O      -2.514733      2.402184      0.788982
  H      -3.468651     -0.454050      2.553934
  O      -3.423032     -0.135958      1.639216
  H      -4.929956      2.221313      3.787373
  O      -4.129647      2.083864      3.257790
  H      -6.972164      1.383150      1.843327
  O      -6.215684      0.809737      1.647612
  H      -4.142325      1.632459     -1.396974
  O      -4.605141      1.116771     -0.719709
  H      -5.501064      0.965728     -1.056488
19
Coordinates from ORCA-job input E -1965.997249641174
  Ni     -4.374870      1.646401      1.254595
  H      -6.269750      0.071891      2.269724
  H      -5.641498      3.955513      1.638028
  H      -1.769794      1.918146      1.171542
  H      -3.518851      2.794971      3.512141
  H      -3.623402     -0.911450      1.085724
  H      -5.835825      3.564652      0.155324
  O      -5.219147      3.490274      0.899995
  H      -2.342290      3.341650      0.958680
  O      -2.516950      2.403544      0.789469
  H      -3.466027     -0.456683      2.558233
  O      -3.429498     -0.141831      1.642054
  H      -4.923718      2.211606      3.792409
  O      -4.125057      2.082302      3.258237
  H      -6.972005      1.386131      1.853249
  O      -6.219212      0.812100      1.645569
  H      -4.134367      1.628819     -1.394908
  O      -4.604062      1.116726     -0.719658
  H      -5.497869      0.968353     -1.063076
19
Coordinates from ORCA-job input E -1965.997261986260
  Ni     -4.374629      1.644417      1.255274
  H      -6.273466      0.070193      2.265304
  H      -5.641774      3.954037      1.638371
  H      -1.764861      1.926138      1.167175
  H      -3.522972      2.799908      3.509770
  H      -3.634804     -0.917343      1.091105
  H      -5.828988      3.568012      0.153815
  O      -5.215915      3.490630      0.901169
  H      -2.349245      3.344919      0.956039
  O      -2.518436      2.405238      0.789862
  H      -3.458335     -0.455576      2.559560
  O      -3.433322     -0.145393      1.641448
  H      -4.920490      2.204082      3.796239
  O      -4.122734      2.080538      3.259301
  H      -6.972434      1.388262      1.856663
  O      -6.221381      0.813447      1.644895
  H      -4.133752      1.631153     -1.393612
  O      -4.602323      1.116587     -0.719415
  H      -5.494331      0.963865     -1.065630
19
Coordinates from ORCA-job input E -1965.997269913526
  Ni     -4.374379      1.643876      1.256050
  H      -6.275491      0.072303      2.268086
  H      -5.645852      3.952341      1.636983
  H      -1.762757      1.928775      1.162720
  H      -3.524617      2.800090      3.510662
  H      -3.642876     -0.920540      1.093275
  H      -5.820946      3.571100      0.149740
  O      -5.213766      3.491665      0.901681
  H      -2.351873      3.346380      0.958469
  O      -2.519359      2.406771      0.790044
  H      -3.450333     -0.453063      2.558222
  O      -3.434854     -0.146796      1.638608
  H      -4.919827      2.199953      3.798463
  O      -4.122272      2.078786      3.260678
  H      -6.973338      1.389486      1.854702
  O      -6.222256      0.813737      1.645603
  H      -4.137263      1.635849     -1.392770
  O      -4.600659      1.116164     -0.718882
  H      -5.491473      0.956241     -1.065001
19
Coordinates from ORCA-job input E -1965.997275442683
  Ni     -4.374298      1.644048      1.256824
  H      -6.275991      0.076333      2.275083
  H      -5.651505      3.950419      1.635472
  H      -1.762810      1.929492      1.161165
  H      -3.523404      2.796761      3.512904
  H      -3.645799     -0.921229      1.092149
  H      -5.813294      3.573762      0.145279
  O      -5.212698      3.492716      0.902302
  H      -2.352801      3.347034      0.960493
  O      -2.520001      2.407745      0.789942
  H      -3.446177     -0.451505      2.555620
  O      -3.435006     -0.146813      1.635424
  H      -4.920578      2.199548      3.799062
  O      -4.122792      2.077276      3.261907
  H      -6.974458      1.389664      1.849787
  O      -6.222202      0.813139      1.647188
  H      -4.140583      1.638870     -1.392057
  O      -4.599710      1.115419     -0.718152
  H      -5.490085      0.950435     -1.063060
19
Coordinates from ORCA-job input E -1965.997280613068
  Ni     -4.374439      1.644098      1.257562
  H      -6.275688      0.080381      2.282942
  H      -5.657067      3.948165      1.634954
  H      -1.763614      1.931521      1.162967
  H      -3.520478      2.792122      3.514747
  H      -3.645033     -0.920780      1.089261
  H      -5.806090      3.576559      0.141726
  O      -5.212093      3.493423      0.903680
  H      -2.354703      3.347938      0.958652
  O      -2.520742      2.408178      0.789537
  H      -3.446464     -0.451877      2.553162
  O      -3.435020     -0.146607      1.633153
  H      -4.921427      2.201409      3.798720
  O      -4.123346      2.075923      3.262797
  H      -6.975593      1.389025      1.844607
  O      -6.221842      0.812031      1.649070
  H      -4.140906      1.638337     -1.391184
  O      -4.599571      1.114393     -0.717362
  H      -5.490075      0.948879     -1.061659
19
Coordinates from ORCA-job input E -1965.997286085714
  Ni     -4.374756      1.643588      1.258157
  H      -6.275156      0.082914      2.288854
  H      -5.661432      3.945761      1.635757
  H      -1.764032      1.935862      1.166573
  H      -3.517756      2.788531      3.515192
  H      -3.643009     -0.920480      1.086665
  H      -5.799297      3.579964      0.139625
  O      -5.211412      3.493712      0.905924
  H      -2.358507      3.349404      0.952731
  O      -2.521706      2.408220      0.788847
  H      -3.449581     -0.453803      2.551858
  O      -3.435624     -0.146917      1.632409
  H      -4.921628      2.203387      3.798193
  O      -4.123408      2.074707      3.263254
  H      -6.976516      1.387974      1.841387
  O      -6.221638      0.810842      1.650703
  H      -4.137772      1.634536     -1.390168
  O      -4.600057      1.113305     -0.716741
  H      -5.490906      0.951610     -1.061889
19
Coordinates from ORCA-job input E -1965.997292189298
  Ni     -4.375194      1.642555      1.258616
  H      -6.274530      0.084114      2.293118
  H      -5.665396      3.943086      1.637435
  H      -1.763783      1.941827      1.169989
  H      -3.516372      2.786653      3.514511
  H      -3.641612     -0.920928      1.085365
  H      -5.791441      3.584808      0.138147
  O      -5.210317      3.493861      0.909014
  H      -2.363850      3.351223      0.944507
  O      -2.522931      2.408115      0.787788
  H      -3.453126     -0.456162      2.551650
  O      -3.436836     -0.147812      1.632717
  H      -4.921320      2.204057      3.797889
  O      -4.123082      2.073426      3.263434
  H      -6.977304      1.386630      1.840027
  O      -6.221653      0.809599      1.652149
  H      -4.132588      1.628994     -1.389071
  O      -4.600866      1.112240     -0.716354
  H      -5.491989      0.956832     -1.063600
19
Coordinates from ORCA-job input E -1965.997298921807
  Ni     -4.375788      1.641240      1.258896
  H      -6.273385      0.084600      2.297134
  H      -5.670238      3.939952      1.639521
  H      -1.763211      1.947859      1.171726
  H      -3.516783      2.786244      3.513310
  H      -3.641311     -0.922023      1.085614
  H      -5.781078      3.592036      0.136399
  O      -5.208839      3.494129      0.913001
  H      -2.369766      3.352878      0.935885
  O      -2.524388      2.407904      0.786112
  H      -3.455637     -0.457955      2.552303
  O      -3.438213     -0.148922      1.633615
  H      -4.921113      2.203087      3.797697
  O      -4.122817      2.072009      3.263391
  H      -6.978099      1.384584      1.839681
  O      -6.221656      0.807979      1.653698
  H      -4.126630      1.622735     -1.388034
  O      -4.601970      1.111231     -0.716265
  H      -5.493270      0.963548     -1.066353
19
Coordinates from ORCA-job input E -1965.997311674663
  Ni     -4.377544      1.638123      1.259455
  H      -6.269302      0.086889      2.310614
  H      -5.686914      3.930761      1.643581
  H      -1.762362      1.960367      1.171842
  H      -3.520237      2.785955      3.511099
  H      -3.642421     -0.925237      1.087822
  H      -5.748165      3.614957      0.130121
  O      -5.204860      3.495409      0.924186
  H      -2.383597      3.355941      0.917252
  O      -2.528385      2.407412      0.780734
  H      -3.458034     -0.460083      2.553995
  O      -3.440924     -0.151270      1.635202
  H      -4.921726      2.198458      3.797178
  O      -4.122930      2.068099      3.263329
  H      -6.980604      1.377736      1.837492
  O      -6.221173      0.802814      1.658615
  H      -4.113305      1.607922     -1.385522
  O      -4.605140      1.108796     -0.716301
  H      -5.496570      0.980069     -1.073362
19
Coordinates from ORCA-job input E -1965.997309040472
  Ni     -4.377252      1.639277      1.258808
  H      -6.269150      0.085436      2.306851
  H      -5.683593      3.933355      1.642235
  H      -1.763037      1.952999      1.168053
  H      -3.522037      2.788031      3.511818
  H      -3.643173     -0.924495      1.089338
  H      -5.755733      3.610770      0.131000
  O      -5.206164      3.495312      0.921378
  H      -2.377526      3.353762      0.925956
  O      -2.527114      2.407188      0.781311
  H      -3.454503     -0.457374      2.554487
  O      -3.439244     -0.150062      1.635171
  H      -4.922485      2.197845      3.797073
  O      -4.123555      2.069573      3.262933
  H      -6.979836      1.378401      1.839011
  O      -6.220875      0.803696      1.657423
  H      -4.117733      1.612819     -1.386755
  O      -4.604803      1.109943     -0.716836
  H      -5.496378      0.976639     -1.071922
19
Coordinates from ORCA-job input E -1965.997305978209
  Ni     -4.377642      1.640626      1.257816
  H      -6.266447      0.084790      2.308117
  H      -5.687823      3.933560      1.640030
  H      -1.764994      1.941272      1.158133
  H      -3.527034      2.791100      3.513320
  H      -3.645544     -0.924136      1.093311
  H      -5.752706      3.614501      0.128023
  O      -5.207387      3.495989      0.920884
  H      -2.369973      3.349850      0.938502
  O      -2.526536      2.406682      0.779692
  H      -3.446327     -0.451439      2.555509
  O      -3.436281     -0.148076      1.634825
  H      -4.925017      2.194754      3.796477
  O      -4.125396      2.070711      3.262378
  H      -6.979882      1.375785      1.839429
  O      -6.219714      0.802592      1.658046
  H      -4.122275      1.617438     -1.387968
  O      -4.605654      1.111265     -0.717814
  H      -5.497559      0.975851     -1.071379
19
Coordinates from ORCA-job input E -1965.997304953787
  Ni     -4.378106      1.641323      1.257580
  H      -6.264881      0.085464      2.311290
  H      -5.693714      3.932105      1.638216
  H      -1.766577      1.935325      1.152502
  H      -3.528438      2.791410      3.514459
  H      -3.646532     -0.923856      1.094628
  H      -5.746859      3.618547      0.124519
  O      -5.208202      3.496414      0.921353
  H      -2.366561      3.347823      0.945271
  O      -2.526780      2.406624      0.778591
  H      -3.441979     -0.448373      2.555332
  O      -3.434667     -0.146992      1.633974
  H      -4.926308      2.193930      3.796197
  O      -4.126288      2.070981      3.262471
  H      -6.980470      1.373827      1.838506
  O      -6.219054      0.801602      1.659319
  H      -4.124238      1.619567     -1.387950
  O      -4.606261      1.111852     -0.717978
  H      -5.498277      0.975544     -1.070949
19
Coordinates from ORCA-job input E -1965.997304821590
  Ni     -4.378620      1.641841      1.257626
  H      -6.263991      0.086122      2.314111
  H      -5.699999      3.930075      1.636444
  H      -1.768151      1.931086      1.148639
  H      -3.527951      2.790879      3.515162
  H      -3.646396     -0.923363      1.094646
  H      -5.741357      3.621740      0.121087
  O      -5.209335      3.496460      0.921851
  H      -2.364273      3.346393      0.950333
  O      -2.527282      2.406699      0.777935
  H      -3.439834     -0.446748      2.554778
  O      -3.433477     -0.146199      1.633139
  H      -4.926752      2.194638      3.796060
  O      -4.126521      2.071215      3.262793
  H      -6.981169      1.372425      1.837808
  O      -6.218675      0.800991      1.660724
  H      -4.124873      1.620731     -1.387348
  O      -4.606774      1.112382     -0.717780
  H      -5.498763      0.975750     -1.070676
19
Coordinates from ORCA-job input E -1965.997305554435
  Ni     -4.378995      1.642062      1.257828
  H      -6.264143      0.086177      2.314879
  H      -5.704076      3.928461      1.635335
  H      -1.769160      1.929104      1.147160
  H      -3.526328      2.790406      3.515014
  H      -3.645496     -0.922888      1.093873
  H      -5.739086      3.622554      0.119130
  O      -5.210568      3.496032      0.921996
  H      -2.363244      3.345771      0.952878
  O      -2.527742      2.406798      0.777970
  H      -3.439995     -0.446721      2.554295
  O      -3.432948     -0.145889      1.632748
  H      -4.926149      2.196207      3.796171
  O      -4.125974      2.071490      3.263143
  H      -6.981654      1.372184      1.838041
  O      -6.218725      0.801142      1.661618
  H      -4.124129      1.620929     -1.386484
  O      -4.606997      1.112868     -0.717410
  H      -5.498781      0.976429     -1.070852
