19
Coordinates from ORCA-job input
  Ni  -4.37899530851229      1.64206239739663      1.25782764446741
  H   -6.26414338757660      0.08617661127326      2.31487858860149
  H   -5.70407595149987      3.92846128853689      1.63533518075642
  H   -1.76916026792556      1.92910422162438      1.14716047091753
  H   -3.52632817319580      2.79040618670067      3.51501444522442
  H   -3.64549570295023     -0.92288809977172      1.09387317008778
  H   -5.73908618350760      3.62255375654985      0.11912983697380
  O   -5.21056779721415      3.49603173820513      0.92199588854501
  H   -2.36324384182150      3.34577141905784      0.95287830325547
  O   -2.52774234104696      2.40679794063085      0.77796971425020
  H   -3.43999531925537     -0.44672145771244      2.55429455956169
  O   -3.43294847180124     -0.14588875110917      1.63274757130615
  H   -4.92614922346113      2.19620748867685      3.79617137884321
  O   -4.12597384798648      2.07148978964547      3.26314250025806
  H   -6.98165405000689      1.37218376571246      1.83804134175324
  O   -6.21872484349932      0.80114247630363      1.66161758929919
  H   -4.12412949217108      1.62092864652830     -1.38648368217374
  O   -4.60699675813041      1.11286768135209     -0.71741042798209
  H   -5.49878061483720      0.97642909269887     -1.07085198044538
