23
Coordinates from ORCA-job input
  Co  -0.20776847828249      1.54177256126851      0.02299207064549
  O   -0.38670084392275      1.13290058358347     -2.03934870115719
  H   0.76991374017507      1.93264382954602      2.49837029061639
  H   2.33898251802463      2.20219497549951     -0.20550178158246
  H   0.23369539422573     -1.14680491631286      0.29470214445025
  H   -0.24967981037751      4.20349657674399      0.32879566974093
  H   -0.16693205911609      3.98898234833520     -1.20196215830734
  O   0.05307045729891      3.58131967757184     -0.35032885874720
  H   -0.75421382234279      1.71011158229050      2.66417764296547
  O   -0.08028492883233      2.02204706957618      2.04114072580277
  H   2.28969793145234      0.71194140898495     -0.62346933002787
  O   1.85614217887306      1.37328260034584     -0.06253789905480
  H   -0.95367262520798     -0.76222330871104      1.20898048525331
  O   -0.51066088906799     -0.52666696675700      0.37589104616846
  H   -2.71744471070635      2.55716016766250      0.04663395543184
  O   -2.28529824843819      1.69621535422904      0.16018334096316
  H   -2.89096422474876      1.03835560404369     -0.21712609573916
  H   0.10079457969156      1.70052690375137     -2.65761765089099
  B   -1.51265044205109      0.52637570219756     -2.60819191803299
  O   -2.17773458549097     -0.41551361124411     -1.89934382323836
  O   -1.89391953815067      0.94207197819944     -3.83369488440072
  H   -1.69453261085548     -0.71812400596784     -1.11010697487204
  H   -2.65631730034982      0.46202525866314     -4.18451326058689
