22
Coordinates from ORCA-job input
  Co  -0.50718067372276      1.63526340472646      0.22646517033011
  H   -0.93308616612840      2.32703284779861      2.85831718186967
  H   -0.27957958625675      3.78077470566099     -1.40941197959107
  H   1.81157781592610      0.26655532300671      0.65145129311878
  O   -2.38574666145406      1.89149772805211     -0.59237612953498
  O   -0.65505908634625      0.76817765874549     -1.71344420514931
  H   -0.67186664095541      3.60306925313100      2.01985069714818
  O   -0.49788504219774      2.65059956473930      2.05634941417888
  H   1.04551345912400      3.67504816450932     -0.60271573420177
  O   0.09057503403382      3.51915921288424     -0.55366598582007
  H   1.79029746894797      1.48213334289599      1.61304272598992
  O   1.46995673929148      1.16692044293922      0.75514525616812
  H   -0.71533389209665     -0.88070329640889      1.16121957612091
  O   -1.32603270433496     -0.17990371233081      0.89372738702632
  H   -1.85592287936030     -0.49256989050550      0.11925398646059
  H   -2.66488547606322      2.75573691428712     -0.91846895947610
  B   -2.13513390262403      0.94134357823619     -1.73750475708172
  O   -2.55279641474060      1.50032444962625     -2.98348797083372
  O   -2.73192230216587     -0.34863306440100     -1.37562249458641
  H   -3.48822298070778      1.35571355701561     -3.15759512744969
  H   -3.61029847528762     -0.22130261476571     -0.99541788485126
  H   -0.39381238978091     -0.15722741334278     -1.80166248513537
