22
Coordinates from ORCA-job input E -2015.913579468371
  Co     -0.507181      1.635263      0.226465
  H      -0.933086      2.327033      2.858317
  H      -0.279580      3.780775     -1.409412
  H       1.811578      0.266555      0.651451
  O      -2.385747      1.891498     -0.592376
  O      -0.655059      0.768178     -1.713444
  H      -0.671867      3.603069      2.019851
  O      -0.497885      2.650600      2.056349
  H       1.045513      3.675048     -0.602716
  O       0.090575      3.519159     -0.553666
  H       1.790297      1.482133      1.613043
  O       1.469957      1.166920      0.755145
  H      -0.715334     -0.880703      1.161220
  O      -1.326033     -0.179904      0.893727
  H      -1.855923     -0.492570      0.119254
  H      -2.664885      2.755737     -0.918469
  B      -2.135134      0.941344     -1.737505
  O      -2.552796      1.500324     -2.983488
  O      -2.731922     -0.348633     -1.375622
  H      -3.488223      1.355714     -3.157595
  H      -3.610298     -0.221303     -0.995418
  H      -0.393812     -0.157227     -1.801662
22
Coordinates from ORCA-job input E -2015.914242254514
  Co     -0.507140      1.638872      0.227978
  H      -0.937356      2.329956      2.859685
  H      -0.261190      3.776123     -1.411584
  H       1.815228      0.273271      0.630041
  O      -2.387036      1.901257     -0.594481
  O      -0.656529      0.776177     -1.711296
  H      -0.669479      3.605020      2.022904
  O      -0.496814      2.652373      2.060086
  H       1.048679      3.680916     -0.589546
  O       0.093750      3.521406     -0.547293
  H       1.779456      1.468599      1.616317
  O       1.467963      1.169527      0.749159
  H      -0.706013     -0.886512      1.150615
  O      -1.316961     -0.178678      0.904132
  H      -1.870169     -0.491331      0.141712
  H      -2.661179      2.765265     -0.927347
  B      -2.139414      0.939265     -1.734800
  O      -2.555814      1.486325     -2.985638
  O      -2.726159     -0.351744     -1.362833
  H      -3.492890      1.338150     -3.150170
  H      -3.623251     -0.227141     -1.027447
  H      -0.394526     -0.148085     -1.806745
22
Coordinates from ORCA-job input E -2015.915038989275
  Co     -0.508776      1.647126      0.229296
  H      -0.946652      2.331705      2.862233
  H      -0.226827      3.771317     -1.411095
  H       1.808913      0.274544      0.607117
  O      -2.391916      1.922865     -0.601580
  O      -0.659891      0.795110     -1.707443
  H      -0.672314      3.607354      2.029531
  O      -0.497765      2.655000      2.067504
  H       1.063618      3.682140     -0.575080
  O       0.107905      3.522698     -0.536380
  H       1.756395      1.452371      1.614414
  O       1.458424      1.168081      0.737243
  H      -0.689059     -0.886305      1.157596
  O      -1.299967     -0.175901      0.917981
  H      -1.856353     -0.506517      0.161781
  H      -2.655575      2.785482     -0.946672
  B      -2.148641      0.939291     -1.731349
  O      -2.571229      1.463003     -2.989181
  O      -2.714132     -0.351121     -1.333631
  H      -3.512247      1.307994     -3.128943
  H      -3.642519     -0.239729     -1.089385
  H      -0.398238     -0.127497     -1.820509
22
Coordinates from ORCA-job input E -2015.915363267574
  Co     -0.508823      1.654829      0.229405
  H      -0.957562      2.331630      2.862380
  H      -0.196244      3.768575     -1.409236
  H       1.803723      0.273972      0.591447
  O      -2.394868      1.939653     -0.608782
  O      -0.659870      0.814371     -1.705765
  H      -0.673229      3.608146      2.035266
  O      -0.498457      2.655811      2.073838
  H       1.080271      3.683482     -0.559321
  O       0.124081      3.523745     -0.527652
  H       1.738417      1.441194      1.610818
  O       1.451790      1.166152      0.726793
  H      -0.682364     -0.896174      1.130106
  O      -1.288369     -0.169080      0.929520
  H      -1.888917     -0.484469      0.201801
  H      -2.649055      2.800027     -0.965550
  B      -2.152587      0.939223     -1.727605
  O      -2.590423      1.441416     -2.988862
  O      -2.690230     -0.354550     -1.308875
  H      -3.533500      1.278779     -3.107357
  H      -3.636381     -0.272895     -1.130335
  H      -0.394248     -0.104827     -1.838585
22
Coordinates from ORCA-job input E -2015.915559884843
  Co     -0.511327      1.660916      0.228872
  H      -0.972988      2.331389      2.859834
  H      -0.158937      3.757095     -1.415334
  H       1.799199      0.273622      0.575509
  O      -2.399435      1.955474     -0.615500
  O      -0.664352      0.829257     -1.704724
  H      -0.673203      3.607860      2.039156
  O      -0.500956      2.655103      2.078736
  H       1.093879      3.688549     -0.530271
  O       0.138316      3.522645     -0.522894
  H       1.721029      1.428519      1.607858
  O       1.445255      1.163961      0.717059
  H      -0.672705     -0.886807      1.148443
  O      -1.278900     -0.163118      0.937294
  H      -1.868448     -0.488322      0.205122
  H      -2.642387      2.814008     -0.984219
  B      -2.159460      0.941565     -1.723062
  O      -2.613028      1.424139     -2.986309
  O      -2.683837     -0.351113     -1.285009
  H      -3.557774      1.260283     -3.088720
  H      -3.641949     -0.300212     -1.171320
  H      -0.394838     -0.085804     -1.857073
22
Coordinates from ORCA-job input E -2015.915731728258
  Co     -0.512977      1.664657      0.227824
  H      -0.988082      2.329680      2.854927
  H      -0.125507      3.743134     -1.425187
  H       1.799624      0.274029      0.565242
  O      -2.402559      1.963827     -0.618956
  O      -0.668272      0.839150     -1.705812
  H      -0.670531      3.606069      2.041388
  O      -0.502638      2.652487      2.081634
  H       1.101105      3.698030     -0.496441
  O       0.148080      3.521526     -0.522107
  H       1.713017      1.420988      1.605243
  O       1.444115      1.163210      0.710262
  H      -0.669093     -0.880827      1.151487
  O      -1.274598     -0.156080      0.943031
  H      -1.870670     -0.474556      0.212782
  H      -2.636217      2.820793     -0.996958
  B      -2.162869      0.943859     -1.718370
  O      -2.632157      1.410877     -2.981774
  O      -2.677264     -0.349529     -1.268575
  H      -3.577448      1.247864     -3.077105
  H      -3.639823     -0.329364     -1.193124
  H      -0.392082     -0.070814     -1.875964
22
Coordinates from ORCA-job input E -2015.915885266798
  Co     -0.515416      1.667901      0.225355
  H      -1.005395      2.322920      2.846636
  H      -0.081780      3.722171     -1.442227
  H       1.802861      0.274577      0.556493
  O      -2.405704      1.970635     -0.621247
  O      -0.674813      0.848095     -1.710238
  H      -0.670031      3.601227      2.043871
  O      -0.505000      2.647016      2.083359
  H       1.103093      3.713977     -0.449972
  O       0.156522      3.520216     -0.524971
  H       1.709635      1.414065      1.602889
  O       1.446379      1.162943      0.704292
  H      -0.669633     -0.868629      1.159408
  O      -1.275628     -0.145830      0.946963
  H      -1.872490     -0.456625      0.211873
  H      -2.627622      2.826450     -1.008901
  B      -2.166354      0.947178     -1.712658
  O      -2.653239      1.396501     -2.975829
  O      -2.670692     -0.347614     -1.250504
  H      -3.598818      1.236701     -3.068020
  H      -3.634310     -0.360667     -1.200689
  H      -0.388411     -0.054199     -1.902435
22
Coordinates from ORCA-job input E -2015.915942393788
  Co     -0.516525      1.669210      0.223257
  H      -1.011891      2.314583      2.841628
  H      -0.054786      3.708530     -1.454632
  H       1.805927      0.275834      0.553620
  O      -2.406688      1.972862     -0.622001
  O      -0.678553      0.851595     -1.714609
  H      -0.674712      3.596799      2.046251
  O      -0.506486      2.643018      2.083443
  H       1.099943      3.725021     -0.424827
  O       0.158588      3.519901     -0.528550
  H       1.710523      1.411784      1.602793
  O       1.449463      1.164009      0.702639
  H      -0.672015     -0.860507      1.163350
  O      -1.278975     -0.139413      0.948253
  H      -1.875091     -0.448355      0.209360
  H      -2.622275      2.828880     -1.012953
  B      -2.168194      0.948346     -1.710884
  O      -2.662066      1.389272     -2.974112
  O      -2.667553     -0.347227     -1.241716
  H      -3.608093      1.231809     -3.064446
  H      -3.631020     -0.370881     -1.193570
  H      -0.386366     -0.046060     -1.918846
22
Coordinates from ORCA-job input E -2015.916008942714
  Co     -0.517034      1.670307      0.220167
  H      -1.015429      2.298515      2.835572
  H      -0.022791      3.691728     -1.470770
  H       1.810873      0.278775      0.552307
  O      -2.406750      1.974010     -0.623106
  O      -0.682198      0.854171     -1.721346
  H      -0.687382      3.589477      2.051114
  O      -0.508405      2.637434      2.082983
  H       1.093177      3.738314     -0.400211
  O       0.158724      3.519694     -0.534690
  H       1.713188      1.410429      1.604830
  O       1.454879      1.166904      0.702758
  H      -0.675482     -0.849668      1.167384
  O      -1.284340     -0.130712      0.950521
  H      -1.879403     -0.440118      0.207691
  H      -2.614572      2.831303     -1.015770
  B      -2.170119      0.948566     -1.710889
  O      -2.669545      1.381119     -2.974288
  O      -2.665383     -0.347310     -1.233031
  H      -3.616639      1.227547     -3.060284
  H      -3.628491     -0.373717     -1.177249
  H      -0.383722     -0.037758     -1.940244
22
Coordinates from ORCA-job input E -2015.916071083700
  Co     -0.516225      1.670999      0.216879
  H      -1.014525      2.277374      2.829820
  H       0.001425      3.678368     -1.484528
  H       1.815989      0.282640      0.553065
  O      -2.405462      1.974319     -0.625311
  O      -0.684058      0.855202     -1.728290
  H      -0.705638      3.580670      2.058572
  O      -0.510126      2.631647      2.082437
  H       1.086428      3.748203     -0.386893
  O       0.157330      3.519440     -0.541356
  H       1.715451      1.409879      1.609244
  O       1.460907      1.170914      0.704918
  H      -0.678422     -0.838734      1.170712
  O      -1.289463     -0.121255      0.954632
  H      -1.883696     -0.433316      0.209865
  H      -2.605024      2.833658     -1.018102
  B      -2.171406      0.947339     -1.713025
  O      -2.673908      1.373321     -2.976660
  O      -2.664970     -0.347663     -1.226588
  H      -3.622645      1.224939     -3.055041
  H      -3.627700     -0.367544     -1.159231
  H      -0.381107     -0.031388     -1.961672
22
Coordinates from ORCA-job input E -2015.916123237106
  Co     -0.514091      1.671466      0.213858
  H      -1.011232      2.255377      2.824507
  H       0.011807      3.671779     -1.492741
  H       1.819734      0.286283      0.554510
  O      -2.403187      1.975010     -0.629185
  O      -0.683846      0.855219     -1.733603
  H      -0.723421      3.571993      2.068139
  O      -0.511069      2.626441      2.082350
  H       1.082669      3.752796     -0.385643
  O       0.155706      3.519089     -0.546436
  H       1.715065      1.408959      1.614889
  O       1.465740      1.174757      0.707882
  H      -0.680225     -0.829201      1.173778
  O      -1.292867     -0.111963      0.960674
  H      -1.886590     -0.427258      0.216349
  H      -2.593922      2.836317     -1.022252
  B      -2.171802      0.944986     -1.716108
  O      -2.676114      1.365576     -2.980157
  O      -2.665486     -0.347800     -1.221738
  H      -3.626784      1.223445     -3.048400
  H      -3.627997     -0.357239     -1.146897
  H      -0.378933     -0.027021     -1.980327
22
Coordinates from ORCA-job input E -2015.916164577855
  Co     -0.511167      1.671822      0.211046
  H      -1.008270      2.236054      2.819192
  H       0.010740      3.671255     -1.495613
  H       1.821669      0.288897      0.554779
  O      -2.400726      1.976633     -0.634355
  O      -0.682429      0.854593     -1.736637
  H      -0.735081      3.564735      2.078657
  O      -0.510772      2.621923      2.082749
  H       1.081334      3.754551     -0.390004
  O       0.154520      3.518861     -0.549148
  H       1.711772      1.406893      1.619839
  O       1.468602      1.177458      0.709941
  H      -0.681448     -0.821334      1.177770
  O      -1.294625     -0.103368      0.967882
  H      -1.888232     -0.420930      0.225364
  H      -2.582248      2.839102     -1.029285
  B      -2.171386      0.942270     -1.718673
  O      -2.677452      1.357658     -2.983510
  O      -2.665811     -0.347487     -1.217368
  H      -3.629966      1.222695     -3.041710
  H      -3.628451     -0.348997     -1.142420
  H      -0.377416     -0.024276     -1.995048
22
Coordinates from ORCA-job input E -2015.916204998259
  Co     -0.507515      1.671904      0.207590
  H      -1.005636      2.217958      2.812929
  H       0.000832      3.676300     -1.494104
  H       1.822225      0.290398      0.553331
  O      -2.398229      1.978848     -0.640845
  O      -0.680370      0.852653     -1.738182
  H      -0.739896      3.558312      2.090629
  O      -0.508863      2.617240      2.083127
  H       1.080468      3.756174     -0.396214
  O       0.153052      3.519353     -0.549730
  H       1.706545      1.403820      1.623272
  O       1.469987      1.178972      0.710475
  H      -0.683336     -0.813604      1.184743
  O      -1.296097     -0.094591      0.976515
  H      -1.889720     -0.413927      0.236292
  H      -2.569731      2.841670     -1.039443
  B      -2.170168      0.939215     -1.720702
  O      -2.677596      1.349168     -2.987038
  O      -2.665781     -0.346958     -1.213223
  H      -3.631906      1.223296     -3.036556
  H      -3.628765     -0.343707     -1.142456
  H      -0.376345     -0.023483     -2.006961
22
Coordinates from ORCA-job input E -2015.916247838212
  Co     -0.503349      1.671824      0.202243
  H      -1.002788      2.199718      2.804795
  H      -0.014484      3.687559     -1.488086
  H       1.821256      0.290475      0.548830
  O      -2.396111      1.981819     -0.649253
  O      -0.678239      0.849098     -1.739038
  H      -0.737413      3.552041      2.104553
  O      -0.504893      2.611676      2.082809
  H       1.078872      3.760234     -0.400228
  O       0.151119      3.521559     -0.547660
  H       1.699524      1.399203      1.623993
  O       1.469779      1.178963      0.708317
  H      -0.686905     -0.804192      1.197241
  O      -1.298368     -0.084483      0.987048
  H      -1.891730     -0.406189      0.249089
  H      -2.556460      2.843961     -1.053885
  B      -2.168446      0.935673     -1.722264
  O      -2.676526      1.339102     -2.991189
  O      -2.665064     -0.346502     -1.208423
  H      -3.632616      1.225009     -3.034152
  H      -3.628484     -0.342812     -1.144511
  H      -0.375519     -0.024724     -2.016780
22
Coordinates from ORCA-job input E -2015.916286599179
  Co     -0.500109      1.671964      0.195194
  H      -0.999436      2.185161      2.796560
  H      -0.027246      3.703242     -1.478923
  H       1.818463      0.288461      0.541326
  O      -2.395488      1.985119     -0.657975
  O      -0.677066      0.844788     -1.739478
  H      -0.728059      3.547030      2.117153
  O      -0.499530      2.606236      2.081258
  H       1.076394      3.768016     -0.397089
  O       0.149414      3.526115     -0.542745
  H       1.692808      1.394166      1.620193
  O       1.467524      1.176845      0.702687
  H      -0.692234     -0.794154      1.213586
  O      -1.301856     -0.074860      0.996588
  H      -1.894264     -0.399878      0.259921
  H      -2.546881      2.845403     -1.069928
  B      -2.167089      0.932381     -1.722931
  O      -2.674525      1.328965     -2.995197
  O      -2.663556     -0.346521     -1.203169
  H      -3.631941      1.226445     -3.036036
  H      -3.627313     -0.348026     -1.146221
  H      -0.374857     -0.027888     -2.021323
22
Coordinates from ORCA-job input E -2015.916316755575
  Co     -0.498648      1.672752      0.187781
  H      -0.994610      2.175679      2.790682
  H      -0.030220      3.718744     -1.471048
  H       1.815113      0.284954      0.532834
  O      -2.396576      1.987753     -0.664711
  O      -0.677242      0.840848     -1.739696
  H      -0.717223      3.543491      2.125931
  O      -0.494268      2.601935      2.078782
  H       1.072923      3.779179     -0.386073
  O       0.148199      3.532492     -0.537117
  H       1.689294      1.390296      1.612670
  O       1.464331      1.173252      0.695004
  H      -0.699087     -0.785132      1.228800
  O      -1.306810     -0.067314      1.002090
  H      -1.897698     -0.395919      0.265178
  H      -2.544168      2.845627     -1.083041
  B      -2.166658      0.929947     -1.722696
  O      -2.671953      1.320476     -2.998260
  O      -2.661873     -0.347175     -1.198107
  H      -3.630043      1.226296     -3.041411
  H      -3.625699     -0.356977     -1.145130
  H      -0.373929     -0.032196     -2.019015
22
Coordinates from ORCA-job input E -2015.916336359415
  Co     -0.498530      1.674113      0.181902
  H      -0.987964      2.169474      2.788378
  H      -0.022840      3.729410     -1.468321
  H       1.813651      0.281887      0.526132
  O      -2.398256      1.988521     -0.668122
  O      -0.678141      0.837822     -1.739922
  H      -0.712125      3.540686      2.130537
  O      -0.490721      2.599171      2.076387
  H       1.068684      3.790935     -0.372416
  O       0.147098      3.538879     -0.533656
  H       1.690547      1.388336      1.605058
  O       1.462524      1.170002      0.688462
  H      -0.705945     -0.778349      1.238031
  O      -1.312332     -0.062059      1.003444
  H      -1.902020     -0.393568      0.265492
  H      -2.547284      2.844623     -1.089616
  B      -2.167071      0.928286     -1.722520
  O      -2.669343      1.314745     -3.000362
  O      -2.661402     -0.348355     -1.194760
  H      -3.627638      1.224595     -3.047081
  H      -3.625105     -0.363524     -1.141441
  H      -0.372633     -0.036619     -2.012156
22
Coordinates from ORCA-job input E -2015.916346928757
  Co     -0.498573      1.676053      0.176637
  H      -0.979867      2.161487      2.786973
  H      -0.009595      3.737444     -1.468495
  H       1.814256      0.279966      0.519911
  O      -2.399691      1.988271     -0.670878
  O      -0.679059      0.835332     -1.740586
  H      -0.713808      3.536814      2.134441
  O      -0.488456      2.596626      2.074251
  H       1.064508      3.802376     -0.358489
  O       0.146452      3.544938     -0.531693
  H       1.693848      1.386343      1.598719
  O       1.462366      1.167603      0.683109
  H      -0.711628     -0.771140      1.244199
  O      -1.317408     -0.055821      1.005279
  H      -1.906907     -0.390266      0.267309
  H      -2.551524      2.843255     -1.093709
  B      -2.168099      0.926294     -1.723457
  O      -2.667841      1.308912     -3.002785
  O      -2.662233     -0.349862     -1.192436
  H      -3.626387      1.221461     -3.050567
  H      -3.625916     -0.366528     -1.138880
  H      -0.371283     -0.040548     -2.005406
22
Coordinates from ORCA-job input E -2015.916351374649
  Co     -0.498394      1.678779      0.173674
  H      -0.973127      2.156223      2.787773
  H       0.002533      3.743348     -1.470062
  H       1.815963      0.278423      0.514517
  O      -2.400353      1.988124     -0.672313
  O      -0.679261      0.834434     -1.739805
  H      -0.717946      3.534110      2.136925
  O      -0.487387      2.595390      2.073662
  H       1.062105      3.810881     -0.349395
  O       0.146662      3.549754     -0.531445
  H       1.697912      1.383494      1.594317
  O       1.462896      1.165244      0.679510
  H      -0.716771     -0.766689      1.244498
  O      -1.321684     -0.050741      1.005197
  H      -1.911507     -0.386180      0.267772
  H      -2.556694      2.842186     -1.095370
  B      -2.168944      0.924660     -1.723986
  O      -2.667559      1.304263     -3.003888
  O      -2.662535     -0.351154     -1.190468
  H      -3.626212      1.216804     -3.050794
  H      -3.626417     -0.368773     -1.140901
  H      -0.370126     -0.043569     -1.995967
22
Coordinates from ORCA-job input E -2015.916346424994
  Co     -0.497533      1.681378      0.168837
  H      -0.966205      2.144701      2.784562
  H       0.010406      3.753392     -1.467953
  H       1.818228      0.277920      0.506281
  O      -2.400770      1.987561     -0.676965
  O      -0.679224      0.832056     -1.740418
  H      -0.723550      3.528880      2.142451
  O      -0.485867      2.592480      2.072157
  H       1.060829      3.818206     -0.340131
  O       0.147498      3.554532     -0.529326
  H       1.700037      1.378294      1.590526
  O       1.463849      1.163465      0.675242
  H      -0.718849     -0.756817      1.251445
  O      -1.324277     -0.041044      1.012565
  H      -1.915286     -0.380228      0.278149
  H      -2.558325      2.840835     -1.101088
  B      -2.169877      0.921568     -1.726758
  O      -2.667985      1.297081     -3.007577
  O      -2.664379     -0.352617     -1.189982
  H      -3.627230      1.213510     -3.050769
  H      -3.628637     -0.368709     -1.146623
  H      -0.369698     -0.047433     -1.991177
22
Coordinates from ORCA-job input E -2015.916349926483
  Co     -0.496565      1.684188      0.170981
  H      -0.966410      2.146923      2.788041
  H       0.008585      3.755691     -1.469858
  H       1.820875      0.277249      0.503090
  O      -2.399584      1.987462     -0.675473
  O      -0.677802      0.832908     -1.736963
  H      -0.724909      3.529773      2.142331
  O      -0.486363      2.593381      2.074653
  H       1.061884      3.818457     -0.344599
  O       0.147951      3.555512     -0.531872
  H       1.703958      1.374163      1.590707
  O       1.465108      1.161535      0.675619
  H      -0.722297     -0.758191      1.244280
  O      -1.326540     -0.040061      1.009226
  H      -1.917740     -0.376720      0.275007
  H      -2.562717      2.840169     -1.098515
  B      -2.169012      0.921410     -1.725702
  O      -2.667952      1.297435     -3.005908
  O      -2.663107     -0.352963     -1.190022
  H      -3.626961      1.210569     -3.047944
  H      -3.627645     -0.370281     -1.154647
  H      -0.369602     -0.049598     -1.978985
22
Coordinates from ORCA-job input E -2015.916353707826
  Co     -0.495948      1.685130      0.170747
  H      -0.969192      2.144522      2.785934
  H       0.003827      3.758528     -1.468001
  H       1.821266      0.277513      0.499780
  O      -2.399067      1.988145     -0.676948
  O      -0.677359      0.832769     -1.736896
  H      -0.723613      3.528856      2.144449
  O      -0.486320      2.592273      2.075261
  H       1.063117      3.817397     -0.346162
  O       0.148622      3.555427     -0.531562
  H       1.703198      1.370791      1.591140
  O       1.465254      1.161143      0.675135
  H      -0.721865     -0.755178      1.246814
  O      -1.326568     -0.037327      1.011935
  H      -1.917760     -0.374785      0.278376
  H      -2.561056      2.840459     -1.101181
  B      -2.168459      0.920984     -1.725766
  O      -2.668301      1.296094     -3.006261
  O      -2.662273     -0.352875     -1.189412
  H      -3.627471      1.210925     -3.047402
  H      -3.626877     -0.371786     -1.157376
  H      -0.369997     -0.049994     -1.979154
22
Coordinates from ORCA-job input E -2015.916354110973
  Co     -0.494475      1.688140      0.170488
  H      -0.976956      2.138512      2.780726
  H      -0.008546      3.766242     -1.464071
  H       1.822338      0.278043      0.490689
  O      -2.397735      1.989436     -0.679794
  O      -0.675921      0.831863     -1.736598
  H      -0.719470      3.526338      2.150274
  O      -0.486163      2.589076      2.077265
  H       1.065310      3.815452     -0.351405
  O       0.149321      3.555803     -0.531589
  H       1.703164      1.361847      1.591703
  O       1.465881      1.159911      0.673829
  H      -0.721905     -0.747198      1.252531
  O      -1.328029     -0.030554      1.017354
  H      -1.918876     -0.370184      0.284689
  H      -2.558578      2.840627     -1.106628
  B      -2.166576      0.920026     -1.725547
  O      -2.667324      1.293421     -3.006989
  O      -2.660147     -0.352839     -1.187938
  H      -3.626848      1.212500     -3.047402
  H      -3.624830     -0.375219     -1.161545
  H      -0.370480     -0.052231     -1.976595
22
Coordinates from ORCA-job input E -2015.916348802981
  Co     -0.493653      1.690795      0.169970
  H      -0.981805      2.133262      2.776982
  H      -0.013815      3.771562     -1.462476
  H       1.822575      0.278147      0.483812
  O      -2.397106      1.990537     -0.681659
  O      -0.674903      0.831162     -1.736508
  H      -0.717236      3.523908      2.155303
  O      -0.485860      2.586458      2.078815
  H       1.065907      3.815996     -0.354062
  O       0.149325      3.556960     -0.531905
  H       1.703673      1.355432      1.591257
  O       1.466136      1.158893      0.672296
  H      -0.722770     -0.741126      1.256155
  O      -1.329907     -0.025497      1.020349
  H      -1.920483     -0.366778      0.287996
  H      -2.557808      2.840761     -1.110458
  B      -2.165373      0.919303     -1.725206
  O      -2.665943      1.290752     -3.007517
  O      -2.658609     -0.352876     -1.185819
  H      -3.625740      1.213075     -3.047554
  H      -3.623283     -0.377805     -1.162481
  H      -0.370166     -0.053912     -1.973840
22
Coordinates from ORCA-job input E -2015.916341544458
  Co     -0.492739      1.694358      0.169676
  H      -0.988089      2.126129      2.772388
  H      -0.018900      3.776959     -1.462116
  H       1.821915      0.278124      0.475945
  O      -2.396331      1.991872     -0.683444
  O      -0.673370      0.829888     -1.736288
  H      -0.714781      3.520481      2.162705
  O      -0.485455      2.582935      2.081330
  H       1.065624      3.817826     -0.358588
  O       0.148372      3.558757     -0.533098
  H       1.704982      1.348408      1.590261
  O       1.466336      1.157950      0.670319
  H      -0.724057     -0.734145      1.259592
  O      -1.332549     -0.019928      1.022939
  H      -1.922711     -0.362945      0.290525
  H      -2.557357      2.840896     -1.114526
  B      -2.163656      0.918535     -1.724582
  O      -2.663028      1.287575     -3.008061
  O      -2.656983     -0.352759     -1.182780
  H      -3.623213      1.214387     -3.047846
  H      -3.621624     -0.379856     -1.161251
  H      -0.369231     -0.056436     -1.969651
22
Coordinates from ORCA-job input E -2015.916337509081
  Co     -0.492276      1.696493      0.169598
  H      -0.991059      2.120762      2.769879
  H      -0.019309      3.778371     -1.463666
  H       1.820298      0.277861      0.472524
  O      -2.395851      1.992847     -0.684475
  O      -0.672420      0.828778     -1.735976
  H      -0.714559      3.517926      2.168362
  O      -0.485189      2.580711      2.083222
  H       1.064461      3.820536     -0.361220
  O       0.147247      3.560148     -0.534438
  H       1.705883      1.345972      1.589035
  O       1.466218      1.157869      0.668866
  H      -0.724717     -0.730850      1.260793
  O      -1.333857     -0.017292      1.023859
  H      -1.923899     -0.360808      0.291238
  H      -2.556835      2.841201     -1.116938
  B      -2.162669      0.918118     -1.724219
  O      -2.660944      1.285357     -3.008420
  O      -2.656476     -0.352444     -1.180517
  H      -3.621430      1.215428     -3.047602
  H      -3.621099     -0.379908     -1.159086
  H      -0.368365     -0.058066     -1.967374
22
Coordinates from ORCA-job input E -2015.916335885638
  Co     -0.491985      1.697782      0.169629
  H      -0.991791      2.115783      2.768557
  H      -0.017496      3.777194     -1.466447
  H       1.818129      0.277632      0.471516
  O      -2.395346      1.993686     -0.685428
  O      -0.671827      0.827575     -1.735418
  H      -0.716031      3.515697      2.173494
  O      -0.485023      2.579198      2.084849
  H       1.062711      3.823939     -0.362629
  O       0.146118      3.561214     -0.536076
  H       1.706308      1.346152      1.587772
  O       1.465985      1.158479      0.667668
  H      -0.724850     -0.729630      1.261051
  O      -1.334114     -0.016150      1.024261
  H      -1.924282     -0.359353      0.291456
  H      -2.555631      2.841692     -1.118869
  B      -2.162047      0.917827     -1.724122
  O      -2.659543      1.283542     -3.008828
  O      -2.656749     -0.351934     -1.178827
  H      -3.620303      1.216504     -3.047002
  H      -3.621385     -0.378491     -1.156777
  H      -0.367693     -0.059330     -1.966381
22
Coordinates from ORCA-job input E -2015.916336538504
  Co     -0.491723      1.698483      0.169872
  H      -0.990789      2.111199      2.768296
  H      -0.015891      3.774576     -1.469767
  H       1.815597      0.277295      0.472257
  O      -2.394582      1.994391     -0.686389
  O      -0.671365      0.826131     -1.734397
  H      -0.718262      3.513826      2.178361
  O      -0.484903      2.578231      2.086366
  H       1.060576      3.827607     -0.363853
  O       0.144896      3.562048     -0.538044
  H       1.706734      1.348264      1.586419
  O       1.465759      1.159465      0.666694
  H      -0.724874     -0.730099      1.260579
  O      -1.333721     -0.016144      1.024221
  H      -1.924180     -0.358411      0.291239
  H      -2.553852      2.842281     -1.120449
  B      -2.161484      0.917591     -1.724205
  O      -2.658341      1.282291     -3.009327
  O      -2.657597     -0.351308     -1.177883
  H      -3.619328      1.217806     -3.046526
  H      -3.622267     -0.375781     -1.154537
  H      -0.367247     -0.060732     -1.965479
22
Coordinates from ORCA-job input E -2015.916336951487
  Co     -0.491463      1.699059      0.169934
  H      -0.988632      2.106107      2.768252
  H      -0.014730      3.771736     -1.473054
  H       1.813156      0.276909      0.473112
  O      -2.393592      1.995195     -0.687811
  O      -0.671027      0.824616     -1.733208
  H      -0.720914      3.511815      2.183454
  O      -0.484773      2.577310      2.087682
  H       1.058178      3.831700     -0.364144
  O       0.143782      3.562939     -0.540089
  H       1.707201      1.350645      1.584912
  O       1.465680      1.160461      0.665598
  H      -0.725175     -0.730664      1.260495
  O      -1.333242     -0.015938      1.024494
  H      -1.924077     -0.357297      0.291453
  H      -2.551441      2.843019     -1.122517
  B      -2.160955      0.917240     -1.724451
  O      -2.657382      1.280826     -3.010071
  O      -2.658620     -0.350652     -1.177064
  H      -3.618567      1.218839     -3.046380
  H      -3.623330     -0.372715     -1.152447
  H      -0.366919     -0.062141     -1.964703
22
Coordinates from ORCA-job input E -2015.916336686462
  Co     -0.491326      1.699472      0.169821
  H      -0.986525      2.102574      2.768364
  H      -0.014931      3.770208     -1.474835
  H       1.811871      0.276545      0.473269
  O      -2.392809      1.995849     -0.689039
  O      -0.670840      0.823709     -1.732321
  H      -0.722454      3.510440      2.186896
  O      -0.484637      2.576664      2.088353
  H       1.056481      3.834522     -0.363784
  O       0.143071      3.563675     -0.541324
  H       1.707773      1.351858      1.583763
  O       1.465823      1.160888      0.664721
  H      -0.725973     -0.730836      1.260909
  O      -1.333204     -0.015410      1.024867
  H      -1.924346     -0.356378      0.291886
  H      -2.549659      2.843615     -1.124201
  B      -2.160580      0.916953     -1.724659
  O      -2.656718      1.279695     -3.010730
  O      -2.659232     -0.350220     -1.176538
  H      -3.617981      1.218967     -3.046850
  H      -3.623969     -0.370772     -1.151200
  H      -0.366679     -0.063010     -1.963918
22
Coordinates from ORCA-job input E -2015.916336442579
  Co     -0.491357      1.699721      0.169710
  H      -0.985092      2.100811      2.768556
  H      -0.015902      3.769614     -1.475426
  H       1.811626      0.276332      0.472874
  O      -2.392392      1.996245     -0.689728
  O      -0.670735      0.823378     -1.731849
  H      -0.722818      3.509742      2.188655
  O      -0.484538      2.576267      2.088531
  H       1.055464      3.835875     -0.363415
  O       0.142533      3.564156     -0.541799
  H       1.708416      1.352010      1.583105
  O       1.466138      1.160922      0.664180
  H      -0.726936     -0.730685      1.261616
  O      -1.333513     -0.014830      1.025174
  H      -1.924797     -0.355887      0.292273
  H      -2.548822      2.843993     -1.125060
  B      -2.160357      0.916841     -1.724785
  O      -2.656142      1.279148     -3.011186
  O      -2.659517     -0.349964     -1.176325
  H      -3.617383      1.218467     -3.047750
  H      -3.624269     -0.369803     -1.150589
  H      -0.366452     -0.063341     -1.963313
22
Coordinates from ORCA-job input E -2015.916336546534
  Co     -0.491508      1.699881      0.169731
  H      -0.984208      2.100004      2.768823
  H      -0.016942      3.769080     -1.475664
  H       1.811785      0.276275      0.472313
  O      -2.392221      1.996504     -0.690004
  O      -0.670619      0.823331     -1.731573
  H      -0.722564      3.509402      2.189669
  O      -0.484479      2.575991      2.088571
  H       1.054701      3.836426     -0.363405
  O       0.141907      3.564450     -0.541952
  H       1.709019      1.351735      1.582755
  O       1.466509      1.160897      0.663846
  H      -0.727827     -0.730528      1.262313
  O      -1.333887     -0.014393      1.025383
  H      -1.925245     -0.355654      0.292565
  H      -2.548526      2.844271     -1.125339
  B      -2.160197      0.916889     -1.724840
  O      -2.655527      1.279037     -3.011467
  O      -2.659679     -0.349726     -1.176261
  H      -3.616698      1.217732     -3.048754
  H      -3.624439     -0.369228     -1.150318
  H      -0.366199     -0.063364     -1.962942
22
Coordinates from ORCA-job input E -2015.916336559264
  Co     -0.491781      1.700093      0.169847
  H      -0.983539      2.099604      2.769207
  H      -0.017844      3.768342     -1.475764
  H       1.812052      0.276216      0.471476
  O      -2.392230      1.996886     -0.690133
  O      -0.670459      0.823634     -1.731341
  H      -0.721760      3.509189      2.190583
  O      -0.484395      2.575694      2.088606
  H       1.053989      3.836653     -0.363548
  O       0.141137      3.564736     -0.541855
  H       1.709542      1.351074      1.582438
  O       1.466891      1.160781      0.663459
  H      -0.728906     -0.730265      1.263212
  O      -1.334379     -0.013863      1.025588
  H      -1.925765     -0.355390      0.292877
  H      -2.548494      2.844641     -1.125502
  B      -2.160077      0.917090     -1.724812
  O      -2.654946      1.279051     -3.011626
  O      -2.659645     -0.349413     -1.176100
  H      -3.615990      1.216366     -3.049848
  H      -3.624409     -0.369142     -1.150520
  H      -0.365837     -0.062966     -1.962795
