22
Coordinates from ORCA-job input
  Co  -0.49178089494569      1.70009307483836      0.16984730312352
  H   -0.98353891333666      2.09960392149181      2.76920720907013
  H   -0.01784434492854      3.76834249745213     -1.47576403070102
  H   1.81205196286487      0.27621566199579      0.47147564224102
  O   -2.39223036835202      1.99688561726634     -0.69013263237362
  O   -0.67045927374040      0.82363416672984     -1.73134085676056
  H   -0.72175980116265      3.50918854614663      2.19058278323089
  O   -0.48439537896057      2.57569435185901      2.08860610701811
  H   1.05398909487080      3.83665251227291     -0.36354830508910
  O   0.14113737444020      3.56473604725960     -0.54185541879893
  H   1.70954165684086      1.35107367980597      1.58243771238951
  O   1.46689064054584      1.16078121168963      0.66345896398441
  H   -0.72890609411321     -0.73026480243406      1.26321222116638
  O   -1.33437872917355     -0.01386337972985      1.02558768195718
  H   -1.92576479435662     -0.35539028373492      0.29287694086435
  H   -2.54849435402903      2.84464101325991     -1.12550245397468
  B   -2.16007655880518      0.91709049249145     -1.72481205151587
  O   -2.65494593744700      1.27905057597051     -3.01162599051303
  O   -2.65964529810676     -0.34941303369394     -1.17609986255834
  H   -3.61598971786332      1.21636605610856     -3.04984750671351
  H   -3.62440852287162     -0.36914187191851     -1.15051959267080
  H   -0.36583650426967     -0.06296589862730     -1.96279488867600
