9
Coordinates from ORCA-job input
  B   -0.82143719267843      1.34989125570965     -0.45952146969184
  O   0.10381070940242      0.41058408516402      0.21451712647304
  H   0.81805444918368      0.23438330086100     -0.40654326521502
  O   -1.62845565361225      0.69272445509868     -1.49376292940077
  O   -1.69119079719260      1.89526835545164      0.60015160970671
  H   -2.11213663456532     -0.01406517912967     -1.05451026848488
  H   -1.23408619521797      1.76412928290024      1.43656105828244
  O   -0.07962802735676      2.40384720974362     -1.17225827281964
  H   0.28241661673725      2.99167846940079     -0.50181164825002
