23
Coordinates from ORCA-job input
  Co  -0.20502266346862      1.56868445456257      0.00333167646242
  O   -0.41995214253104      1.16948674428722     -2.03333484877542
  H   0.57796292522713      1.43238741959776      2.54578474357985
  H   2.38884264437276      1.93299757433838      0.23394997924592
  H   0.33663641701659     -0.99698092046281      0.30072875911673
  H   -0.01166870433385      4.18162886056919      0.35625723907709
  H   -0.50035485733446      3.98673113281574     -1.09917210251012
  O   0.02462685847067      3.57173600941116     -0.39693112421778
  H   -0.80696730725966      2.12082103653186      2.49763186739439
  O   0.01643314496391      2.00286175649686      1.99851888182781
  H   2.19728278891088      0.97187923437796     -0.95805143166799
  O   1.81890232855606      1.22278329919436     -0.10089244801857
  H   -0.87418109057963     -0.70473047906906      1.22248285398257
  O   -0.47861950210876     -0.47032639218862      0.36549024732323
  H   -2.65905553691105      2.59942959795234     -0.19571293367769
  O   -2.24888155250031      1.80674937585251      0.18440091618275
  H   -2.86088103548813      1.07761043471383     -0.00312666004581
  H   -0.00198970118978      1.79592409397355     -2.64582309020861
  B   -1.50600848462240      0.49117827248005     -2.60255778683067
  O   -2.10912450086327     -0.49981260495183     -1.91018097969809
  O   -1.90773085096451      0.88897960277591     -3.82891913275700
  H   -1.63379497190793     -0.75440167312313     -1.10015005479235
  H   -2.63293252365458      0.35847454336412     -4.18560053559261
