23
Coordinates from ORCA-job input E -2016.358372699733
  Co     -0.205023      1.568684      0.003332
  O      -0.419952      1.169487     -2.033335
  H       0.577963      1.432387      2.545785
  H       2.388843      1.932998      0.233950
  H       0.336636     -0.996981      0.300729
  H      -0.011669      4.181629      0.356257
  H      -0.500355      3.986731     -1.099172
  O       0.024627      3.571736     -0.396931
  H      -0.806967      2.120821      2.497632
  O       0.016433      2.002862      1.998519
  H       2.197283      0.971879     -0.958051
  O       1.818902      1.222783     -0.100892
  H      -0.874181     -0.704730      1.222483
  O      -0.478620     -0.470326      0.365490
  H      -2.659056      2.599430     -0.195713
  O      -2.248882      1.806749      0.184401
  H      -2.860881      1.077610     -0.003127
  H      -0.001990      1.795924     -2.645823
  B      -1.506008      0.491178     -2.602558
  O      -2.109125     -0.499813     -1.910181
  O      -1.907731      0.888980     -3.828919
  H      -1.633795     -0.754402     -1.100150
  H      -2.632933      0.358475     -4.185601
23
Coordinates from ORCA-job input E -2016.359064110260
  Co     -0.202185      1.562683      0.005261
  O      -0.414674      1.156585     -2.037122
  H       0.590489      1.463838      2.557392
  H       2.399136      1.943192      0.228925
  H       0.346657     -1.011836      0.307385
  H      -0.042951      4.188588      0.342187
  H      -0.487585      3.980839     -1.125574
  O       0.017733      3.572781     -0.404881
  H      -0.809646      2.119773      2.507814
  O       0.014108      2.015662      2.005910
  H       2.212071      0.956320     -0.945184
  O       1.829861      1.227336     -0.095531
  H      -0.861674     -0.720875      1.234987
  O      -0.467164     -0.483337      0.378159
  H      -2.669511      2.596083     -0.155240
  O      -2.254063      1.789780      0.189657
  H      -2.866034      1.066124     -0.019384
  H       0.015940      1.773710     -2.650606
  B      -1.509253      0.495559     -2.611370
  O      -2.132004     -0.485142     -1.921934
  O      -1.903535      0.905692     -3.836158
  H      -1.662673     -0.750689     -1.112069
  H      -2.639522      0.391425     -4.194501
23
Coordinates from ORCA-job input E -2016.359522663143
  Co     -0.207462      1.571622      0.004389
  O      -0.427555      1.177858     -2.058727
  H       0.604718      1.506564      2.584546
  H       2.424639      1.921512      0.230692
  H       0.286170     -1.049996      0.271978
  H      -0.036241      4.221453      0.347170
  H      -0.445491      4.028968     -1.131640
  O       0.029985      3.605518     -0.399529
  H      -0.811143      2.122561      2.541646
  O       0.009148      2.035711      2.030612
  H       2.229264      0.926951     -0.938741
  O       1.840578      1.219926     -0.099006
  H      -0.912174     -0.748349      1.210367
  O      -0.507447     -0.495092      0.363194
  H      -2.695560      2.641602     -0.083120
  O      -2.276868      1.815819      0.208689
  H      -2.903707      1.108501     -0.012533
  H      -0.021915      1.810045     -2.674543
  B      -1.497496      0.473640     -2.626568
  O      -2.042804     -0.557491     -1.944284
  O      -1.943341      0.889518     -3.831503
  H      -1.529745     -0.820256     -1.160682
  H      -2.662032      0.347509     -4.184281
23
Coordinates from ORCA-job input E -2016.359993691635
  Co     -0.195831      1.559477      0.003084
  O      -0.413230      1.153158     -2.062831
  H       0.615240      1.531642      2.593741
  H       2.439093      1.946425      0.221532
  H       0.325008     -1.063298      0.297137
  H      -0.083464      4.220736      0.332623
  H      -0.445405      4.015819     -1.155993
  O       0.012338      3.602202     -0.407860
  H      -0.811385      2.118855      2.545126
  O       0.009732      2.042303      2.034608
  H       2.257272      0.930805     -0.929956
  O       1.861692      1.236091     -0.098878
  H      -0.901782     -0.775046      1.199508
  O      -0.475003     -0.515382      0.366014
  H      -2.705172      2.600377     -0.051908
  O      -2.273131      1.772964      0.211990
  H      -2.892057      1.064034     -0.022686
  H       0.030851      1.753917     -2.682895
  B      -1.511326      0.495060     -2.631367
  O      -2.129584     -0.478661     -1.927012
  O      -1.904768      0.891992     -3.860669
  H      -1.660338     -0.728910     -1.112606
  H      -2.645227      0.379531     -4.212578
23
Coordinates from ORCA-job input E -2016.360185905191
  Co     -0.198038      1.560231      0.005101
  O      -0.413760      1.155364     -2.057358
  H       0.629186      1.547225      2.584348
  H       2.432330      1.951255      0.209798
  H       0.317676     -1.059952      0.288814
  H      -0.106743      4.216954      0.332664
  H      -0.428855      4.005828     -1.165510
  O       0.011696      3.597738     -0.404089
  H      -0.814111      2.096635      2.545304
  O       0.006436      2.043186      2.030873
  H       2.247424      0.912226     -0.920895
  O       1.854366      1.234251     -0.094832
  H      -0.890332     -0.764168      1.216001
  O      -0.479163     -0.508465      0.372627
  H      -2.694572      2.617590     -0.015982
  O      -2.270590      1.774403      0.208802
  H      -2.891409      1.081725     -0.066734
  H       0.020709      1.765602     -2.674720
  B      -1.508135      0.491363     -2.628093
  O      -2.121027     -0.492486     -1.933835
  O      -1.907781      0.897631     -3.852095
  H      -1.647347     -0.752291     -1.124692
  H      -2.644436      0.382246     -4.207372
23
Coordinates from ORCA-job input E -2016.360327364893
  Co     -0.197478      1.560737      0.004459
  O      -0.411144      1.156806     -2.056246
  H       0.646797      1.571914      2.576188
  H       2.431192      1.959096      0.196244
  H       0.307871     -1.062757      0.277501
  H      -0.136315      4.214815      0.335746
  H      -0.409092      4.002645     -1.173335
  O       0.008913      3.597459     -0.397806
  H      -0.817881      2.065430      2.547846
  O       0.001068      2.044410      2.028494
  H       2.245996      0.894230     -0.910926
  O       1.852255      1.236487     -0.093270
  H      -0.890563     -0.760557      1.215369
  O      -0.483853     -0.505112      0.369629
  H      -2.688021      2.626044      0.027800
  O      -2.267759      1.769261      0.203570
  H      -2.889636      1.094758     -0.112771
  H       0.019841      1.769671     -2.673530
  B      -1.504559      0.489385     -2.624393
  O      -2.120488     -0.489191     -1.925293
  O      -1.905408      0.891882     -3.849109
  H      -1.646250     -0.748259     -1.115739
  H      -2.641965      0.374936     -4.202304
23
Coordinates from ORCA-job input E -2016.360482107391
  Co     -0.195097      1.560791      0.003295
  O      -0.405810      1.154555     -2.057016
  H       0.669463      1.614469      2.568799
  H       2.434026      1.971259      0.175134
  H       0.293531     -1.071280      0.269512
  H      -0.166580      4.212999      0.339466
  H      -0.390834      4.003699     -1.178814
  O       0.004466      3.599183     -0.391320
  H      -0.819812      2.029659      2.553356
  O      -0.005462      2.051469      2.026965
  H       2.249815      0.868567     -0.894835
  O       1.853486      1.241484     -0.092082
  H      -0.896407     -0.758163      1.213741
  O      -0.489961     -0.503386      0.367805
  H      -2.687391      2.621235      0.058216
  O      -2.264745      1.759268      0.199071
  H      -2.887198      1.094426     -0.136432
  H       0.029169      1.763499     -2.675412
  B      -1.504137      0.493626     -2.621694
  O      -2.127230     -0.477099     -1.917441
  O      -1.900817      0.891048     -3.849296
  H      -1.649282     -0.743386     -1.112049
  H      -2.639669      0.376168     -4.200843
23
Coordinates from ORCA-job input E -2016.360663328353
  Co     -0.190046      1.560217      0.000512
  O      -0.397004      1.149487     -2.059551
  H       0.691238      1.667656      2.560387
  H       2.439515      1.987149      0.150808
  H       0.278332     -1.083636      0.265921
  H      -0.194035      4.208687      0.346176
  H      -0.375499      4.008131     -1.179450
  O       0.000163      3.601175     -0.383877
  H      -0.820791      1.988423      2.557782
  O      -0.014349      2.060781      2.024045
  H       2.259378      0.842162     -0.874380
  O       1.857579      1.250130     -0.091809
  H      -0.908735     -0.755741      1.206811
  O      -0.495338     -0.502667      0.363912
  H      -2.689420      2.604762      0.067769
  O      -2.259566      1.743924      0.191045
  H      -2.881009      1.079222     -0.146595
  H       0.046595      1.749697     -2.680367
  B      -1.504384      0.500885     -2.618514
  O      -2.141535     -0.453282     -1.903153
  O      -1.896232      0.892073     -3.849480
  H      -1.659484     -0.729008     -1.103354
  H      -2.641850      0.383866     -4.196514
23
Coordinates from ORCA-job input E -2016.360805813358
  Co     -0.184678      1.558006     -0.001442
  O      -0.388723      1.141364     -2.061512
  H       0.707466      1.721753      2.553163
  H       2.444428      2.006322      0.125125
  H       0.269613     -1.097023      0.269370
  H      -0.218082      4.202433      0.349991
  H      -0.361292      4.010245     -1.180839
  O      -0.002606      3.600797     -0.378864
  H      -0.820710      1.949782      2.561733
  O      -0.024612      2.070038      2.021281
  H       2.270594      0.817553     -0.849855
  O       1.862623      1.260981     -0.090240
  H      -0.916200     -0.754189      1.204714
  O      -0.495522     -0.504426      0.364399
  H      -2.691393      2.586743      0.074347
  O      -2.254738      1.727507      0.182572
  H      -2.874086      1.063671     -0.160399
  H       0.065568      1.730875     -2.684755
  B      -1.507705      0.509670     -2.615891
  O      -2.159262     -0.430191     -1.893511
  O      -1.894901      0.899617     -3.848517
  H      -1.673559     -0.718668     -1.100616
  H      -2.648701      0.401233     -4.192128
23
Coordinates from ORCA-job input E -2016.360916053974
  Co     -0.180945      1.555712     -0.002144
  O      -0.382335      1.134583     -2.062602
  H       0.716982      1.767584      2.547610
  H       2.446398      2.030189      0.089849
  H       0.265928     -1.108721      0.273658
  H      -0.239335      4.196174      0.351246
  H      -0.344152      4.010750     -1.183313
  O      -0.002465      3.599340     -0.374977
  H      -0.821169      1.915483      2.565759
  O      -0.035885      2.075511      2.019652
  H       2.279023      0.788214     -0.817696
  O       1.866409      1.273405     -0.086713
  H      -0.920029     -0.754068      1.203002
  O      -0.492778     -0.507413      0.365083
  H      -2.693055      2.573689      0.079593
  O      -2.251908      1.715323      0.175399
  H      -2.869192      1.053494     -0.175196
  H       0.081205      1.714792     -2.687703
  B      -1.510132      0.516246     -2.613998
  O      -2.171209     -0.414185     -1.887229
  O      -1.897301      0.909746     -3.845277
  H      -1.682023     -0.712284     -1.100136
  H      -2.658510      0.420528     -4.185745
23
Coordinates from ORCA-job input E -2016.361029168226
  Co     -0.178218      1.552829     -0.001651
  O      -0.377614      1.127507     -2.063106
  H       0.718076      1.802604      2.545289
  H       2.445495      2.060609      0.042197
  H       0.268685     -1.120661      0.280884
  H      -0.253136      4.189439      0.350211
  H      -0.325370      4.010044     -1.186164
  O       0.002240      3.596454     -0.373079
  H      -0.825295      1.890209      2.569003
  O      -0.048702      2.077746      2.019052
  H       2.286868      0.755817     -0.774705
  O       1.870002      1.290070     -0.081343
  H      -0.919616     -0.755839      1.201999
  O      -0.485351     -0.512767      0.366644
  H      -2.695560      2.562883      0.073570
  O      -2.251024      1.706335      0.169741
  H      -2.865779      1.042811     -0.182154
  H       0.095853      1.697723     -2.689872
  B      -1.514008      0.522991     -2.612561
  O      -2.179964     -0.403891     -1.884911
  O      -1.904551      0.925396     -3.839663
  H      -1.686342     -0.710158     -1.103844
  H      -2.673165      0.445943     -4.177413
23
Coordinates from ORCA-job input E -2016.361135314056
  Co     -0.179535      1.551099      0.000247
  O      -0.377309      1.124877     -2.062369
  H       0.717436      1.830795      2.541723
  H       2.439018      2.089528     -0.007295
  H       0.273574     -1.128787      0.286143
  H      -0.257593      4.184557      0.346664
  H      -0.300798      4.007861     -1.190264
  O       0.013280      3.592976     -0.372390
  H      -0.829374      1.860286      2.574586
  O      -0.062992      2.073460      2.019678
  H       2.288804      0.726325     -0.726701
  O       1.869569      1.307502     -0.073622
  H      -0.917255     -0.757039      1.200987
  O      -0.478230     -0.517563      0.367031
  H      -2.697243      2.563937      0.064640
  O      -2.254244      1.707012      0.165754
  H      -2.867291      1.043418     -0.189195
  H       0.100176      1.691245     -2.689487
  B      -1.516728      0.525009     -2.611413
  O      -2.175691     -0.410881     -1.888514
  O      -1.917799      0.940932     -3.830429
  H      -1.676589     -0.717993     -1.111126
  H      -2.689663      0.465534     -4.166525
23
Coordinates from ORCA-job input E -2016.361204986617
  Co     -0.183300      1.550892      0.002280
  O      -0.379336      1.127601     -2.060809
  H       0.719776      1.863610      2.534206
  H       2.430167      2.110098     -0.052100
  H       0.274377     -1.132916      0.284130
  H      -0.258866      4.181973      0.343475
  H      -0.272587      4.005568     -1.193813
  O       0.026111      3.590435     -0.370257
  H      -0.828032      1.819115      2.583202
  O      -0.077532      2.065007      2.020471
  H       2.286154      0.701398     -0.681472
  O       1.866189      1.321511     -0.065821
  H      -0.914852     -0.755961      1.199574
  O      -0.475487     -0.519339      0.364845
  H      -2.698567      2.568814      0.057714
  O      -2.259121      1.710249      0.161198
  H      -2.870304      1.048030     -0.199803
  H       0.096112      1.696665     -2.686997
  B      -1.517623      0.524940     -2.609300
  O      -2.165712     -0.422248     -1.891257
  O      -1.929197      0.949314     -3.821936
  H      -1.664234     -0.722950     -1.112578
  H      -2.700616      0.472285     -4.156830
23
Coordinates from ORCA-job input E -2016.361258477391
  Co     -0.186883      1.550799      0.004057
  O      -0.381168      1.131163     -2.059594
  H       0.722497      1.903970      2.525790
  H       2.422430      2.124933     -0.096684
  H       0.272465     -1.136650      0.282495
  H      -0.257861      4.181668      0.340759
  H      -0.245487      4.004477     -1.196689
  O       0.037957      3.589252     -0.367793
  H      -0.821124      1.775774      2.594641
  O      -0.091344      2.057186      2.021704
  H       2.285038      0.679182     -0.637202
  O       1.863836      1.333439     -0.059047
  H      -0.914430     -0.754308      1.199032
  O      -0.475019     -0.520285      0.363533
  H      -2.701843      2.568442      0.048795
  O      -2.264145      1.709558      0.156585
  H      -2.872919      1.046230     -0.206238
  H       0.090675      1.704889     -2.684250
  B      -1.518432      0.526193     -2.607590
  O      -2.158646     -0.429769     -1.894154
  O      -1.937054      0.956329     -3.815975
  H      -1.657095     -0.726323     -1.113772
  H      -2.707924      0.477944     -4.150277
23
Coordinates from ORCA-job input E -2016.361291435481
  Co     -0.190971      1.550869      0.006384
  O      -0.383568      1.136023     -2.057917
  H       0.723386      1.940621      2.518152
  H       2.412957      2.137651     -0.150043
  H       0.271064     -1.138589      0.284878
  H      -0.251696      4.184469      0.337964
  H      -0.218818      4.003916     -1.199296
  O       0.050278      3.589114     -0.365417
  H      -0.811076      1.735862      2.609205
  O      -0.103763      2.047766      2.024214
  H       2.284939      0.658439     -0.590857
  O       1.862405      1.345722     -0.053401
  H      -0.915377     -0.752068      1.200314
  O      -0.475226     -0.520628      0.364443
  H      -2.707356      2.563664      0.034332
  O      -2.270225      1.705967      0.152771
  H      -2.876090      1.038258     -0.206346
  H       0.083339      1.716467     -2.680082
  B      -1.519058      0.528390     -2.606664
  O      -2.153543     -0.435494     -1.899055
  O      -1.941664      0.963285     -3.812289
  H      -1.654825     -0.729414     -1.115969
  H      -2.711590      0.483804     -4.147197
23
Coordinates from ORCA-job input E -2016.361307899758
  Co     -0.194114      1.551182      0.008423
  O      -0.385760      1.140588     -2.056084
  H       0.725932      1.948645      2.515377
  H       2.405272      2.143620     -0.181394
  H       0.269083     -1.136782      0.289450
  H      -0.244247      4.189851      0.336579
  H      -0.206429      4.003908     -1.200387
  O       0.055973      3.590278     -0.363835
  H      -0.804060      1.723043      2.620507
  O      -0.106418      2.041069      2.027293
  H       2.284586      0.650894     -0.573575
  O       1.862162      1.351058     -0.052859
  H      -0.918521     -0.750348      1.203311
  O      -0.478078     -0.519650      0.367379
  H      -2.712024      2.558359      0.027199
  O      -2.274594      1.701810      0.152417
  H      -2.879097      1.031302     -0.203374
  H       0.077190      1.726793     -2.675826
  B      -1.518171      0.529365     -2.607205
  O      -2.152054     -0.437153     -1.903153
  O      -1.938490      0.963894     -3.814034
  H      -1.658080     -0.730508     -1.117109
  H      -2.706537      0.482877     -4.150976
23
Coordinates from ORCA-job input E -2016.361325832012
  Co     -0.197771      1.551404      0.010867
  O      -0.388166      1.146105     -2.053271
  H       0.734577      1.943661      2.512784
  H       2.395292      2.149105     -0.202170
  H       0.262503     -1.132587      0.296332
  H      -0.238015      4.198215      0.335785
  H      -0.198626      4.003792     -1.200490
  O       0.057458      3.592273     -0.360998
  H      -0.793511      1.721354      2.634339
  O      -0.101984      2.034600      2.031457
  H       2.283761      0.651527     -0.576671
  O       1.862112      1.352541     -0.056342
  H      -0.927656     -0.748529      1.207498
  O      -0.486426     -0.517301      0.372173
  H      -2.716923      2.551898      0.030834
  O      -2.278688      1.695435      0.154054
  H      -2.883223      1.025978     -0.203538
  H       0.071668      1.737824     -2.670134
  B      -1.515269      0.529298     -2.608889
  O      -2.152971     -0.435251     -1.906322
  O      -1.927159      0.958143     -3.820834
  H      -1.665526     -0.729912     -1.116972
  H      -2.691936      0.474518     -4.161368
23
Coordinates from ORCA-job input E -2016.361338250377
  Co     -0.199938      1.550731      0.012454
  O      -0.389493      1.147774     -2.051113
  H       0.742330      1.933623      2.510900
  H       2.387439      2.155011     -0.202518
  H       0.256953     -1.131023      0.301617
  H      -0.235659      4.202161      0.335786
  H      -0.196686      4.002720     -1.199527
  O       0.056716      3.592133     -0.358727
  H      -0.786566      1.726513      2.641787
  O      -0.095891      2.031429      2.033674
  H       2.283495      0.660591     -0.591896
  O       1.861616      1.352849     -0.060121
  H      -0.936212     -0.748570      1.209146
  O      -0.493017     -0.516710      0.375091
  H      -2.718683      2.549670      0.036775
  O      -2.280406      1.692592      0.155794
  H      -2.886084      1.025973     -0.205290
  H       0.072616      1.738620     -2.667130
  B      -1.513663      0.528751     -2.610203
  O      -2.155177     -0.432497     -1.906767
  O      -1.918541      0.952462     -3.826187
  H      -1.670211     -0.728217     -1.116338
  H      -2.681417      0.467504     -4.169081
23
Coordinates from ORCA-job input E -2016.361352898807
  Co     -0.203152      1.548580      0.015055
  O      -0.390735      1.147688     -2.047563
  H       0.752513      1.927126      2.506047
  H       2.372303      2.168932     -0.207201
  H       0.248601     -1.132885      0.307542
  H      -0.234690      4.204458      0.335395
  H      -0.188398      3.999307     -1.198029
  O       0.057722      3.589361     -0.354665
  H      -0.775742      1.726860      2.651880
  O      -0.089664      2.026477      2.036052
  H       2.284458      0.675786     -0.606456
  O       1.859911      1.358175     -0.064155
  H      -0.947593     -0.749956      1.210379
  O      -0.501168     -0.518007      0.378122
  H      -2.720184      2.548043      0.042681
  O      -2.282697      1.689807      0.156762
  H      -2.889938      1.027544     -0.209974
  H       0.078961      1.732699     -2.663404
  B      -1.512480      0.528348     -2.611259
  O      -2.159155     -0.428215     -1.905949
  O      -1.909368      0.947157     -3.831172
  H      -1.675152     -0.725029     -1.115249
  H      -2.670832      0.461837     -4.176714
23
Coordinates from ORCA-job input E -2016.361366809865
  Co     -0.206441      1.545805      0.017951
  O      -0.391725      1.145294     -2.043924
  H       0.762109      1.924938      2.500713
  H       2.356215      2.184444     -0.205804
  H       0.240096     -1.137854      0.308210
  H      -0.236667      4.204222      0.334218
  H      -0.178395      3.994416     -1.197324
  O       0.058646      3.585020     -0.350998
  H      -0.765159      1.724436      2.660000
  O      -0.084227      2.022861      2.038002
  H       2.285181      0.694224     -0.620967
  O       1.857095      1.364694     -0.066758
  H      -0.955290     -0.753248      1.211469
  O      -0.508028     -0.521055      0.379728
  H      -2.720225      2.550748      0.051184
  O      -2.284849      1.690501      0.158352
  H      -2.893896      1.033722     -0.215398
  H       0.087976      1.721352     -2.660460
  B      -1.512123      0.527285     -2.611979
  O      -2.163490     -0.425530     -1.905361
  O      -1.901999      0.942778     -3.834807
  H      -1.679286     -0.722247     -1.114569
  H      -2.661996      0.457285     -4.183355
23
Coordinates from ORCA-job input E -2016.361378161177
  Co     -0.207539      1.543956      0.019471
  O      -0.390976      1.142008     -2.042106
  H       0.765833      1.930679      2.497615
  H       2.347518      2.194011     -0.207557
  H       0.235698     -1.143187      0.304158
  H      -0.241042      4.202329      0.333172
  H      -0.170499      3.991382     -1.197655
  O       0.058937      3.582155     -0.349147
  H      -0.759747      1.718440      2.662885
  O      -0.083219      2.022017      2.038632
  H       2.287005      0.702821     -0.621892
  O       1.855627      1.370221     -0.066555
  H      -0.956857     -0.756367      1.210494
  O      -0.510031     -0.523858      0.378602
  H      -2.719646      2.552493      0.053914
  O      -2.285356      1.691411      0.158494
  H      -2.894645      1.036169     -0.217588
  H       0.095015      1.711639     -2.659664
  B      -1.512419      0.527083     -2.611344
  O      -2.168038     -0.422052     -1.903215
  O      -1.899167      0.941917     -3.835180
  H      -1.683507     -0.718839     -1.112524
  H      -2.659423      0.457664     -4.184889
23
Coordinates from ORCA-job input E -2016.361388917422
  Co     -0.207991      1.542922      0.020601
  O      -0.390168      1.138800     -2.041077
  H       0.767595      1.935182      2.496737
  H       2.343572      2.198614     -0.204789
  H       0.233713     -1.146860      0.298734
  H      -0.244307      4.201128      0.331910
  H      -0.167011      3.989565     -1.198993
  O       0.058020      3.580751     -0.349145
  H      -0.757055      1.714661      2.663538
  O      -0.082605      2.022754      2.039251
  H       2.288030      0.708127     -0.622632
  O       1.854816      1.372681     -0.065326
  H      -0.955403     -0.759236      1.209694
  O      -0.510296     -0.525965      0.377097
  H      -2.718820      2.555400      0.055452
  O      -2.285592      1.693793      0.159524
  H      -2.894666      1.038558     -0.216770
  H       0.098546      1.705214     -2.659438
  B      -1.512894      0.526634     -2.610614
  O      -2.171518     -0.420666     -1.902621
  O      -1.897508      0.941803     -3.835026
  H      -1.687259     -0.718124     -1.111976
  H      -2.657677      0.458357     -4.186005
23
Coordinates from ORCA-job input E -2016.361395674658
  Co     -0.208031      1.542346      0.021463
  O      -0.388979      1.136475     -2.040276
  H       0.768561      1.939143      2.496432
  H       2.340977      2.201381     -0.206638
  H       0.232732     -1.148763      0.295277
  H      -0.246843      4.201038      0.330862
  H      -0.164329      3.988746     -1.200248
  O       0.056981      3.580424     -0.349245
  H      -0.754914      1.710643      2.664272
  O      -0.082510      2.023010      2.039888
  H       2.289279      0.709731     -0.620250
  O       1.854819      1.374423     -0.064063
  H      -0.954809     -0.761041      1.208444
  O      -0.510332     -0.527031      0.375729
  H      -2.718510      2.556038      0.053563
  O      -2.285594      1.694586      0.159730
  H      -2.893806      1.037958     -0.215436
  H       0.100095      1.702218     -2.658977
  B      -1.512944      0.526622     -2.609554
  O      -2.174712     -0.418296     -1.901370
  O      -1.895901      0.942066     -3.834515
  H      -1.691207     -0.717361     -1.110901
  H      -2.656500      0.459735     -4.186065
23
Coordinates from ORCA-job input E -2016.361400686283
  Co     -0.208011      1.542104      0.022161
  O      -0.388085      1.134729     -2.039696
  H       0.769676      1.938366      2.497026
  H       2.340053      2.201847     -0.204203
  H       0.232467     -1.148801      0.293336
  H      -0.248171      4.201836      0.329955
  H      -0.165068      3.988504     -1.201376
  O       0.055145      3.580721     -0.349872
  H      -0.753805      1.710165      2.664435
  O      -0.081319      2.023384      2.040535
  H       2.289581      0.711584     -0.622330
  O       1.855087      1.373869     -0.063276
  H      -0.954304     -0.762168      1.208017
  O      -0.510631     -0.527283      0.375121
  H      -2.718095      2.557022      0.052091
  O      -2.285527      1.695686      0.160390
  H      -2.893004      1.038193     -0.214413
  H       0.100141      1.701185     -2.658435
  B      -1.512796      0.526327     -2.608865
  O      -2.176736     -0.417032     -1.900845
  O      -1.894180      0.941709     -3.834470
  H      -1.693936     -0.717875     -1.110670
  H      -2.654957      0.460019     -4.186493
23
Coordinates from ORCA-job input E -2016.361401780987
  Co     -0.207998      1.541980      0.022660
  O      -0.387451      1.133916     -2.039321
  H       0.770135      1.936781      2.497521
  H       2.339170      2.202216     -0.205539
  H       0.232776     -1.148069      0.293709
  H      -0.248509      4.202828      0.329370
  H      -0.165447      3.988641     -1.201861
  O       0.054273      3.581103     -0.350121
  H      -0.753316      1.709595      2.664870
  O      -0.080775      2.022844      2.041020
  H       2.289810      0.711692     -0.622342
  O       1.855536      1.373741     -0.062817
  H      -0.954458     -0.762396      1.208004
  O      -0.510819     -0.527097      0.375200
  H      -2.718025      2.556862      0.049117
  O      -2.285556      1.695837      0.160361
  H      -2.892234      1.037595     -0.214469
  H       0.099885      1.701399     -2.657842
  B      -1.512656      0.526367     -2.608387
  O      -2.177575     -0.416122     -1.900284
  O      -1.893472      0.941825     -3.834205
  H      -1.695018     -0.718232     -1.110481
  H      -2.654753      0.460787     -4.186040
23
Coordinates from ORCA-job input E -2016.361402213335
  Co     -0.207886      1.541889      0.022877
  O      -0.387002      1.133340     -2.039258
  H       0.770227      1.934295      2.498021
  H       2.339051      2.202054     -0.205072
  H       0.233211     -1.147253      0.294222
  H      -0.249086      4.203365      0.329021
  H      -0.166530      3.988838     -1.201989
  O       0.053444      3.581314     -0.350297
  H      -0.753618      1.710070      2.664584
  O      -0.080283      2.022471      2.041148
  H       2.289730      0.711966     -0.623437
  O       1.855884      1.373238     -0.062649
  H      -0.954182     -0.762337      1.208443
  O      -0.510868     -0.526813      0.375517
  H      -2.717721      2.557031      0.047651
  O      -2.285410      1.696076      0.160299
  H      -2.891551      1.037959     -0.215715
  H       0.100104      1.701198     -2.657622
  B      -1.512567      0.526302     -2.608232
  O      -2.177742     -0.415733     -1.899775
  O      -1.893443      0.941836     -3.833979
  H      -1.694955     -0.718336     -1.110300
  H      -2.655285      0.461319     -4.185333
23
Coordinates from ORCA-job input E -2016.361402271899
  Co     -0.207768      1.541773      0.022992
  O      -0.386701      1.132901     -2.039349
  H       0.769914      1.932644      2.498370
  H       2.338983      2.202195     -0.205502
  H       0.233695     -1.146805      0.294702
  H      -0.249680      4.203497      0.328796
  H      -0.166932      3.988982     -1.201962
  O       0.053070      3.581320     -0.350329
  H      -0.754214      1.710112      2.664178
  O      -0.080285      2.022047      2.041141
  H       2.289698      0.711941     -0.623469
  O       1.856142      1.373283     -0.062538
  H      -0.953673     -0.762223      1.208980
  O      -0.510661     -0.526667      0.375891
  H      -2.717445      2.557160      0.046634
  O      -2.285298      1.696215      0.160183
  H      -2.890964      1.038356     -0.217126
  H       0.100795      1.700527     -2.657618
  B      -1.512650      0.526376     -2.608192
  O      -2.177735     -0.415514     -1.899344
  O      -1.893920      0.942072     -3.833695
  H      -1.694533     -0.718124     -1.110107
  H      -2.656317      0.462025     -4.184513
