7
Coordinates from ORCA-job input E -252.115274123382
  B      -0.516381      1.999847     -0.258739
  O      -1.058534      3.364135     -0.370007
  H      -1.459351      3.571864      0.511779
  O       0.594802      1.978621      0.703954
  O      -1.570511      1.073607      0.180640
  H       1.401585      2.161316      0.159302
  H      -1.536933      0.329427     -0.472044
7
Coordinates from ORCA-job input E -252.147008983646
  B      -0.548445      2.022383     -0.165263
  O      -1.055577      3.354491     -0.367778
  H      -1.465756      3.603667      0.479215
  O       0.604221      1.950599      0.691841
  O      -1.561756      1.058726      0.172855
  H       1.383715      2.148501      0.133538
  H      -1.501726      0.340450     -0.489524
7
Coordinates from ORCA-job input E -252.168634320935
  B      -0.574496      2.039669     -0.087551
  O      -1.043856      3.328851     -0.361714
  H      -1.469988      3.627271      0.455647
  O       0.593332      1.923713      0.667193
  O      -1.542060      1.062979      0.161467
  H       1.362550      2.144008      0.116612
  H      -1.470806      0.352326     -0.496769
7
Coordinates from ORCA-job input E -252.181476001318
  B      -0.598694      2.047331     -0.015694
  O      -1.035792      3.318389     -0.351301
  H      -1.478866      3.679516      0.432008
  O       0.600357      1.886433      0.642890
  O      -1.540223      1.050300      0.146339
  H       1.360716      2.156981      0.106464
  H      -1.452821      0.339867     -0.505820
7
Coordinates from ORCA-job input E -252.189358875979
  B      -0.620191      2.044106      0.038784
  O      -1.024330      3.313062     -0.335973
  H      -1.473688      3.734544      0.411267
  O       0.607837      1.840769      0.611302
  O      -1.550868      1.035204      0.128131
  H       1.353555      2.194148      0.107586
  H      -1.437640      0.316984     -0.506213
7
Coordinates from ORCA-job input E -252.194674223727
  B      -0.635388      2.036574      0.068691
  O      -1.009715      3.309649     -0.320488
  H      -1.460590      3.773924      0.398220
  O       0.612391      1.791603      0.569712
  O      -1.568922      1.031489      0.108470
  H       1.338792      2.243481      0.122750
  H      -1.421892      0.292096     -0.492469
7
Coordinates from ORCA-job input E -252.198979408341
  B      -0.646012      2.029960      0.079018
  O      -0.993496      3.311686     -0.305603
  H      -1.446816      3.801183      0.393410
  O       0.614117      1.745182      0.521036
  O      -1.590054      1.035978      0.084202
  H       1.317884      2.288774      0.146793
  H      -1.400946      0.266054     -0.463972
7
Coordinates from ORCA-job input E -252.202840907169
  B      -0.653640      2.025553      0.076204
  O      -0.975762      3.318329     -0.290189
  H      -1.435201      3.820331      0.394751
  O       0.612246      1.703647      0.468100
  O      -1.610249      1.045825      0.053230
  H       1.291051      2.324112      0.174761
  H      -1.373767      0.241021     -0.421972
7
Coordinates from ORCA-job input E -252.206307384072
  B      -0.658497      2.024236      0.063195
  O      -0.957557      3.329150     -0.273638
  H      -1.431508      3.831151      0.400558
  O       0.609356      1.667899      0.414372
  O      -1.627942      1.060163      0.013359
  H       1.264208      2.345835      0.203435
  H      -1.343384      0.220383     -0.366397
7
Coordinates from ORCA-job input E -252.209380569296
  B      -0.659993      2.026280      0.043184
  O      -0.939107      3.343117     -0.254845
  H      -1.441752      3.831203      0.408071
  O       0.607997      1.638906      0.363531
  O      -1.641151      1.077923     -0.035883
  H       1.244856      2.352876      0.229701
  H      -1.316173      0.208511     -0.298875
7
Coordinates from ORCA-job input E -252.212020981015
  B      -0.654402      2.030940      0.019154
  O      -0.918818      3.358111     -0.232649
  H      -1.472943      3.814768      0.410572
  O       0.613495      1.615473      0.312000
  O      -1.647410      1.100205     -0.083479
  H       1.238979      2.349808      0.257442
  H      -1.304223      0.209513     -0.228155
7
Coordinates from ORCA-job input E -252.214385744294
  B      -0.642293      2.038238     -0.000395
  O      -0.895117      3.374139     -0.201974
  H      -1.525588      3.785055      0.400621
  O       0.625115      1.598399      0.263589
  O      -1.647528      1.124544     -0.123084
  H       1.247881      2.336962      0.280363
  H      -1.307793      0.221480     -0.164235
7
Coordinates from ORCA-job input E -252.216648624455
  B      -0.626902      2.047156     -0.014067
  O      -0.869473      3.389789     -0.161221
  H      -1.587136      3.744905      0.376131
  O       0.639945      1.587833      0.219378
  O      -1.645139      1.149360     -0.150557
  H       1.265385      2.320059      0.297612
  H      -1.322004      0.239715     -0.112391
7
Coordinates from ORCA-job input E -252.218848635327
  B      -0.611180      2.056663     -0.020169
  O      -0.844169      3.403522     -0.109114
  H      -1.647742      3.698826      0.335941
  O       0.655299      1.583878      0.180348
  O      -1.642505      1.173636     -0.164565
  H       1.287489      2.302797      0.307975
  H      -1.342517      0.259496     -0.075532
7
Coordinates from ORCA-job input E -252.220829463778
  B      -0.597799      2.065520     -0.014962
  O      -0.823451      3.414338     -0.044665
  H      -1.700500      3.655249      0.278879
  O       0.669272      1.584159      0.147802
  O      -1.640532      1.195898     -0.165000
  H       1.311442      2.286802      0.308914
  H      -1.363756      0.276852     -0.056084
7
Coordinates from ORCA-job input E -252.222274313626
  B      -0.589164      2.071346      0.001391
  O      -0.811398      3.419942      0.029799
  H      -1.737661      3.626781      0.208638
  O       0.680318      1.584423      0.118139
  O      -1.639959      1.212856     -0.154326
  H       1.329707      2.274270      0.302840
  H      -1.377168      0.289199     -0.051597
7
Coordinates from ORCA-job input E -252.222972963819
  B      -0.585869      2.073803      0.025584
  O      -0.808734      3.419295      0.109420
  H      -1.754233      3.615173      0.130791
  O       0.686736      1.585816      0.092918
  O      -1.641590      1.222253     -0.134058
  H       1.340955      2.267577      0.290414
  H      -1.382589      0.294900     -0.060185
7
Coordinates from ORCA-job input E -252.223103852532
  B      -0.586851      2.072380      0.039778
  O      -0.809361      3.417440      0.133982
  H      -1.753236      3.620263      0.103292
  O       0.686263      1.584833      0.093881
  O      -1.643249      1.221373     -0.119563
  H       1.341667      2.269324      0.278091
  H      -1.380557      0.293205     -0.074577
7
Coordinates from ORCA-job input E -252.223234480356
  B      -0.589266      2.069770      0.057204
  O      -0.810053      3.415117      0.149788
  H      -1.748992      3.629510      0.079776
  O       0.683853      1.581669      0.108199
  O      -1.645929      1.217998     -0.096208
  H       1.340356      2.273720      0.257706
  H      -1.375292      0.291033     -0.101580
7
Coordinates from ORCA-job input E -252.223294343005
  B      -0.591179      2.067878      0.068798
  O      -0.810111      3.413699      0.150771
  H      -1.746278      3.635686      0.071189
  O       0.681516      1.578599      0.128840
  O      -1.647552      1.215003     -0.078183
  H       1.339194      2.276946      0.238836
  H      -1.370914      0.291005     -0.125366
7
Coordinates from ORCA-job input E -252.223302817217
  B      -0.591602      2.067729      0.070002
  O      -0.809781      3.413650      0.146628
  H      -1.746334      3.636160      0.073857
  O       0.680678      1.577686      0.137754
  O      -1.647821      1.214722     -0.076277
  H       1.339259      2.277320      0.233084
  H      -1.369723      0.291551     -0.130163
7
Coordinates from ORCA-job input E -252.223304593848
  B      -0.591648      2.067879      0.069057
  O      -0.809615      3.413755      0.144996
  H      -1.746612      3.635660      0.076127
  O       0.680396      1.577332      0.139992
  O      -1.647872      1.215126     -0.078293
  H       1.339241      2.277148      0.232069
  H      -1.369214      0.291918     -0.129064
7
Coordinates from ORCA-job input E -252.223305024521
  B      -0.591662      2.067969      0.068517
  O      -0.809566      3.413773      0.145275
  H      -1.746684      3.635304      0.076730
  O       0.680200      1.577095      0.140831
  O      -1.647916      1.215457     -0.080215
  H       1.339121      2.277044      0.231380
  H      -1.368816      0.292175     -0.127634
7
Coordinates from ORCA-job input E -252.223304887589
  B      -0.591682      2.067974      0.068580
  O      -0.809609      3.413739      0.146219
  H      -1.746623      3.635276      0.076230
  O       0.680102      1.576977      0.141047
  O      -1.647948      1.215549     -0.080902
  H       1.339026      2.277031      0.230839
  H      -1.368591      0.292271     -0.127128
