7
Coordinates from ORCA-job input
  B   -0.59168171767199      2.06797361927727      0.06858014180095
  O   -0.80960850513445      3.41373903931146      0.14621917536994
  H   -1.74662263952911      3.63527626077303      0.07622961937418
  O   0.68010198563240      1.57697726225182      0.14104703175976
  O   -1.64794778240693      1.21554886943028     -0.08090180556318
  H   1.33902605879923      2.27703144126379      0.23083880044526
  H   -1.36859107368915      0.29227080779234     -0.12712841638691
