22
Coordinates from ORCA-job input
  Ni  -0.45129306552902      0.73909312170846      0.16503689098988
  O   -0.38517295801910      0.23187712533905     -1.83507357982631
  H   -1.00421940173546      3.11655235260542     -0.70824837956121
  H   -0.51589317203312      2.12275434194144      2.38612840874072
  O   -2.33162120266718      0.80241819803271     -0.70348907532628
  H   1.94843857591970      1.12976097081560      1.22846981775988
  H   0.53714746913677      3.09261678882267     -0.61637712673522
  O   -0.26712734138558      2.77609668989746     -0.17766882091635
  H   2.18053601862838      0.59250321910684     -0.19980636593178
  O   1.57250512050591      0.54441323254137      0.55345435217319
  H   -0.50522130628776      0.63675573396488      2.81754643827978
  O   -0.82311663844512      1.24004466999261      2.12910118370081
  H   0.08744099328157     -1.75728332002477      0.55508479511837
  O   -0.74305635155852     -1.26254572291107      0.60971772078920
  H   -1.29462912385148     -1.56643838244055     -0.16568872018484
  B   -1.88256573053839     -0.00303831536286     -1.89571352397623
  H   -3.13310274952639      0.44015035815934     -0.30460343121275
  O   -2.15507337955200     -1.39654242526501     -1.57575630440719
  O   -2.45570858107289      0.38364679192720     -3.13723733509999
  H   -1.94442983347304     -1.96800147843573     -2.32423140468627
  H   -2.42466066345279      1.34005901219761     -3.25219861998394
  H   -0.11021148874447      0.90663747258727     -2.46887252930345
