20
Coordinates from ORCA-job input
  Co  -0.37725250746833      1.85461221431151      0.16372063363669
  H   2.18608192039847      1.67979906528165      0.93896980847041
  H   -0.63964052754116      1.97662464292187      2.79818362340216
  O   -0.63827522771327      1.10297386131692     -1.89012473160092
  O   -2.35974094740450      1.27268513543749     -0.48601972366032
  H   0.38620946441641     -0.67204403076716      0.77423348685378
  H   -1.09603929444421     -0.55183599906668      1.20121115935882
  O   -0.28589806684452     -0.03687084870379      1.06581235232747
  H   -0.30247124326103      3.42684962882927      2.35725383517128
  O   -0.70060936577650      2.59609353629841      2.05478003550593
  H   2.19411830932410      2.34373159494001     -0.46766060292893
  O   1.66424752695115      1.79468869435662      0.13003180400237
  H   -0.59054926266359      3.81496785928876     -1.63479129838920
  O   -0.50635956925940      3.73997612128756     -0.67152866847911
  H   -1.09942381197759      4.41170518845836     -0.29994076953273
  H   -3.25900004046648      1.09876486833070     -0.17322328359962
  B   -1.98341870460992      0.83868694010236     -1.74168888467107
  O   -2.83360608778794      0.26509456319895     -2.59945842667095
  H   -2.46019564645128     -0.03400737507320     -3.44022380365090
  H   -0.16184943212036      0.83696737585027     -2.68860014254517
