25
XYZ file generated by Avogadro.
Co     0.6035550095    1.0740019660    1.2102308532
H      2.8531371230    0.3223339943    0.9919191241
H      1.2157065263   -1.2111020578    0.9024445571
H      1.7527260878    1.3974643053    3.2464975094
O     -1.2329301968    0.9643002139    1.5096078061
O     -1.5547669708   -1.0142316675    0.1288992310
H     -0.4167555170    2.9837237896    0.2919381575
O      0.7975070498    1.4890861426    3.0019947978
H      1.3753935013   -0.8060048184    2.4071281853
O      0.7624701573   -0.7222246175    1.6337817357
H      2.6356762877    1.5701245731    0.0771529654
O      2.4392461151    1.2211916278    0.9825561211
H      1.1403316951    3.1830008532    0.2428370829
O      0.4065039532    2.8758020810    0.8315333665
H     -1.6982455492   -1.6063207652    0.9104099423
H     -1.3519314245    0.4469649834    2.3467301931
H      1.1619872684    0.0428401237   -0.8566424686
O      0.4324007787    0.6570800909   -0.5909810670
H      0.5951212851    1.4659419416   -1.1375051119
B     -2.0966098538    0.3053641858    0.5003503810
O     -3.4508442602    0.1287249879    1.0591651559
H     -3.7779875749    1.0372788806    1.2818164713
O     -2.1866179280    1.1576900211   -0.6982706697
H     -2.8010667526    0.6935290743   -1.3219121613
H      0.5965298774    2.4498917040    3.1305112979
