25
Coordinates from ORCA-job input E -2092.109747995041
  Co      0.603555      1.074002      1.210231
  H       2.853137      0.322334      0.991919
  H       1.215707     -1.211102      0.902445
  H       1.752726      1.397464      3.246498
  O      -1.232930      0.964300      1.509608
  O      -1.554767     -1.014232      0.128899
  H      -0.416756      2.983724      0.291938
  O       0.797507      1.489086      3.001995
  H       1.375394     -0.806005      2.407128
  O       0.762470     -0.722225      1.633782
  H       2.635676      1.570125      0.077153
  O       2.439246      1.221192      0.982556
  H       1.140332      3.183001      0.242837
  O       0.406504      2.875802      0.831533
  H      -1.698246     -1.606321      0.910410
  H      -1.351931      0.446965      2.346730
  H       1.161987      0.042840     -0.856642
  O       0.432401      0.657080     -0.590981
  H       0.595121      1.465942     -1.137505
  B      -2.096610      0.305364      0.500350
  O      -3.450844      0.128725      1.059165
  H      -3.777988      1.037279      1.281816
  O      -2.186618      1.157690     -0.698271
  H      -2.801067      0.693529     -1.321912
  H       0.596530      2.449892      3.130511
25
Coordinates from ORCA-job input E -2092.165216456092
  Co      0.632532      1.061152      1.188523
  H       2.971539      0.395244      1.033827
  H       1.267060     -1.289575      0.967641
  H       1.727496      1.443298      3.298832
  O      -1.243278      0.933648      1.478271
  O      -1.694218     -1.042711      0.086409
  H      -0.429039      2.991633      0.253389
  O       0.795237      1.506456      3.019879
  H       1.397442     -0.856788      2.433209
  O       0.815615     -0.769791      1.655528
  H       2.756350      1.606240      0.126524
  O       2.514841      1.256582      1.003947
  H       1.089538      3.257125      0.225157
  O       0.382127      2.898639      0.790566
  H      -1.826313     -1.628679      0.846011
  H      -1.357617      0.434400      2.302734
  H       1.231017      0.025756     -0.926564
  O       0.509031      0.621158     -0.655990
  H       0.645895      1.402844     -1.219143
  B      -2.164598      0.287988      0.490748
  O      -3.492875      0.136827      1.112835
  H      -3.778550      1.027065      1.363363
  O      -2.244073      1.183817     -0.667767
  H      -2.876993      0.777180     -1.273845
  H       0.572371      2.446945      3.148110
25
Coordinates from ORCA-job input E -2092.205334628459
  Co      0.650696      1.053478      1.176500
  H       3.077608      0.444024      1.055824
  H       1.316072     -1.373483      1.010464
  H       1.718335      1.476549      3.371442
  O      -1.272943      0.917399      1.463939
  O      -1.789110     -1.054542      0.074451
  H      -0.448653      3.021909      0.218531
  O       0.799187      1.522414      3.063109
  H       1.425308     -0.928652      2.455258
  O       0.860342     -0.830297      1.672436
  H       2.865190      1.637129      0.151717
  O       2.590919      1.283630      1.014053
  H       1.045473      3.343897      0.200979
  O       0.358628      2.941859      0.755999
  H      -1.921643     -1.644376      0.822788
  H      -1.384742      0.425869      2.286805
  H       1.271976      0.003985     -1.007644
  O       0.554766      0.592839     -0.724481
  H       0.676011      1.357030     -1.308079
  B      -2.224247      0.276167      0.488377
  O      -3.536882      0.139430      1.139952
  H      -3.806578      1.023671      1.407049
  O      -2.273432      1.195225     -0.644401
  H      -2.913679      0.827431     -1.259500
  H       0.561936      2.453869      3.196624
25
Coordinates from ORCA-job input E -2092.228828777769
  Co      0.665489      1.042979      1.166684
  H       3.173865      0.481022      1.080098
  H       1.366931     -1.456071      1.046726
  H       1.713151      1.509489      3.444238
  O      -1.304863      0.900732      1.456454
  O      -1.874565     -1.055641      0.056423
  H      -0.479165      3.038181      0.175056
  O       0.802701      1.539357      3.109222
  H       1.459581     -1.001715      2.482393
  O       0.907131     -0.894335      1.690792
  H       2.961148      1.665723      0.172215
  O       2.663318      1.305971      1.024168
  H       0.997684      3.418236      0.163381
  O       0.329525      2.979939      0.713351
  H      -2.005022     -1.659836      0.794224
  H      -1.412247      0.413639      2.283491
  H       1.332739     -0.016271     -1.080815
  O       0.611184      0.567000     -0.792952
  H       0.718783      1.323688     -1.390530
  B      -2.283849      0.270782      0.487467
  O      -3.578808      0.143163      1.167593
  H      -3.837310      1.024434      1.457087
  O      -2.312785      1.215092     -0.619907
  H      -2.961600      0.885004     -1.249457
  H       0.547521      2.465891      3.244789
25
Coordinates from ORCA-job input E -2092.240072081391
  Co      0.676085      1.023562      1.165353
  H       3.256396      0.519684      1.096680
  H       1.423351     -1.530208      1.089906
  H       1.716836      1.546063      3.506820
  O      -1.330674      0.878623      1.467175
  O      -1.936883     -1.031229      0.013802
  H      -0.533640      3.016147      0.134536
  O       0.812842      1.556347      3.153749
  H       1.507385     -1.061599      2.522476
  O       0.964481     -0.955295      1.723758
  H       3.025784      1.699914      0.181082
  O       2.721596      1.327931      1.025679
  H       0.927647      3.464014      0.108550
  O       0.283925      2.994485      0.663051
  H      -2.073795     -1.665209      0.725268
  H      -1.434877      0.393402      2.296277
  H       1.380928     -0.052348     -1.130232
  O       0.654080      0.524033     -0.842270
  H       0.733806      1.274032     -1.452836
  B      -2.329538      0.281085      0.486407
  O      -3.613127      0.152046      1.179235
  H      -3.862199      1.024349      1.502943
  O      -2.327658      1.266467     -0.583092
  H      -2.973787      0.984129     -1.238952
  H       0.531573      2.476028      3.286829
25
Coordinates from ORCA-job input E -2092.245125572906
  Co      0.683016      0.994172      1.174245
  H       3.313727      0.566543      1.098055
  H       1.487309     -1.582176      1.135815
  H       1.731760      1.584064      3.543606
  O      -1.340471      0.844510      1.496201
  O      -1.980213     -0.985998     -0.046891
  H      -0.614705      2.937209      0.106092
  O       0.829768      1.567440      3.186118
  H       1.569720     -1.094350      2.569112
  O       1.031508     -1.001347      1.766450
  H       3.043093      1.744166      0.176748
  O       2.751995      1.354702      1.017419
  H       0.828634      3.461011      0.044682
  O       0.216609      2.969018      0.614493
  H      -2.147907     -1.656679      0.623587
  H      -1.447515      0.353177      2.321272
  H       1.417028     -0.097478     -1.145742
  O       0.679964      0.465490     -0.859040
  H       0.715588      1.208397     -1.481729
  B      -2.350209      0.308286      0.485146
  O      -3.635592      0.179539      1.166545
  H      -3.870020      1.039367      1.532219
  O      -2.297200      1.347747     -0.532731
  H      -2.929013      1.123457     -1.224136
  H       0.513661      2.476185      3.314657
25
Coordinates from ORCA-job input E -2092.249230341109
  Co      0.685046      0.961546      1.189170
  H       3.352676      0.622382      1.083584
  H       1.545245     -1.620226      1.158467
  H       1.757082      1.608208      3.566566
  O      -1.342211      0.810277      1.538030
  O      -2.007215     -0.950842     -0.069371
  H      -0.723091      2.815899      0.098111
  O       0.854074      1.563744      3.215185
  H       1.636301     -1.124969      2.597201
  O       1.096706     -1.041525      1.795341
  H       3.028092      1.797956      0.162419
  O       2.761965      1.387995      1.000893
  H       0.692077      3.434534     -0.013014
  O       0.122311      2.919272      0.577655
  H      -2.242044     -1.637466      0.563550
  H      -1.462817      0.317902      2.360025
  H       1.441582     -0.126308     -1.152755
  O       0.692346      0.416166     -0.861162
  H       0.675385      1.154265     -1.489217
  B      -2.346644      0.339487      0.489612
  O      -3.652106      0.246159      1.128744
  H      -3.864750      1.101628      1.517027
  O      -2.200082      1.410113     -0.493591
  H      -2.800314      1.242701     -1.227467
  H       0.500924      2.457553      3.347190
25
Coordinates from ORCA-job input E -2092.252868310519
  Co      0.680953      0.923964      1.209876
  H       3.376152      0.681740      1.061339
  H       1.602005     -1.650728      1.179547
  H       1.787123      1.628511      3.581096
  O      -1.341283      0.784014      1.589898
  O      -2.003757     -0.893326     -0.100577
  H      -0.850778      2.635247      0.088551
  O       0.881581      1.556626      3.242415
  H       1.706699     -1.150353      2.623469
  O       1.160878     -1.077832      1.825662
  H       2.988132      1.849004      0.140765
  O       2.755220      1.422339      0.980041
  H       0.517689      3.376382     -0.081986
  O       0.000575      2.839669      0.534957
  H      -2.306124     -1.596176      0.483859
  H      -1.486678      0.295144      2.409196
  H       1.459224     -0.162490     -1.145829
  O       0.698289      0.359608     -0.850205
  H       0.630976      1.090918     -1.481289
  B      -2.323632      0.383870      0.496423
  O      -3.654050      0.320094      1.074217
  H      -3.852680      1.165385      1.491172
  O      -2.081459      1.495216     -0.435958
  H      -2.639195      1.394882     -1.214080
  H       0.494675      2.434742      3.379634
25
Coordinates from ORCA-job input E -2092.254478918567
  Co      0.683166      0.899372      1.218441
  H       3.387509      0.711158      1.067629
  H       1.656027     -1.656515      1.207265
  H       1.792231      1.663282      3.576286
  O      -1.330721      0.747207      1.616647
  O      -2.019537     -0.821553     -0.161499
  H      -0.896556      2.503393      0.054350
  O       0.887067      1.559941      3.245353
  H       1.752746     -1.143917      2.655425
  O       1.211933     -1.085676      1.853051
  H       2.969138      1.871717      0.141536
  O       2.749888      1.436625      0.979931
  H       0.445951      3.315850     -0.143142
  O      -0.047915      2.778501      0.490330
  H      -2.356950     -1.546477      0.375058
  H      -1.489346      0.236432      2.419745
  H       1.509625     -0.178887     -1.130356
  O       0.727789      0.312043     -0.836201
  H       0.608696      1.031796     -1.472702
  B      -2.319851      0.425109      0.500652
  O      -3.649213      0.354529      1.071295
  H      -3.834629      1.177917      1.536154
  O      -2.077213      1.578438     -0.388149
  H      -2.623880      1.514889     -1.178305
  H       0.464580      2.421278      3.383401
25
Coordinates from ORCA-job input E -2092.256571897075
  Co      0.689161      0.899401      1.211288
  H       3.384526      0.706976      1.098882
  H       1.687688     -1.630117      1.197896
  H       1.778496      1.679394      3.557340
  O      -1.311325      0.716246      1.615516
  O      -2.072596     -0.812038     -0.167545
  H      -0.865840      2.471867      0.027127
  O       0.875668      1.550558      3.229376
  H       1.762588     -1.121259      2.656403
  O       1.236595     -1.064731      1.843769
  H       2.975084      1.873974      0.169655
  O       2.747053      1.431594      1.001960
  H       0.492184      3.290855     -0.170858
  O      -0.009483      2.769550      0.468922
  H      -2.448322     -1.528782      0.354879
  H      -1.475506      0.185510      2.404247
  H       1.578906     -0.130404     -1.125550
  O       0.772825      0.319096     -0.829745
  H       0.604781      1.032457     -1.462801
  B      -2.333057      0.431111      0.511582
  O      -3.649508      0.380946      1.110415
  H      -3.806916      1.201723      1.590765
  O      -2.139363      1.574002     -0.403097
  H      -2.693128      1.485352     -1.186388
  H       0.420025      2.393172      3.378154
25
Coordinates from ORCA-job input E -2092.258116938241
  Co      0.689318      0.892390      1.203736
  H       3.381270      0.712014      1.107218
  H       1.735101     -1.611386      1.225659
  H       1.754683      1.720690      3.535235
  O      -1.302382      0.661903      1.614235
  O      -2.124072     -0.778301     -0.214251
  H      -0.847586      2.454472     -0.006347
  O       0.855968      1.558433      3.210971
  H       1.785534     -1.086338      2.680012
  O       1.269753     -1.044791      1.860117
  H       2.971316      1.878072      0.178436
  O       2.739158      1.431961      1.007700
  H       0.517906      3.257338     -0.209084
  O       0.009201      2.753173      0.440048
  H      -2.533291     -1.507746      0.264386
  H      -1.464378      0.095058      2.378105
  H       1.625121     -0.120534     -1.119128
  O       0.800875      0.294722     -0.823275
  H       0.595182      0.991347     -1.464286
  B      -2.352051      0.435576      0.525837
  O      -3.662863      0.394307      1.142828
  H      -3.789801      1.194623      1.664731
  O      -2.143162      1.604273     -0.342178
  H      -2.680176      1.541321     -1.138521
  H       0.369912      2.383873      3.360007
25
Coordinates from ORCA-job input E -2092.259289510006
  Co      0.687243      0.886592      1.197581
  H       3.375640      0.718394      1.101868
  H       1.778802     -1.591165      1.251290
  H       1.736720      1.752908      3.512540
  O      -1.294766      0.612167      1.609316
  O      -2.183642     -0.760891     -0.245344
  H      -0.851448      2.450486      0.007758
  O       0.842146      1.557469      3.195866
  H       1.816248     -1.049249      2.697070
  O       1.303690     -1.021312      1.874883
  H       2.961481      1.884844      0.180608
  O       2.727745      1.433258      1.006437
  H       0.525178      3.223564     -0.241903
  O       0.021921      2.741323      0.428265
  H      -2.634142     -1.489400      0.196724
  H      -1.461382      0.023365      2.355646
  H       1.663275     -0.106109     -1.115492
  O       0.824800      0.275719     -0.815536
  H       0.585260      0.953987     -1.463954
  B      -2.365766      0.435137      0.536519
  O      -3.671585      0.416937      1.165901
  H      -3.767757      1.204120      1.713194
  O      -2.119951      1.619000     -0.301591
  H      -2.627852      1.571073     -1.118267
  H       0.328677      2.364235      3.352812
25
Coordinates from ORCA-job input E -2092.260081766573
  Co      0.690046      0.881315      1.191310
  H       3.379274      0.725107      1.101224
  H       1.823949     -1.576823      1.277520
  H       1.719519      1.786506      3.495632
  O      -1.287400      0.568545      1.595692
  O      -2.248085     -0.748956     -0.265980
  H      -0.843845      2.455014      0.020133
  O       0.831196      1.554149      3.185958
  H       1.840369     -1.021252      2.716320
  O       1.336436     -1.003668      1.888517
  H       2.963407      1.893237      0.186470
  O       2.725741      1.435142      1.007656
  H       0.539994      3.202378     -0.260034
  O       0.040199      2.737000      0.424123
  H      -2.734318     -1.467820      0.152364
  H      -1.455685     -0.040170      2.325562
  H       1.701937     -0.081578     -1.121777
  O       0.849246      0.259161     -0.812771
  H       0.566654      0.914108     -1.468146
  B      -2.382255      0.436932      0.540398
  O      -3.674742      0.437077      1.194107
  H      -3.742236      1.214631      1.759295
  O      -2.119974      1.628641     -0.287460
  H      -2.605916      1.579390     -1.117367
  H       0.287026      2.338387      3.353451
25
Coordinates from ORCA-job input E -2092.260685069168
  Co      0.691503      0.877109      1.189598
  H       3.385075      0.734363      1.093132
  H       1.863925     -1.567408      1.298128
  H       1.712846      1.815109      3.483486
  O      -1.283768      0.537677      1.583563
  O      -2.294913     -0.752414     -0.267289
  H      -0.845080      2.460330      0.051624
  O       0.831299      1.544161      3.185975
  H       1.861003     -1.004660      2.731570
  O       1.366106     -0.991943      1.898345
  H       2.963593      1.903936      0.186087
  O       2.725054      1.438711      1.002865
  H       0.538360      3.190797     -0.261790
  O       0.047812      2.737861      0.436789
  H      -2.819797     -1.451399      0.136014
  H      -1.458177     -0.076323      2.307181
  H       1.717866     -0.044798     -1.140962
  O       0.855491      0.248477     -0.811543
  H       0.519889      0.875831     -1.468921
  B      -2.391196      0.437437      0.538935
  O      -3.675400      0.467142      1.203504
  H      -3.720036      1.242379      1.773849
  O      -2.099420      1.624737     -0.295636
  H      -2.547823      1.558014     -1.145192
  H       0.256325      2.301325      3.372882
25
Coordinates from ORCA-job input E -2092.261219058473
  Co      0.696439      0.872007      1.188544
  H       3.397391      0.744012      1.090786
  H       1.907389     -1.561776      1.331380
  H       1.705469      1.853637      3.471947
  O      -1.279498      0.509013      1.567848
  O      -2.331602     -0.738504     -0.287436
  H      -0.831886      2.458404      0.055742
  O       0.832982      1.542626      3.186816
  H       1.872739     -0.989217      2.759989
  O       1.395439     -0.983040      1.916434
  H       2.971375      1.913016      0.185179
  O       2.730903      1.441938      0.998011
  H       0.548866      3.181742     -0.259818
  O       0.058328      2.737922      0.444534
  H      -2.886818     -1.425797      0.094006
  H      -1.455920     -0.112789      2.284199
  H       1.724320     -0.016604     -1.164102
  O       0.856277      0.228243     -0.810785
  H       0.462794      0.820131     -1.469124
  B      -2.400961      0.442688      0.534409
  O      -3.672950      0.478179      1.217567
  H      -3.700887      1.241997      1.804142
  O      -2.104355      1.638461     -0.291934
  H      -2.521868      1.559670     -1.156341
  H       0.226571      2.270492      3.390200
25
Coordinates from ORCA-job input E -2092.261779289148
  Co      0.699207      0.869808      1.193843
  H       3.406716      0.752839      1.081662
  H       1.940088     -1.557195      1.359389
  H       1.711222      1.886498      3.461566
  O      -1.275791      0.492945      1.558262
  O      -2.338264     -0.732888     -0.302242
  H      -0.831658      2.455707      0.084501
  O       0.846825      1.539010      3.194519
  H       1.880980     -0.977357      2.785074
  O       1.419515     -0.974800      1.932857
  H       2.972897      1.919621      0.175382
  O       2.734279      1.444479      0.986244
  H       0.544326      3.171256     -0.251115
  O       0.060882      2.740392      0.466400
  H      -2.927368     -1.404433      0.055445
  H      -1.459673     -0.123269      2.277359
  H       1.696782      0.013991     -1.192731
  O       0.831551      0.213211     -0.805422
  H       0.375370      0.768001     -1.455792
  B      -2.397442      0.445091      0.525050
  O      -3.667609      0.493031      1.207889
  H      -3.687517      1.250547      1.802721
  O      -2.087017      1.641598     -0.299113
  H      -2.460928      1.542345     -1.181235
  H       0.213164      2.236023      3.421681
25
Coordinates from ORCA-job input E -2092.262463421308
  Co      0.701755      0.871776      1.204736
  H       3.414561      0.758477      1.068133
  H       1.963002     -1.553622      1.392429
  H       1.726900      1.920172      3.451107
  O      -1.271004      0.484386      1.550879
  O      -2.316506     -0.724020     -0.327937
  H      -0.826091      2.458126      0.111760
  O       0.869197      1.541163      3.206228
  H       1.885204     -0.961203      2.814528
  O       1.438754     -0.963948      1.954624
  H       2.972810      1.920457      0.156415
  O       2.737643      1.444743      0.967806
  H       0.547452      3.162208     -0.231356
  O       0.065080      2.747334      0.496895
  H      -2.935386     -1.385053     -0.001460
  H      -1.462963     -0.122667      2.275576
  H       1.630399      0.034706     -1.223072
  O       0.777996      0.195656     -0.792399
  H       0.254687      0.710300     -1.425418
  B      -2.384097      0.445877      0.509854
  O      -3.659100      0.492542      1.182818
  H      -3.682932      1.242986      1.786183
  O      -2.066906      1.647779     -0.303904
  H      -2.393877      1.529921     -1.202448
  H       0.213959      2.208356      3.460220
25
Coordinates from ORCA-job input E -2092.263092345936
  Co      0.702763      0.881376      1.225930
  H       3.417343      0.759862      1.044269
  H       1.969956     -1.550575      1.422642
  H       1.761055      1.944790      3.444416
  O      -1.264625      0.486706      1.548691
  O      -2.256671     -0.724994     -0.355711
  H      -0.817164      2.471360      0.149253
  O       0.905018      1.545770      3.227046
  H       1.889006     -0.940984      2.841696
  O       1.451388     -0.949812      1.977776
  H       2.966151      1.916318      0.125888
  O       2.738050      1.442867      0.940436
  H       0.557716      3.156188     -0.192896
  O       0.070347      2.762723      0.544950
  H      -2.901225     -1.377256     -0.061501
  H      -1.468150     -0.106322      2.281766
  H       1.500823      0.047588     -1.252471
  O       0.675944      0.183447     -0.763998
  H       0.081217      0.663623     -1.360555
  B      -2.352869      0.440842      0.484236
  O      -3.644902      0.483545      1.126291
  H      -3.686928      1.234075      1.728428
  O      -2.026861      1.642483     -0.322911
  H      -2.306409      1.503585     -1.234587
  H       0.239566      2.189248      3.513111
25
Coordinates from ORCA-job input E -2092.263595274303
  Co      0.704969      0.886877      1.236294
  H       3.421596      0.766262      1.035156
  H       1.994714     -1.539748      1.438792
  H       1.769990      1.966283      3.440277
  O      -1.257557      0.476548      1.541866
  O      -2.250782     -0.739443     -0.362648
  H      -0.798292      2.475638      0.155494
  O       0.922457      1.541230      3.239661
  H       1.892878     -0.928020      2.857503
  O       1.469722     -0.938099      1.986578
  H       2.965947      1.922130      0.116873
  O       2.739059      1.445672      0.929836
  H       0.577258      3.156184     -0.164668
  O       0.078065      2.772336      0.570742
  H      -2.925115     -1.368779     -0.085983
  H      -1.470918     -0.109564      2.277624
  H       1.425853      0.090551     -1.281185
  O       0.623102      0.180005     -0.747666
  H      -0.037517      0.615063     -1.308455
  B      -2.337127      0.432712      0.468904
  O      -3.633399      0.495449      1.099987
  H      -3.671806      1.251552      1.695445
  O      -1.992055      1.624792     -0.347253
  H      -2.253359      1.473793     -1.262796
  H       0.242854      2.157025      3.551815
25
Coordinates from ORCA-job input E -2092.264250923936
  Co      0.711149      0.893980      1.243169
  H       3.427403      0.769420      1.043580
  H       2.018654     -1.526336      1.445466
  H       1.769287      1.982847      3.440762
  O      -1.246086      0.466187      1.533686
  O      -2.255200     -0.758044     -0.365634
  H      -0.766491      2.478942      0.133102
  O       0.930554      1.536525      3.249285
  H       1.888495     -0.919445      2.866472
  O       1.482677     -0.929000      1.987258
  H       2.976802      1.927267      0.124019
  O       2.744773      1.448173      0.933914
  H       0.614769      3.156042     -0.149750
  O       0.092939      2.779613      0.574138
  H      -2.949319     -1.366736     -0.092371
  H      -1.467346     -0.121076      2.266295
  H       1.367521      0.139272     -1.304373
  O       0.587155      0.182979     -0.733745
  H      -0.131296      0.575735     -1.253182
  B      -2.322929      0.421156      0.456003
  O      -3.619206      0.502149      1.086295
  H      -3.648654      1.266501      1.672194
  O      -1.969846      1.602886     -0.373809
  H      -2.274470      1.467458     -1.278773
  H       0.239204      2.129955      3.578192
25
Coordinates from ORCA-job input E -2092.265049761862
  Co      0.717203      0.899576      1.240886
  H       3.431348      0.771039      1.068150
  H       2.041564     -1.510563      1.435051
  H       1.750251      1.992400      3.444424
  O      -1.236170      0.454962      1.526850
  O      -2.287076     -0.786973     -0.346344
  H      -0.736226      2.478127      0.090298
  O       0.923436      1.524534      3.251930
  H       1.879649     -0.920234      2.859548
  O       1.489554     -0.924438      1.973045
  H       2.995124      1.934094      0.150046
  O       2.750901      1.451467      0.954303
  H       0.651727      3.157414     -0.158563
  O       0.107600      2.781749      0.548544
  H      -2.995321     -1.373129     -0.061879
  H      -1.466278     -0.132894      2.256312
  H       1.359371      0.205455     -1.326897
  O       0.594812      0.196788     -0.734550
  H      -0.166701      0.551540     -1.220114
  B      -2.320575      0.406516      0.455407
  O      -3.610067      0.516481      1.095641
  H      -3.619662      1.291911      1.667927
  O      -1.950127      1.571519     -0.396692
  H      -2.322775      1.471670     -1.280511
  H       0.218975      2.097440      3.589381
25
Coordinates from ORCA-job input E -2092.265826517772
  Co      0.722124      0.909907      1.243412
  H       3.431956      0.770429      1.088390
  H       2.044541     -1.502554      1.413281
  H       1.744374      1.987143      3.456057
  O      -1.229213      0.456449      1.525435
  O      -2.290541     -0.835855     -0.308414
  H      -0.716079      2.491479      0.063546
  O       0.923990      1.508466      3.261901
  H       1.868029     -0.928786      2.842149
  O       1.484609     -0.925412      1.952779
  H       3.011788      1.937557      0.170091
  O       2.756052      1.454734      0.970778
  H       0.678819      3.166965     -0.160649
  O       0.116464      2.791342      0.531645
  H      -3.007933     -1.401404     -0.006251
  H      -1.470036     -0.123859      2.257573
  H       1.316862      0.270721     -1.350998
  O       0.575641      0.223419     -0.732240
  H      -0.221542      0.562715     -1.173235
  B      -2.308040      0.385528      0.450260
  O      -3.599039      0.536382      1.081061
  H      -3.596028      1.332359      1.624443
  O      -1.903996      1.514350     -0.436496
  H      -2.346067      1.455480     -1.291080
  H       0.213800      2.068899      3.608755
25
Coordinates from ORCA-job input E -2092.266558523023
  Co      0.728478      0.919414      1.241342
  H       3.432623      0.774292      1.117245
  H       2.038710     -1.500554      1.374851
  H       1.733175      1.966972      3.476253
  O      -1.225353      0.460798      1.524927
  O      -2.303502     -0.901527     -0.234106
  H      -0.711362      2.508538      0.039869
  O       0.919676      1.480558      3.271898
  H       1.853113     -0.951336      2.809740
  O       1.471894     -0.935325      1.919762
  H       3.032741      1.946401      0.199170
  O       2.762083      1.462865      0.994761
  H       0.686781      3.184836     -0.176330
  O       0.116814      2.801672      0.504841
  H      -3.030498     -1.439281      0.094830
  H      -1.475112     -0.108797      2.262455
  H       1.299923      0.346890     -1.380251
  O       0.578793      0.264465     -0.742417
  H      -0.241269      0.614828     -1.138990
  B      -2.303088      0.362564      0.452535
  O      -3.590344      0.580191      1.070947
  H      -3.565460      1.403093      1.571317
  O      -1.853274      1.427401     -0.488879
  H      -2.357842      1.408753     -1.309228
  H       0.202835      2.028741      3.625653
25
Coordinates from ORCA-job input E -2092.267308263079
  Co      0.740185      0.922074      1.242037
  H       3.440953      0.789470      1.138592
  H       2.044923     -1.504486      1.358773
  H       1.726885      1.954908      3.494813
  O      -1.218363      0.458667      1.518072
  O      -2.309494     -0.945117     -0.180731
  H      -0.717013      2.510803      0.024636
  O       0.923623      1.454413      3.283888
  H       1.847298     -0.968551      2.796899
  O       1.471890     -0.946499      1.904676
  H       3.049581      1.962668      0.216923
  O       2.770644      1.476776      1.008284
  H       0.677166      3.195380     -0.190838
  O       0.108198      2.804810      0.487122
  H      -3.047835     -1.457691      0.164194
  H      -1.473266     -0.103699      2.259388
  H       1.268040      0.408752     -1.413260
  O       0.580494      0.282681     -0.746581
  H      -0.274176      0.625749     -1.084561
  B      -2.295614      0.350927      0.445557
  O      -3.576444      0.630913      1.046943
  H      -3.531163      1.471828      1.514349
  O      -1.819566      1.364021     -0.536349
  H      -2.381580      1.387349     -1.318748
  H       0.195170      1.980307      3.648115
25
Coordinates from ORCA-job input E -2092.267997908104
  Co      0.757613      0.915539      1.240339
  H       3.454884      0.810943      1.151511
  H       2.059513     -1.516058      1.372847
  H       1.723503      1.950824      3.506426
  O      -1.210193      0.452047      1.503107
  O      -2.310125     -0.960262     -0.158118
  H      -0.732164      2.509134      0.019175
  O       0.932488      1.433401      3.290447
  H       1.848521     -0.976809      2.808017
  O       1.479879     -0.958947      1.912712
  H       3.062624      1.979663      0.220787
  O       2.780911      1.492603      1.010273
  H       0.653657      3.200055     -0.206883
  O       0.096027      2.800926      0.476121
  H      -3.048725     -1.465741      0.197608
  H      -1.460042     -0.109472      2.246863
  H       1.245001      0.438178     -1.446449
  O       0.598097      0.269707     -0.749622
  H      -0.289412      0.604719     -1.029646
  B      -2.294388      0.352900      0.434339
  O      -3.570072      0.674069      1.016313
  H      -3.514487      1.521597      1.470106
  O      -1.814371      1.342034     -0.567222
  H      -2.438298      1.412145     -1.299799
  H       0.190098      1.933259      3.662944
25
Coordinates from ORCA-job input E -2092.268075730481
  Co      0.762696      0.916615      1.241930
  H       3.455969      0.827909      1.151241
  H       2.085345     -1.502945      1.375707
  H       1.723694      1.950836      3.506171
  O      -1.201155      0.443433      1.495006
  O      -2.340480     -0.991742     -0.137604
  H      -0.717868      2.510407      0.012737
  O       0.942856      1.416916      3.293497
  H       1.852340     -0.969341      2.811082
  O       1.494562     -0.952978      1.910916
  H       3.057424      1.991836      0.215158
  O       2.777586      1.504533      1.004839
  H       0.661050      3.212854     -0.172196
  O       0.092481      2.805734      0.497214
  H      -3.092481     -1.465187      0.232807
  H      -1.449140     -0.111912      2.244334
  H       1.186938      0.475962     -1.462163
  O       0.578217      0.267582     -0.742599
  H      -0.332611      0.571208     -0.980483
  B      -2.282507      0.333044      0.423137
  O      -3.559064      0.704080      0.970097
  H      -3.488433      1.563578      1.400315
  O      -1.769683      1.289783     -0.599462
  H      -2.430078      1.422309     -1.291452
  H       0.192878      1.891938      3.681963
25
Coordinates from ORCA-job input E -2092.268630950450
  Co      0.765203      0.902000      1.228439
  H       3.453712      0.842874      1.150753
  H       2.099218     -1.503504      1.386118
  H       1.715234      1.940756      3.497106
  O      -1.203331      0.438497      1.490078
  O      -2.383798     -0.989356     -0.116387
  H      -0.737678      2.503559      0.033696
  O       0.939865      1.401949      3.277752
  H       1.855558     -0.969913      2.817758
  O       1.500067     -0.957631      1.916359
  H       3.043776      1.995178      0.204011
  O       2.768912      1.511659      0.997479
  H       0.626911      3.224398     -0.156677
  O       0.078124      2.798335      0.517353
  H      -3.128674     -1.456816      0.274384
  H      -1.431447     -0.115173      2.247191
  H       1.253390      0.477424     -1.469170
  O       0.634831      0.252210     -0.762698
  H      -0.256980      0.593391     -1.028204
  B      -2.299954      0.337276      0.435373
  O      -3.572249      0.735868      0.963897
  H      -3.494536      1.594782      1.394667
  O      -1.772070      1.283096     -0.596933
  H      -2.437695      1.398954     -1.287033
  H       0.184148      1.866639      3.666881
25
Coordinates from ORCA-job input E -2092.268739038548
  Co      0.763405      0.898159      1.228072
  H       3.455837      0.847641      1.152507
  H       2.114036     -1.498159      1.403741
  H       1.707694      1.962829      3.487290
  O      -1.201858      0.431995      1.485953
  O      -2.379669     -0.961323     -0.149821
  H      -0.731676      2.485545      0.040661
  O       0.939282      1.411943      3.273671
  H       1.858326     -0.958684      2.832635
  O       1.511758     -0.950522      1.928386
  H       3.039496      1.988024      0.193111
  O       2.766954      1.509558      0.990653
  H       0.629838      3.212937     -0.152745
  O       0.081339      2.792383      0.525331
  H      -3.128860     -1.433654      0.226897
  H      -1.428326     -0.129493      2.237480
  H       1.239843      0.479767     -1.468422
  O       0.630664      0.234754     -0.759185
  H      -0.273390      0.534515     -1.028421
  B      -2.298654      0.351175      0.431922
  O      -3.568051      0.731719      0.983645
  H      -3.489346      1.576838      1.439578
  O      -1.783545      1.318428     -0.590348
  H      -2.432940      1.406063     -1.298659
  H       0.178381      1.864013      3.668263
25
Coordinates from ORCA-job input E -2092.268915140462
  Co      0.759809      0.899438      1.226734
  H       3.448946      0.844954      1.174562
  H       2.098306     -1.498114      1.389109
  H       1.704614      1.958675      3.486071
  O      -1.202401      0.439878      1.491691
  O      -2.362614     -0.962481     -0.153058
  H      -0.720427      2.469357      0.013936
  O       0.928600      1.420135      3.268599
  H       1.847244     -0.959415      2.821268
  O       1.497448     -0.953667      1.918649
  H       3.039047      1.968296      0.191868
  O       2.762349      1.504981      0.997177
  H       0.641129      3.209531     -0.156890
  O       0.080269      2.785087      0.508568
  H      -3.094131     -1.445932      0.244237
  H      -1.423680     -0.130231      2.238153
  H       1.249188      0.474706     -1.452209
  O       0.619169      0.237639     -0.757900
  H      -0.270554      0.570519     -1.032690
  B      -2.290880      0.347514      0.432178
  O      -3.564881      0.714319      0.991829
  H      -3.487184      1.556407      1.452681
  O      -1.782829      1.319471     -0.589805
  H      -2.447760      1.447912     -1.276251
  H       0.171757      1.887476      3.653684
25
Coordinates from ORCA-job input E -2092.269072011122
  Co      0.761732      0.896066      1.222048
  H       3.449937      0.857851      1.189043
  H       2.101234     -1.500381      1.389584
  H       1.698436      1.958522      3.486592
  O      -1.203000      0.439239      1.487762
  O      -2.369147     -0.970060     -0.139536
  H      -0.726428      2.469813      0.019567
  O       0.927527      1.414312      3.265269
  H       1.845206     -0.960773      2.820238
  O       1.496621     -0.957938      1.916837
  H       3.039227      1.958612      0.181199
  O       2.759881      1.509315      0.993373
  H       0.630660      3.217677     -0.149644
  O       0.074286      2.785142      0.514127
  H      -3.095357     -1.450124      0.271675
  H      -1.414978     -0.135821      2.233237
  H       1.241822      0.492211     -1.458050
  O       0.620333      0.232545     -0.764488
  H      -0.270611      0.576497     -1.026405
  B      -2.291485      0.346607      0.430759
  O      -3.562619      0.735036      0.980153
  H      -3.474672      1.574373      1.444440
  O      -1.766907      1.300876     -0.600834
  H      -2.437895      1.445358     -1.278891
  H       0.166737      1.871496      3.654137
25
Coordinates from ORCA-job input E -2092.269282205371
  Co      0.764586      0.889752      1.210834
  H       3.452678      0.882163      1.226616
  H       2.112715     -1.499605      1.395880
  H       1.678611      1.971546      3.482109
  O      -1.202362      0.434552      1.479994
  O      -2.388550     -0.970111     -0.136306
  H      -0.727334      2.464990      0.021105
  O       0.918844      1.414817      3.253719
  H       1.838893     -0.957049      2.822140
  O       1.497407     -0.961871      1.915579
  H       3.044326      1.929735      0.162104
  O       2.756601      1.513274      0.988627
  H       0.625566      3.225543     -0.142961
  O       0.072838      2.782397      0.516624
  H      -3.100338     -1.450777      0.299175
  H      -1.394217     -0.160812      2.215148
  H       1.235399      0.527336     -1.460797
  O       0.626218      0.216183     -0.777376
  H      -0.270116      0.560996     -1.024603
  B      -2.294718      0.347994      0.429307
  O      -3.558312      0.759118      0.976645
  H      -3.449518      1.582339      1.465552
  O      -1.754421      1.286653     -0.609874
  H      -2.433608      1.463496     -1.272816
  H       0.149349      1.853794      3.645767
25
Coordinates from ORCA-job input E -2092.269386769307
  Co      0.765458      0.886425      1.203532
  H       3.454897      0.898574      1.256936
  H       2.118810     -1.498878      1.398932
  H       1.664642      1.983818      3.480307
  O      -1.202599      0.433302      1.478920
  O      -2.397356     -0.963413     -0.140751
  H      -0.727019      2.457879      0.019407
  O       0.911399      1.420803      3.245987
  H       1.831641     -0.955703      2.821959
  O       1.495657     -0.965161      1.913377
  H       3.051362      1.902098      0.148946
  O       2.755803      1.512762      0.985829
  H       0.624967      3.227112     -0.146573
  O       0.075006      2.779395      0.511960
  H      -3.094970     -1.451318      0.309503
  H      -1.381622     -0.181717      2.201179
  H       1.235250      0.552264     -1.455530
  O       0.627667      0.206195     -0.786910
  H      -0.271470      0.548307     -1.028676
  B      -2.297046      0.352606      0.429882
  O      -3.556603      0.769407      0.980239
  H      -3.435316      1.574964      1.494968
  O      -1.753651      1.288622     -0.608952
  H      -2.430928      1.477720     -1.270219
  H       0.136558      1.850387      3.637941
25
Coordinates from ORCA-job input E -2092.269435571908
  Co      0.765754      0.886867      1.200533
  H       3.456842      0.904174      1.272159
  H       2.121587     -1.496867      1.399892
  H       1.658365      1.990625      3.482397
  O      -1.202799      0.434218      1.481172
  O      -2.399541     -0.958791     -0.143097
  H      -0.723965      2.457784      0.016598
  O       0.908258      1.425380      3.243507
  H       1.823393     -0.956455      2.820760
  O       1.492219     -0.966719      1.910485
  H       3.058441      1.885297      0.143156
  O       2.757260      1.510070      0.984443
  H       0.629343      3.226617     -0.154530
  O       0.080601      2.779422      0.505327
  H      -3.086626     -1.454459      0.314568
  H      -1.377189     -0.194757      2.192571
  H       1.237555      0.567508     -1.448720
  O       0.626009      0.205216     -0.792146
  H      -0.274678      0.543550     -1.032542
  B      -2.298804      0.355943      0.431241
  O      -3.557937      0.769967      0.983881
  H      -3.433284      1.566054      1.512210
  O      -1.758748      1.294074     -0.605441
  H      -2.432140      1.480953     -1.270905
  H       0.130619      1.850780      3.634676
25
Coordinates from ORCA-job input E -2092.269456628667
  Co      0.766114      0.887989      1.199283
  H       3.457886      0.906639      1.279217
  H       2.124124     -1.493749      1.401505
  H       1.655702      1.993099      3.486446
  O      -1.202824      0.435894      1.484200
  O      -2.398471     -0.956835     -0.141566
  H      -0.721056      2.459470      0.013249
  O       0.908339      1.426117      3.243247
  H       1.813724     -0.957564      2.820444
  O       1.488140     -0.967704      1.908195
  H       3.063268      1.874631      0.138147
  O       2.758185      1.507481      0.981626
  H       0.632549      3.225684     -0.161912
  O       0.085027      2.779617      0.499794
  H      -3.076502     -1.458762      0.322488
  H      -1.375233     -0.203482      2.186804
  H       1.238736      0.579406     -1.442826
  O       0.623370      0.207242     -0.795370
  H      -0.277786      0.546144     -1.033152
  B      -2.299257      0.358113      0.432312
  O      -3.559448      0.769903      0.984120
  H      -3.435718      1.563335      1.516504
  O      -1.762284      1.297603     -0.603631
  H      -2.434193      1.479591     -1.271683
  H       0.128143      1.846590      3.634753
25
Coordinates from ORCA-job input E -2092.269472009161
  Co      0.766545      0.889241      1.198478
  H       3.458461      0.908008      1.280626
  H       2.128669     -1.488686      1.405739
  H       1.653406      1.993892      3.491622
  O      -1.202635      0.436567      1.486679
  O      -2.398214     -0.956352     -0.138348
  H      -0.718255      2.463626      0.010540
  O       0.909980      1.423818      3.243739
  H       1.802744     -0.957220      2.822192
  O       1.484626     -0.967435      1.907263
  H       3.066399      1.868079      0.132464
  O       2.758353      1.505190      0.976719
  H       0.635502      3.224780     -0.167722
  O       0.089193      2.780079      0.496066
  H      -3.069270     -1.462406      0.331142
  H      -1.373617     -0.211849      2.181349
  H       1.238984      0.590371     -1.438495
  O       0.621441      0.210000     -0.797958
  H      -0.279940      0.550539     -1.032910
  B      -2.299451      0.359134      0.433403
  O      -3.560175      0.770938      0.984299
  H      -3.438367      1.566529      1.513863
  O      -1.764067      1.298809     -0.602880
  H      -2.436236      1.474241     -1.272483
  H       0.126458      1.836560      3.636804
25
Coordinates from ORCA-job input E -2092.269483347955
  Co      0.766980      0.890054      1.198157
  H       3.458677      0.909023      1.277325
  H       2.134581     -1.482810      1.412144
  H       1.651275      1.993363      3.497480
  O      -1.202245      0.436163      1.488614
  O      -2.398340     -0.956145     -0.135398
  H      -0.716967      2.467182      0.008520
  O       0.912449      1.419457      3.244804
  H       1.792614     -0.954994      2.825961
  O       1.482566     -0.966229      1.908211
  H       3.067385      1.865853      0.126278
  O       2.757723      1.503587      0.970196
  H       0.636954      3.223615     -0.171315
  O       0.091592      2.779807      0.494004
  H      -3.066172     -1.463630      0.337160
  H      -1.371868     -0.218993      2.177294
  H       1.238012      0.598749     -1.436395
  O       0.620485      0.212032     -0.799694
  H      -0.281099      0.554444     -1.032012
  B      -2.299019      0.359476      0.434502
  O      -3.559539      0.773067      0.984931
  H      -3.439661      1.574007      1.506807
  O      -1.763776      1.298637     -0.602691
  H      -2.437297      1.467814     -1.272732
  H       0.125228      1.822922      3.640040
25
Coordinates from ORCA-job input E -2092.269491342420
  Co      0.767416      0.890471      1.198132
  H       3.458905      0.909337      1.271794
  H       2.139841     -1.478081      1.418451
  H       1.649199      1.992222      3.502797
  O      -1.201702      0.434989      1.489496
  O      -2.399149     -0.956106     -0.134009
  H      -0.716919      2.469440      0.007295
  O       0.914204      1.415247      3.245970
  H       1.786298     -0.951299      2.830175
  O       1.482311     -0.964552      1.910372
  H       3.067198      1.867435      0.121686
  O       2.757082      1.502751      0.964359
  H       0.637864      3.222710     -0.172246
  O       0.092375      2.779174      0.493219
  H      -3.068275     -1.462282      0.338257
  H      -1.369940     -0.223456      2.175393
  H       1.236463      0.602660     -1.437028
  O       0.620715      0.212779     -0.800539
  H      -0.281237      0.555555     -1.031474
  B      -2.298442      0.359148      0.435515
  O      -3.558190      0.774671      0.986561
  H      -3.439197      1.581163      1.500065
  O      -1.762608      1.297661     -0.602559
  H      -2.437652      1.463478     -1.272117
  H       0.123977      1.811336      3.642629
25
Coordinates from ORCA-job input E -2092.269497375300
  Co      0.767898      0.890709      1.198073
  H       3.459411      0.909107      1.267053
  H       2.143084     -1.475352      1.423216
  H       1.647050      1.990917      3.507516
  O      -1.201119      0.434140      1.489742
  O      -2.399424     -0.955965     -0.133904
  H      -0.717456      2.470009      0.006339
  O       0.914516      1.412499      3.246879
  H       1.783381     -0.947073      2.833483
  O       1.482688     -0.963156      1.912629
  H       3.067246      1.869874      0.118867
  O       2.756979      1.502025      0.960066
  H       0.638779      3.222036     -0.172060
  O       0.092326      2.778364      0.492486
  H      -3.071982     -1.459859      0.336079
  H      -1.367656     -0.225374      2.175032
  H       1.234943      0.603373     -1.439130
  O       0.621344      0.212628     -0.801069
  H      -0.280952      0.554819     -1.031538
  B      -2.297863      0.358813      0.436432
  O      -3.557025      0.774867      0.988575
  H      -3.438129      1.584814      1.496691
  O      -1.761823      1.297236     -0.602030
  H      -2.437875      1.462603     -1.270770
  H       0.122196      1.804400      3.643536
25
Coordinates from ORCA-job input E -2092.269503235335
  Co      0.768607      0.891137      1.197635
  H       3.460455      0.908439      1.263766
  H       2.144970     -1.473725      1.427132
  H       1.643980      1.989425      3.512877
  O      -1.200343      0.433966      1.489651
  O      -2.399004     -0.955866     -0.134063
  H      -0.717719      2.469804      0.005209
  O       0.913253      1.410870      3.247457
  H       1.781852     -0.941923      2.835913
  O       1.482854     -0.961953      1.914589
  H       3.068574      1.871527      0.116882
  O       2.757635      1.500684      0.956467
  H       0.640550      3.221433     -0.171932
  O       0.092546      2.777637      0.491143
  H      -3.075776     -1.457209      0.332701
  H      -1.364333     -0.226130      2.175001
  H       1.233383      0.603082     -1.442095
  O       0.621919      0.212282     -0.801981
  H      -0.280735      0.553266     -1.032253
  B      -2.297344      0.358645      0.437484
  O      -3.556339      0.773704      0.990868
  H      -3.437099      1.584982      1.496841
  O      -1.761903      1.297568     -0.600970
  H      -2.438508      1.464319     -1.268799
  H       0.119062      1.800486      3.642670
25
Coordinates from ORCA-job input E -2092.269506702744
  Co      0.769591      0.891889      1.196768
  H       3.462177      0.907683      1.262259
  H       2.146172     -1.472630      1.430570
  H       1.639905      1.987634      3.519485
  O      -1.199337      0.434760      1.489762
  O      -2.397428     -0.955755     -0.133667
  H      -0.717441      2.468919      0.003939
  O       0.910712      1.410055      3.247794
  H       1.780625     -0.936083      2.837426
  O       1.482461     -0.961013      1.915954
  H       3.071541      1.871239      0.114868
  O       2.759043      1.498398      0.952927
  H       0.642805      3.220659     -0.172664
  O       0.093324      2.777063      0.489194
  H      -3.078393     -1.454863      0.329399
  H      -1.360042     -0.226423      2.174847
  H       1.231683      0.602974     -1.445261
  O       0.621761      0.212295     -0.803572
  H      -0.281224      0.552057     -1.033423
  B      -2.296773      0.358914      0.438755
  O      -3.556252      0.771726      0.992725
  H      -3.436829      1.582311      1.499807
  O      -1.762808      1.298959     -0.599297
  H      -2.439265      1.467349     -1.266768
  H       0.114529      1.798334      3.640365
25
Coordinates from ORCA-job input E -2092.269509446877
  Co      0.770755      0.892852      1.195417
  H       3.464177      0.907107      1.263436
  H       2.146971     -1.471917      1.432627
  H       1.635228      1.985999      3.525480
  O      -1.198151      0.435999      1.489661
  O      -2.395955     -0.956151     -0.131999
  H      -0.716306      2.468373      0.003015
  O       0.907174      1.409981      3.247500
  H       1.779749     -0.931147      2.837393
  O       1.481681     -0.960457      1.916003
  H       3.075756      1.869068      0.113783
  O       2.760890      1.495769      0.950717
  H       0.645072      3.219887     -0.174516
  O       0.094912      2.777086      0.487247
  H      -3.079967     -1.453635      0.328246
  H      -1.355734     -0.226788      2.173936
  H       1.230514      0.603567     -1.448063
  O       0.621288      0.212995     -0.805658
  H      -0.282030      0.551967     -1.034674
  B      -2.296470      0.359233      0.439921
  O      -3.556511      0.770057      0.994081
  H      -3.436809      1.578385      1.504696
  O      -1.764261      1.300125     -0.597960
  H      -2.440591      1.470351     -1.264981
  H       0.109155      1.797746      3.636885
25
Coordinates from ORCA-job input E -2092.269511650358
  Co      0.771923      0.893663      1.193939
  H       3.466176      0.907079      1.266016
  H       2.148228     -1.471198      1.433762
  H       1.630650      1.984497      3.530370
  O      -1.196900      0.437217      1.489675
  O      -2.394731     -0.956625     -0.129544
  H      -0.715194      2.467589      0.002814
  O       0.903437      1.410166      3.246814
  H       1.779230     -0.927600      2.836526
  O       1.481114     -0.960271      1.915225
  H       3.079991      1.866078      0.113220
  O       2.762635      1.493308      0.949429
  H       0.645970      3.218831     -0.177122
  O       0.096387      2.777254      0.485956
  H      -3.081122     -1.452837      0.328417
  H      -1.352055     -0.227398      2.172746
  H       1.229952      0.604069     -1.450314
  O       0.620553      0.214043     -0.807778
  H      -0.282894      0.553120     -1.035862
  B      -2.296155      0.359598      0.440921
  O      -3.556549      0.769479      0.994910
  H      -3.436749      1.575238      1.509521
  O      -1.765376      1.301038     -0.596967
  H      -2.441751      1.472471     -1.263559
  H       0.103766      1.797642      3.633078
25
Coordinates from ORCA-job input E -2092.269514598383
  Co      0.772964      0.894071      1.192677
  H       3.467807      0.907683      1.268423
  H       2.150656     -1.470066      1.434528
  H       1.626842      1.983472      3.533415
  O      -1.195692      0.437571      1.489669
  O      -2.394755     -0.957114     -0.127058
  H      -0.714562      2.467066      0.003416
  O       0.900415      1.410105      3.245988
  H       1.778955     -0.925736      2.835725
  O       1.481412     -0.960234      1.914254
  H       3.083075      1.864045      0.113174
  O       2.763835      1.491762      0.948875
  H       0.645472      3.217726     -0.179531
  O       0.097324      2.777422      0.485662
  H      -3.083432     -1.451858      0.328980
  H      -1.349523     -0.228657      2.171489
  H       1.229906      0.603947     -1.452116
  O       0.620144      0.214925     -0.809362
  H      -0.283341      0.554513     -1.036687
  B      -2.295897      0.359665      0.441681
  O      -3.556015      0.770267      0.995703
  H      -3.436041      1.574711      1.512275
  O      -1.765645      1.300947     -0.596639
  H      -2.442702      1.473304     -1.262303
  H       0.099334      1.796914      3.629955
25
Coordinates from ORCA-job input E -2092.269518278044
  Co      0.774075      0.894091      1.191439
  H       3.469435      0.908913      1.270517
  H       2.154533     -1.468377      1.435517
  H       1.622972      1.982662      3.535707
  O      -1.194351      0.437166      1.489666
  O      -2.395650     -0.957465     -0.124750
  H      -0.714580      2.466368      0.004543
  O       0.897464      1.409817      3.244999
  H       1.778756     -0.924597      2.835337
  O       1.482624     -0.960297      1.913416
  H       3.085454      1.863016      0.113318
  O       2.764746      1.490773      0.948483
  H       0.643964      3.216435     -0.181782
  O       0.097705      2.777337      0.485858
  H      -3.087531     -1.450023      0.328777
  H      -1.347268     -0.230609      2.170187
  H       1.230164      0.602632     -1.454149
  O       0.620121      0.215359     -0.810653
  H      -0.283266      0.555679     -1.037511
  B      -2.295553      0.359544      0.442487
  O      -3.554838      0.771841      0.997068
  H      -3.434439      1.576035      1.513880
  O      -1.765257      1.300349     -0.596484
  H      -2.443654      1.474129     -1.260458
  H       0.094912      1.795673      3.626783
25
Coordinates from ORCA-job input E -2092.269521229854
  Co      0.774891      0.893775      1.190666
  H       3.470579      0.910321      1.271308
  H       2.158559     -1.466607      1.436671
  H       1.620324      1.982406      3.536859
  O      -1.193355      0.436307      1.489832
  O      -2.396713     -0.957474     -0.123530
  H      -0.715097      2.465761      0.005587
  O       0.895698      1.409418      3.244287
  H       1.778234     -0.924375      2.835723
  O       1.484174     -0.960446      1.913130
  H       3.086377      1.863225      0.113226
  O       2.765117      1.490508      0.947956
  H       0.642533      3.215545     -0.182861
  O       0.097563      2.777017      0.486257
  H      -3.091635     -1.447953      0.327614
  H      -1.345862     -0.232638      2.169300
  H       1.230362      0.600660     -1.455685
  O       0.620243      0.215140     -0.811225
  H      -0.282974      0.555935     -1.038097
  B      -2.295198      0.359409      0.443174
  O      -3.553648      0.773206      0.998453
  H      -3.432869      1.578292      1.513762
  O      -1.764563      1.299855     -0.596253
  H      -2.444231      1.474909     -1.258642
  H       0.092024      1.794256      3.624683
25
Coordinates from ORCA-job input E -2092.269524312450
  Co      0.775885      0.893212      1.189763
  H       3.471941      0.912217      1.271896
  H       2.163901     -1.464227      1.438162
  H       1.617252      1.982367      3.537838
  O      -1.192221      0.435039      1.490029
  O      -2.398162     -0.957479     -0.122277
  H      -0.715762      2.465218      0.006688
  O       0.893733      1.408961      3.243374
  H       1.777082     -0.924696      2.836499
  O       1.486250     -0.960823      1.912884
  H       3.087041      1.864140      0.113138
  O       2.765459      1.490454      0.947299
  H       0.641392      3.214879     -0.183440
  O       0.097378      2.776592      0.486626
  H      -3.096931     -1.445231      0.325910
  H      -1.344210     -0.235396      2.168146
  H       1.230645      0.597688     -1.457540
  O       0.620534      0.214503     -0.811687
  H      -0.282441      0.555649     -1.038860
  B      -2.294840      0.359261      0.444117
  O      -3.552325      0.774561      1.000359
  H      -3.430935      1.581153      1.513161
  O      -1.763855      1.299319     -0.595807
  H      -2.445055      1.476311     -1.256145
  H       0.088780      1.792780      3.622062
25
Coordinates from ORCA-job input E -2092.269525218730
  Co      0.776411      0.892727      1.189290
  H       3.472702      0.913764      1.272124
  H       2.167262     -1.462642      1.439179
  H       1.615710      1.982686      3.538145
  O      -1.191725      0.434366      1.490364
  O      -2.398618     -0.957338     -0.121746
  H      -0.715999      2.464910      0.006971
  O       0.892975      1.408730      3.242847
  H       1.775572     -0.925494      2.837251
  O       1.487332     -0.961324      1.912822
  H       3.086997      1.864673      0.112617
  O       2.765481      1.490549      0.946594
  H       0.641369      3.214901     -0.183113
  O       0.097327      2.776277      0.486681
  H      -3.099340     -1.443703      0.324912
  H      -1.343288     -0.237310      2.167354
  H       1.230542      0.595905     -1.458252
  O       0.620408      0.213821     -0.811767
  H      -0.282375      0.555116     -1.039225
  B      -2.294594      0.359375      0.444745
  O      -3.551796      0.775016      1.001317
  H      -3.430179      1.582675      1.512401
  O      -1.763566      1.299461     -0.595235
  H      -2.445367      1.477395     -1.254704
  H       0.087296      1.791914      3.620622
25
Coordinates from ORCA-job input E -2092.269525400987
  Co      0.777156      0.892118      1.188550
  H       3.473796      0.916221      1.272943
  H       2.171638     -1.460427      1.440413
  H       1.613570      1.983254      3.538535
  O      -1.191161      0.433693      1.490791
  O      -2.399112     -0.957414     -0.120533
  H      -0.715666      2.464923      0.006845
  O       0.892062      1.408357      3.242065
  H       1.772932     -0.926938      2.838073
  O       1.488374     -0.962223      1.912502
  H       3.087081      1.865044      0.111775
  O       2.765521      1.490657      0.945604
  H       0.642363      3.215413     -0.182357
  O       0.097762      2.776087      0.486454
  H      -3.102084     -1.442029      0.324495
  H      -1.341844     -0.240062      2.165918
  H       1.230197      0.594224     -1.458995
  O       0.620109      0.213033     -0.811925
  H      -0.282561      0.554329     -1.039545
  B      -2.294411      0.359604      0.445672
  O      -3.551494      0.775452      1.002341
  H      -3.429579      1.584265      1.511565
  O      -1.763576      1.299614     -0.594442
  H      -2.445873      1.478615     -1.253090
  H       0.085337      1.790644      3.618539
25
Coordinates from ORCA-job input E -2092.269524723496
  Co      0.777485      0.891845      1.188167
  H       3.474355      0.917828      1.273831
  H       2.173384     -1.459447      1.440727
  H       1.612586      1.983500      3.538752
  O      -1.191025      0.433651      1.491050
  O      -2.399185     -0.957607     -0.119505
  H      -0.715094      2.464985      0.006436
  O       0.891735      1.408079      3.241695
  H       1.771567     -0.927830      2.838185
  O       1.488494     -0.962845      1.912149
  H       3.087172      1.864850      0.111223
  O       2.765476      1.490702      0.945099
  H       0.643242      3.215900     -0.181873
  O       0.098188      2.776108      0.486229
  H      -3.103028     -1.441430      0.324992
  H      -1.341038     -0.241332      2.165108
  H       1.229911      0.594014     -1.459073
  O       0.619800      0.212837     -0.812014
  H      -0.282883      0.554159     -1.039551
  B      -2.294378      0.359799      0.446138
  O      -3.551583      0.775744      1.002493
  H      -3.429577      1.584734      1.511431
  O      -1.763712      1.299652     -0.594080
  H      -2.445827      1.478637     -1.252901
  H       0.084472      1.789917      3.617486
25
Coordinates from ORCA-job input E -2092.269524001338
  Co      0.777882      0.891599      1.187717
  H       3.475060      0.920006      1.275255
  H       2.175080     -1.458394      1.440828
  H       1.611337      1.983605      3.539171
  O      -1.190883      0.433660      1.491258
  O      -2.399640     -0.958045     -0.117862
  H      -0.714239      2.465135      0.005825
  O       0.891351      1.407500      3.241336
  H       1.770473     -0.928621      2.837997
  O       1.488484     -0.963534      1.911618
  H       3.087461      1.864559      0.110703
  O       2.765409      1.490817      0.944621
  H       0.644196      3.216412     -0.181589
  O       0.098775      2.776217      0.485934
  H      -3.104740     -1.440629      0.325962
  H      -1.339947     -0.242750      2.164105
  H       1.229589      0.594328     -1.459147
  O       0.619592      0.212875     -0.812140
  H      -0.283264      0.554140     -1.039338
  B      -2.294417      0.359918      0.446653
  O      -3.551640      0.776488      1.002589
  H      -3.429380      1.585439      1.511531
  O      -1.763792      1.299201     -0.593953
  H      -2.445569      1.477901     -1.253186
  H       0.083356      1.788623      3.616305
25
Coordinates from ORCA-job input E -2092.269523077921
  Co      0.778311      0.891201      1.187330
  H       3.475983      0.923381      1.277313
  H       2.176692     -1.457349      1.440357
  H       1.609804      1.983676      3.539713
  O      -1.190735      0.433436      1.491603
  O      -2.400842     -0.958634     -0.115688
  H      -0.713826      2.465092      0.005668
  O       0.890987      1.406504      3.241111
  H       1.770531     -0.929155      2.837382
  O       1.488605     -0.964377      1.910980
  H       3.087684      1.864534      0.110133
  O       2.765176      1.491217      0.944057
  H       0.644478      3.216666     -0.181563
  O       0.099076      2.776186      0.485783
  H      -3.108134     -1.439042      0.326989
  H      -1.338587     -0.244783      2.162903
  H       1.229093      0.594697     -1.459037
  O       0.619311      0.212911     -0.812025
  H      -0.283790      0.554062     -1.038773
  B      -2.294373      0.359968      0.447233
  O      -3.551366      0.778226      1.002545
  H      -3.428420      1.587205      1.511277
  O      -1.763027      1.297962     -0.594061
  H      -2.444130      1.476252     -1.254096
  H       0.082035      1.786616      3.615059
25
Coordinates from ORCA-job input E -2092.269518153476
  Co      0.779385      0.889771      1.186287
  H       3.478165      0.931565      1.283131
  H       2.179982     -1.455465      1.440604
  H       1.605444      1.985306      3.539900
  O      -1.190243      0.431711      1.491446
  O      -2.404772     -0.957115     -0.114564
  H      -0.711573      2.462427      0.001085
  O       0.889605      1.405000      3.240207
  H       1.772649     -0.928396      2.836925
  O       1.489329     -0.965765      1.910980
  H       3.088730      1.864659      0.109732
  O       2.764784      1.492371      0.943541
  H       0.645556      3.215874     -0.183158
  O       0.099493      2.774639      0.483170
  H      -3.115847     -1.434501      0.325275
  H      -1.335040     -0.251361      2.158495
  H       1.230688      0.593417     -1.458181
  O       0.621046      0.210836     -0.811521
  H      -0.282693      0.551258     -1.038098
  B      -2.295307      0.361140      0.448524
  O      -3.551105      0.780989      1.005604
  H      -3.426318      1.588007      1.516971
  O      -1.764560      1.299589     -0.592501
  H      -2.445129      1.477806     -1.253124
  H       0.078267      1.782690      3.611466
25
Coordinates from ORCA-job input E -2092.269523380263
  Co      0.779482      0.890418      1.186173
  H       3.478650      0.932665      1.284479
  H       2.179095     -1.455251      1.437349
  H       1.605596      1.983328      3.540974
  O      -1.190368      0.432967      1.491568
  O      -2.406551     -0.960990     -0.109070
  H      -0.711193      2.465608      0.003460
  O       0.889969      1.403048      3.240745
  H       1.772991     -0.929312      2.834534
  O       1.488763     -0.966160      1.908837
  H       3.089552      1.865027      0.110310
  O       2.765019      1.492438      0.943737
  H       0.646195      3.218221     -0.180563
  O       0.100340      2.776714      0.485768
  H      -3.119933     -1.434689      0.331058
  H      -1.335159     -0.248507      2.160253
  H       1.230714      0.595238     -1.458701
  O       0.620438      0.213747     -0.812001
  H      -0.282587      0.555974     -1.038590
  B      -2.295337      0.359222      0.448641
  O      -3.550396      0.782905      1.004410
  H      -3.424869      1.592637      1.511272
  O      -1.763694      1.292601     -0.596765
  H      -2.444589      1.468413     -1.257733
  H       0.078409      1.780191      3.612049
25
Coordinates from ORCA-job input E -2092.269522375334
  Co      0.778102      0.891251      1.187865
  H       3.475899      0.923261      1.277157
  H       2.174816     -1.458394      1.438653
  H       1.609771      1.984624      3.539303
  O      -1.190628      0.433047      1.491403
  O      -2.401798     -0.958726     -0.115762
  H      -0.716285      2.465095      0.008511
  O       0.891501      1.406168      3.241851
  H       1.773559     -0.928050      2.836578
  O       1.488993     -0.963926      1.911014
  H       3.087639      1.865449      0.110853
  O       2.765212      1.491623      0.944576
  H       0.641930      3.215544     -0.182594
  O       0.098006      2.775931      0.486555
  H      -3.109602     -1.438272      0.327063
  H      -1.339092     -0.244240      2.163503
  H       1.227445      0.596350     -1.459449
  O       0.619471      0.212913     -0.811689
  H      -0.284813      0.551263     -1.037640
  B      -2.293933      0.359817      0.446695
  O      -3.550384      0.780041      1.001675
  H      -3.426541      1.589377      1.509600
  O      -1.760244      1.296410     -0.594911
  H      -2.440864      1.474901     -1.255360
  H       0.082380      1.784996      3.616743
25
Coordinates from ORCA-job input E -2092.269524660182
  Co      0.779047      0.890253      1.186641
  H       3.477876      0.930370      1.282194
  H       2.178734     -1.455841      1.438468
  H       1.606204      1.984528      3.540055
  O      -1.190245      0.431929      1.491402
  O      -2.405763     -0.959049     -0.112486
  H      -0.713189      2.463786      0.003806
  O       0.890056      1.404299      3.240946
  H       1.773467     -0.928426      2.835754
  O       1.489464     -0.965361      1.910021
  H       3.088715      1.865699      0.110517
  O       2.764906      1.492500      0.943964
  H       0.644083      3.216548     -0.181831
  O       0.098709      2.775392      0.485124
  H      -3.117537     -1.434838      0.327997
  H      -1.335956     -0.249094      2.160337
  H       1.230560      0.593776     -1.458757
  O       0.620541      0.212270     -0.811804
  H      -0.282580      0.553785     -1.038697
  B      -2.295050      0.359963      0.448254
  O      -3.550274      0.782362      1.004536
  H      -3.424801      1.591285      1.512710
  O      -1.762361      1.295446     -0.594754
  H      -2.443105      1.473123     -1.255338
  H       0.079037      1.781747      3.613133
25
Coordinates from ORCA-job input E -2092.269525094906
  Co      0.779398      0.890230      1.186527
  H       3.478481      0.931454      1.283272
  H       2.178969     -1.455594      1.437845
  H       1.605336      1.984952      3.540201
  O      -1.190002      0.431936      1.491099
  O      -2.406796     -0.959403     -0.111492
  H      -0.713118      2.464256      0.004507
  O       0.890051      1.403678      3.241055
  H       1.774146     -0.928280      2.835260
  O       1.489612     -0.965508      1.909694
  H       3.089381      1.866014      0.110961
  O       2.765192      1.492657      0.944181
  H       0.644243      3.216556     -0.182050
  O       0.099194      2.775609      0.485313
  H      -3.119422     -1.434049      0.328840
  H      -1.335402     -0.249339      2.159846
  H       1.229792      0.595315     -1.459154
  O       0.621090      0.212374     -0.811810
  H      -0.283060      0.551756     -1.037927
  B      -2.295117      0.359927      0.448197
  O      -3.549922      0.783351      1.004620
  H      -3.423923      1.592479      1.512332
  O      -1.762563      1.294492     -0.595800
  H      -2.443462      1.471585     -1.256406
  H       0.078437      1.780003      3.613082
25
Coordinates from ORCA-job input E -2092.269525978119
  Co      0.779286      0.890202      1.186567
  H       3.478402      0.931351      1.282929
  H       2.179203     -1.455398      1.437707
  H       1.605296      1.984921      3.540143
  O      -1.189950      0.431583      1.491061
  O      -2.407286     -0.959485     -0.111375
  H      -0.713261      2.463889      0.004102
  O       0.889972      1.403609      3.241163
  H       1.774177     -0.928195      2.835221
  O       1.489828     -0.965392      1.909602
  H       3.089232      1.866527      0.111152
  O       2.765115      1.492788      0.944229
  H       0.643943      3.216660     -0.181599
  O       0.098701      2.775402      0.485399
  H      -3.120091     -1.433872      0.328949
  H      -1.335433     -0.249572      2.159911
  H       1.230197      0.594571     -1.459171
  O       0.621015      0.212309     -0.811876
  H      -0.282717      0.552535     -1.038313
  B      -2.295165      0.359811      0.448273
  O      -3.549766      0.783730      1.004742
  H      -3.423466      1.593012      1.512136
  O      -1.762101      1.294111     -0.595729
  H      -2.442988      1.471407     -1.256289
  H       0.078397      1.779947      3.613260
25
Coordinates from ORCA-job input E -2092.269527236796
  Co      0.779501      0.889918      1.186378
  H       3.478947      0.932939      1.283732
  H       2.180517     -1.454525      1.437300
  H       1.604044      1.985270      3.540240
  O      -1.189582      0.430651      1.490779
  O      -2.409251     -0.959585     -0.110417
  H      -0.713536      2.463226      0.003798
  O       0.889531      1.402972      3.241235
  H       1.774709     -0.927975      2.834908
  O       1.490488     -0.965509      1.909265
  H       3.089505      1.867611      0.111632
  O       2.765115      1.493247      0.944320
  H       0.643476      3.216496     -0.181546
  O       0.098241      2.774915      0.485242
  H      -3.123435     -1.432400      0.329361
  H      -1.334587     -0.251267      2.158956
  H       1.230906      0.593643     -1.459313
  O       0.621445      0.211877     -0.811989
  H      -0.282080      0.552590     -1.038638
  B      -2.295389      0.359822      0.448593
  O      -3.549255      0.785354      1.005448
  H      -3.421867      1.594785      1.512337
  O      -1.761682      1.293255     -0.595899
  H      -2.442579      1.470681     -1.256411
  H       0.077355      1.778461      3.612883
